LAMMPS data file Created by LigParGen - (Written by Leela S. Dodda)

      34 atoms
      35 bonds
      70 angles
     106 dihedrals
      27 impropers
 
      34 atom types
      35 bond types
      70 angle types
     106 dihedral types
      27 improper types
 
   -3.121900    46.878100 xlo xhi
   -0.031470    49.968530 ylo yhi
   -2.056950    47.943050 zlo zhi

Masses

       1     12.011  
       2     12.011  
       3     12.011  
       4     12.011  
       5     12.011  
       6     12.011  
       7     12.011  
       8     12.011  
       9     12.011  
      10     12.011  
      11     15.999  
      12     15.999  
      13     12.011  
      14     12.011  
      15      1.008  
      16      1.008  
      17      1.008  
      18      1.008  
      19      1.008  
      20      1.008  
      21      1.008  
      22      1.008  
      23      1.008  
      24      1.008  
      25      1.008  
      26      1.008  
      27      1.008  
      28      1.008  
      29      1.008  
      30      1.008  
      31      1.008  
      32      1.008  
      33      1.008  
      34      1.008  

Pair Coeffs 

       1      0.066  3.5000000 
       2      0.066  3.5000000 
       3      0.066  3.5000000 
       4      0.083  3.4500000 
       5      0.083  3.4500000 
       6      0.083  3.4500000 
       7      0.083  3.4500000 
       8      0.066  3.5000000 
       9      0.066  3.5000000 
      10      0.070  3.5500000 
      11      0.210  2.9600000 
      12      0.140  2.9000000 
      13      0.066  3.5000000 
      14      0.066  3.5000000 
      15      0.030  2.5000000 
      16      0.030  2.5000000 
      17      0.030  2.5000000 
      18      0.030  2.5000000 
      19      0.030  2.5000000 
      20      0.030  2.5000000 
      21      0.030  2.5000000 
      22      0.030  2.5000000 
      23      0.030  2.5000000 
      24      0.030  2.5000000 
      25      0.030  2.5000000 
      26      0.030  2.5000000 
      27      0.030  2.5000000 
      28      0.030  2.5000000 
      29      0.030  2.5000000 
      30      0.030  2.5000000 
      31      0.030  2.5000000 
      32      0.030  2.5000000 
      33      0.030  2.5000000 
      34      0.030  2.5000000 

Bond Coeffs 

       1   268.0000     1.5290 
       2   268.0000     1.5290 
       3   280.0000     1.5100 
       4   260.0000     1.5200 
       5   260.0000     1.5200 
       6   260.0000     1.5200 
       7   280.0000     1.5100 
       8   268.0000     1.5290 
       9   317.0000     1.5220 
      10   570.0000     1.2290 
      11   214.0000     1.3270 
      12   268.0000     1.5290 
      13   268.0000     1.5290 
      14   340.0000     1.0900 
      15   340.0000     1.0900 
      16   340.0000     1.0900 
      17   340.0000     1.0900 
      18   340.0000     1.0900 
      19   340.0000     1.0900 
      20   340.0000     1.0880 
      21   340.0000     1.0880 
      22   340.0000     1.0880 
      23   340.0000     1.0880 
      24   340.0000     1.0880 
      25   340.0000     1.0880 
      26   340.0000     1.0900 
      27   340.0000     1.0900 
      28   340.0000     1.0900 
      29   340.0000     1.0900 
      30   340.0000     1.0900 
      31   340.0000     1.0900 
      32   340.0000     1.0900 
      33   340.0000     1.0900 
      34   260.0000     1.5200 
      35   320.0000     1.4100 

Angle Coeffs 

       1     58.350    112.700
       2     58.350    112.700
       3     37.500    117.200
       4     30.000     83.000
       5     37.500    117.200
       6     37.500    117.200
       7     58.350    112.700
       8     63.000    111.100
       9     80.000    120.400
      10     81.000    111.400
      11     58.350    112.700
      12     58.350    112.700
      13     37.500    110.700
      14     37.500    110.700
      15     37.500    110.700
      16     37.500    110.700
      17     37.500    110.700
      18     37.500    110.700
      19     35.000    114.300
      20     37.500    117.200
      21     37.500    117.200
      22     37.500    117.200
      23     37.500    117.200
      24     37.500    117.200
      25     37.500    110.700
      26     37.500    110.700
      27     37.500    110.700
      28     37.500    110.700
      29     37.500    110.700
      30     37.500    110.700
      31     37.500    110.700
      32     37.500    110.700
      33     83.000    123.400
      34     33.000    107.800
      35     35.000    114.300
      36     50.000    109.500
      37     33.000    107.800
      38     37.500    117.200
      39     63.000    111.100
      40     37.500    117.200
      41     37.500    110.700
      42     30.000     83.000
      43     37.500    117.200
      44     37.500    117.200
      45     37.500    110.700
      46     37.500    110.700
      47     37.500    117.200
      48     83.000    116.900
      49     33.000    107.800
      50     33.000    107.800
      51     37.500    110.700
      52     33.000    107.800
      53     35.000    109.500
      54     33.000    107.800
      55     37.500    110.700
      56     37.500    117.200
      57     30.000     83.000
      58     35.000    109.500
      59     58.350    112.700
      60     33.000    107.800
      61     33.000    107.800
      62     35.000    114.300
      63     37.500    117.200
      64     37.500    117.200
      65     37.500    110.700
      66     35.000    114.300
      67     50.000    109.500
      68     30.000     83.000
      69     33.000    107.800
      70     33.000    107.800

Dihedral Coeffs  

       1      1.300     -0.200      0.200      0.000 
       2      0.000      0.000      0.000      0.000 
       3      0.000      0.000      0.000      0.000 
       4      0.000      0.000      0.000      0.000 
       5      0.000      0.000      0.000      0.000 
       6      0.000      0.000      0.300      0.000 
       7      0.000      0.000      0.300      0.000 
       8      0.000      0.000      0.300      0.000 
       9      0.000      0.000      0.000      0.000 
      10      1.711     -0.500      0.663      0.000 
      11      1.300     -0.200      0.200      0.000 
      12      0.000      0.000      0.000      0.000 
      13      4.669      5.124      0.000      0.000 
      14      0.000      0.000      0.000      0.000 
      15      0.000      0.000      0.300      0.000 
      16      0.000      0.000      0.000      0.000 
      17      0.000      0.000      0.300      0.000 
      18      0.000      0.000      0.300      0.000 
      19      0.000      0.000     -0.100      0.000 
      20      1.300     -0.200      0.200      0.000 
      21      0.000      5.124      0.000      0.000 
      22      0.000      0.000     -0.100      0.000 
      23      0.000      0.000      0.000      0.000 
      24      0.000      0.000      0.000      0.000 
      25      0.000      0.000      0.000      0.000 
      26      0.000      0.000      0.300      0.000 
      27      0.000      0.000      0.300      0.000 
      28      0.000      0.000      0.000      0.000 
      29      0.000      0.000      0.000      0.000 
      30      0.000      0.000      0.300      0.000 
      31      0.000      0.000      0.300      0.000 
      32      0.000      0.000      0.300      0.000 
      33      0.000      0.000      0.300      0.000 
      34      0.000      0.000      0.000      0.000 
      35      0.000      0.000      0.300      0.000 
      36      0.000      0.000      0.000      0.000 
      37      0.000      0.000      0.000      0.000 
      38     -1.220     -0.126      0.422      0.000 
      39      0.000      0.000      0.300      0.000 
      40      0.000      0.000      0.300      0.000 
      41      0.000      0.000      0.300      0.000 
      42      0.000      0.000      0.468      0.000 
      43      0.000      0.000      0.000      0.000 
      44      0.000      0.000      0.000      0.000 
      45      0.000      0.000      0.300      0.000 
      46      0.000      0.000      0.300      0.000 
      47      0.000      0.000      0.000      0.000 
      48      0.000      0.000      0.000      0.000 
      49      0.000      0.000      0.000      0.000 
      50      0.000      0.000      0.468      0.000 
      51      0.000      0.000      0.000      0.000 
      52      0.000      0.000      0.300      0.000 
      53      0.000      0.000      0.300      0.000 
      54      0.000      0.000      0.300      0.000 
      55      0.000      0.000      0.300      0.000 
      56      0.000      0.000      0.300      0.000 
      57      0.000      0.000      0.000      0.000 
      58      0.000      0.000      0.000      0.000 
      59     -2.060     -0.313      0.315      0.000 
      60      0.000      0.000      0.300      0.000 
      61      0.000      0.000      0.132      0.000 
      62      0.000      0.000     -0.100      0.000 
      63      0.000      0.000      0.000      0.000 
      64      0.000      0.000      0.300      0.000 
      65      1.711     -0.500      0.663      0.000 
      66      0.000      0.000      0.000      0.000 
      67      0.000      0.000      0.300      0.000 
      68      0.000      0.000      0.000      0.000 
      69      1.300     -0.200      0.200      0.000 
      70      0.000      0.000      0.000      0.000 
      71      0.000      0.000      0.300      0.000 
      72      0.000      0.000      0.000      0.000 
      73      0.000      0.000      0.000      0.000 
      74      0.000      0.000      0.300      0.000 
      75      0.000      0.000      0.300      0.000 
      76     -1.220     -0.126      0.422      0.000 
      77      0.000      0.000      0.300      0.000 
      78      0.000      0.000      0.000      0.000 
      79      0.000      0.000      0.300      0.000 
      80      0.000      0.000     -0.553      0.000 
      81      0.000      0.000      0.300      0.000 
      82      0.000      0.000      0.468      0.000 
      83      0.000      0.000      0.198      0.000 
      84      0.000      0.000      0.300      0.000 
      85      0.000      0.000     -0.553      0.000 
      86      0.000      0.000     -0.100      0.000 
      87      0.000      0.000      0.000      0.000 
      88      0.000      0.000      0.300      0.000 
      89      0.000      0.000      0.300      0.000 
      90      0.000      0.000      0.000      0.000 
      91      0.000      0.000      0.000      0.000 
      92      0.000      0.000      0.000      0.000 
      93      0.000      0.000      0.000      0.000 
      94      0.000      0.000      0.300      0.000 
      95     -2.060     -0.313      0.315      0.000 
      96      0.000      0.000      0.300      0.000 
      97      0.000      0.000      0.300      0.000 
      98      0.000      0.000      0.000      0.000 
      99      0.000      0.000      0.300      0.000 
     100      0.000      0.000      0.300      0.000 
     101      0.000      0.000      0.300      0.000 
     102      0.000      0.000      0.000      0.000 
     103      0.000      0.000      0.300      0.000 
     104      0.000      0.000      0.468      0.000 
     105      0.000      0.000      0.300      0.000 
     106      0.000      0.000      0.000      0.000 

Improper Coeffs 

       1      0.000      -1       2 
       2      0.000      -1       2 
       3      0.000      -1       2 
       4     10.500      -1       2 
       5      0.000      -1       2 
       6      0.000      -1       2 
       7      0.000      -1       2 
       8      0.000      -1       2 
       9      0.000      -1       2 
      10      0.000      -1       2 
      11      0.000      -1       2 
      12      0.000      -1       2 
      13      0.000      -1       2 
      14      0.000      -1       2 
      15      0.000      -1       2 
      16      0.000      -1       2 
      17      0.000      -1       2 
      18      0.000      -1       2 
      19      0.000      -1       2 
      20      0.000      -1       2 
      21      0.000      -1       2 
      22      0.000      -1       2 
      23      0.000      -1       2 
      24      0.000      -1       2 
      25      0.000      -1       2 
      26      0.000      -1       2 
      27      0.000      -1       2 

Atoms 

     1      1      1 -0.24090000    1.000  1.00000  0.00000
     2      1      2 -0.13850000   -0.532  1.00000  0.00000
     3      1      3 -0.13630000   -1.160  1.00000  1.40574
     4      1      4 -0.13380000   -1.160  2.23277  2.31119
     5      1      5 -0.17950000   -0.015  3.26547  2.42833
     6      1      6 -0.11560000   -0.937  4.32877  1.76590
     7      1      7 -0.18890000   -2.133  3.42123  2.13332
     8      1      8 -0.13970000   -0.719  4.80209  0.32434
     9      1      9 -0.22390000   -2.017  5.30902 -0.30794
    10      1     10 0.49700000    0.038  3.87852 -0.59351
    11      1     11 -0.40970000    1.258  3.91176 -0.70990
    12      1     12 -0.42470000   -0.751  3.16333 -1.41837
    13      1     13 0.13710000   -1.186  1.82494 -1.13295
    14      1     14 -0.26470000   -2.714  1.81976 -1.12006
    15      1     15 0.09510000    1.385  0.16949  0.60109
    16      1     16 0.09510000    1.443  1.89953  0.41337
    17      1     17 0.09510000    1.386  0.87628 -1.01779
    18      1     18 0.09130000   -0.755 -0.03147 -0.32590
    19      1     19 0.09110000   -0.641  0.20484  1.96258
    20      1     20 0.09110000   -2.194  0.63688  1.32525
    21      1     21 0.08440000   -1.360  1.79258  3.30514
    22      1     22 0.11050000    0.933  3.04291  1.94877
    23      1     23 0.11050000    0.211  3.50055  3.47809
    24      1     24 0.10010000   -0.959  5.24359  2.37804
    25      1     25 0.10240000   -2.947  3.32482  1.42245
    26      1     26 0.10240000   -2.594  3.72762  3.08423
    27      1     27 0.12500000   -0.068  5.68743  0.37972
    28      1     28 0.09120000   -2.759  4.51640 -0.42804
    29      1     29 0.09120000   -1.829  5.71879 -1.30719
    30      1     30 0.09120000   -2.471  6.08893  0.30815
    31      1     31 0.10330000   -0.916  1.29964 -2.05695
    32      1     32 0.09700000   -3.122  2.22137 -0.19609
    33      1     33 0.09700000   -3.105  0.80555 -1.23465
    34      1     34 0.09700000   -3.112  2.44768 -1.92463

Bonds 

     1      1      2      1
     2      2      3      2
     3      3      4      3
     4      4      5      4
     5      5      6      5
     6      6      7      4
     7      7      8      6
     8      8      9      8
     9      9     10      8
    10     10     11     10
    11     11     12     10
    12     12     13      2
    13     13     14     13
    14     14     15      1
    15     15     16      1
    16     16     17      1
    17     17     18      2
    18     18     19      3
    19     19     20      3
    20     20     21      4
    21     21     22      5
    22     22     23      5
    23     23     24      6
    24     24     25      7
    25     25     26      7
    26     26     27      8
    27     27     28      9
    28     28     29      9
    29     29     30      9
    30     30     31     13
    31     31     32     14
    32     32     33     14
    33     33     34     14
    34     34      7      6
    35     35     13     12

Angles 

     1      1      1      2      3
     2      2      2      3      4
     3      3      3      4      5
     4      4      4      5      6
     5      5      3      4      7
     6      6      5      6      8
     7      7      6      8      9
     8      8      6      8     10
     9      9      8     10     11
    10     10      8     10     12
    11     11      1      2     13
    12     12      2     13     14
    13     13      2      1     15
    14     14      2      1     16
    15     15      2      1     17
    16     16      1      2     18
    17     17      2      3     19
    18     18      2      3     20
    19     19      3      4     21
    20     20      4      5     22
    21     21      4      5     23
    22     22      5      6     24
    23     23      4      7     25
    24     24      4      7     26
    25     25      6      8     27
    26     26      8      9     28
    27     27      8      9     29
    28     28      8      9     30
    29     29      2     13     31
    30     30     13     14     32
    31     31     13     14     33
    32     32     13     14     34
    33     33     11     10     12
    34     34     19      3     20
    35     35     25      7     26
    36     36      2     13     12
    37     37     29      9     30
    38     38      7      6     24
    39     39      9      8     10
    40     40      7      4     21
    41     41      3      2     18
    42     42      5      4      7
    43     43      6      7     26
    44     44      6      5     22
    45     45     13      2     18
    46     46      4      3     19
    47     47      6      7     25
    48     48     10     12     13
    49     49     28      9     30
    50     50     32     14     33
    51     51      9      8     27
    52     52     33     14     34
    53     53     10      8     27
    54     54     15      1     16
    55     55     14     13     31
    56     56      7      6      8
    57     57      4      7      6
    58     58     12     13     31
    59     59      3      2     13
    60     60     15      1     17
    61     61     16      1     17
    62     62     22      5     23
    63     63      6      5     23
    64     64      5      4     21
    65     65      4      3     20
    66     66      8      6     24
    67     67     12     13     14
    68     68      5      6      7
    69     69     32     14     34
    70     70     28      9     29

Dihedrals

     1      1      4      3      2      1 
     2      2      5      4      3      2 
     3      3      6      5      4      3 
     4      4      9      8      6      5 
     5      5     11     10      8      6 
     6      6     15      1      2      3 
     7      7     28      9      8      6 
     8      8     32     14     13      2 
     9      9     25      7      4      5 
    10     10     12     13      2      3 
    11     11     14     13      2      1 
    12     12     24      6      5     22 
    13     13     13     12     10      8 
    14     14     26      7      4     21 
    15     15     20      3      4      7 
    16     16      8      6      5      4 
    17     17     31     13      2      1 
    18     18     20      3      2     13 
    19     19     28      9      8     10 
    20     20     13      2      3      4 
    21     21     13     12     10     11 
    22     22     30      9      8     10 
    23     23     25      7      6      8 
    24     24      6      7      4      3 
    25     25     27      8     10     11 
    26     26     18      2      1     17 
    27     27     30      9      8      6 
    28     28     22      5      6      8 
    29     29     23      5      6      7 
    30     30     31     13      2      3 
    31     31     18      2      1     15 
    32     32     18      2     13     14 
    33     33     27      8      6      5 
    34     34     22      5      4     21 
    35     35     19      3      2      1 
    36     36      9      8      6      7 
    37     37     22      5      4      7 
    38     38     10     12     13      2 
    39     39     20      3      2      1 
    40     40     21      4      3     19 
    41     41     20      3      2     18 
    42     42     34     14     13     12 
    43     43      8      6      7      4 
    44     44     26      7      4      3 
    45     45     19      3      2     13 
    46     46     30      9      8     27 
    47     47     26      7      6     24 
    48     48     22      5      4      3 
    49     49     23      5      4     21 
    50     50     33     14     13     12 
    51     51      7      4      3      2 
    52     52     17      1      2     13 
    53     53     17      1      2      3 
    54     54     34     14     13      2 
    55     55     20      3      4      5 
    56     56     34     14     13     31 
    57     57     25      7      6      5 
    58     58     23      5      4      3 
    59     59     10      8      6      7 
    60     60     21      4      3      2 
    61     61     27      8     10     12 
    62     62     29      9      8     10 
    63     63     25      7      6     24 
    64     64     27      8      6     24 
    65     65     12     13      2      1 
    66     66     24      6      5      4 
    67     67     19      3      4      7 
    68     68     22      5      6      7 
    69     69     14     13      2      3 
    70     70     21      4      7      6 
    71     71     29      9      8      6 
    72     72     25      7      4     21 
    73     73     24      6      5     23 
    74     74     31     13      2     18 
    75     75     33     14     13     31 
    76     76     14     13     12     10 
    77     77     29      9      8     27 
    78     78     23      5      4      7 
    79     79     15      1      2     13 
    80     80     12     10      8      6 
    81     81     21      4      3     20 
    82     82     18      2     13     12 
    83     83     31     13     12     10 
    84     84     28      9      8     27 
    85     85     12     10      8      9 
    86     86     24      6      8     10 
    87     87     26      7      6      8 
    88     88     19      3      2     18 
    89     89     16      1      2     13 
    90     90     26      7      4      5 
    91     91     23      5      6      8 
    92     92     21      4      5      6 
    93     93     11     10      8      9 
    94     94     19      3      4      5 
    95     95     10      8      6      5 
    96     96     18      2      3      4 
    97     97     32     14     13     31 
    98     98     26      7      6      5 
    99     99     24      6      8      9 
   100    100     27      8      6      7 
   101    101     16      1      2      3 
   102    102     24      6      7      4 
   103    103     18      2      1     16 
   104    104     32     14     13     12 
   105    105     33     14     13      2 
   106    106     25      7      4      3 

Impropers

     1      1      4      3      5      7 
     2      2      6      5      7      8 
     3      3      8      9     10      6 
     4      4     10     11     12      8 
     5      5      2      1      3     13 
     6      6     13      2     12     14 
     7      7      1      2     15     16 
     8      8      1     17     15      2 
     9      9      2      1     18      3 
    10     10      3      2     19      4 
    11     11      3      4      2     20 
    12     12      4      5      3     21 
    13     13      5      4     22      6 
    14     14      5      4      6     23 
    15     15      6      5      7     24 
    16     16      7     25      4      6 
    17     17      7     26      4      6 
    18     18      8      9     27      6 
    19     19      9     28     29      8 
    20     20      9     28     30      8 
    21     21     13      2     12     31 
    22     22     14     33     13     32 
    23     23     14     34     13     32 
    24     24      4      5      6      7 
    25     25      4      5      6      7 
    26     26      4      5      6      7 
    27     27      4      5      6      7 

