LAMMPS data file Created by LigParGen - (Written by Leela S. Dodda)

      28 atoms
      29 bonds
      58 angles
      88 dihedrals
      22 impropers
 
      28 atom types
      29 bond types
      58 angle types
      88 dihedral types
      22 improper types
 
   -5.042130    44.957870 xlo xhi
   -2.417850    47.582150 ylo yhi
   -1.623090    48.376910 zlo zhi

Masses

       1     12.011  
       2     12.011  
       3     12.011  
       4     12.011  
       5     12.011  
       6     12.011  
       7     12.011  
       8     12.011  
       9     12.011  
      10     12.011  
      11     15.999  
      12     15.999  
      13      1.008  
      14      1.008  
      15      1.008  
      16      1.008  
      17      1.008  
      18      1.008  
      19      1.008  
      20      1.008  
      21      1.008  
      22      1.008  
      23      1.008  
      24      1.008  
      25      1.008  
      26      1.008  
      27      1.008  
      28      1.008  

Pair Coeffs 

       1      0.066  3.5000000 
       2      0.066  3.5000000 
       3      0.066  3.5000000 
       4      0.083  3.4500000 
       5      0.083  3.4500000 
       6      0.083  3.4500000 
       7      0.066  3.5000000 
       8      0.083  3.4500000 
       9      0.066  3.5000000 
      10      0.070  3.5500000 
      11      0.210  2.9600000 
      12      0.140  2.9000000 
      13      0.030  2.5000000 
      14      0.030  2.5000000 
      15      0.030  2.5000000 
      16      0.030  2.5000000 
      17      0.030  2.5000000 
      18      0.030  2.5000000 
      19      0.030  2.5000000 
      20      0.030  2.5000000 
      21      0.030  2.5000000 
      22      0.030  2.5000000 
      23      0.030  2.5000000 
      24      0.030  2.5000000 
      25      0.030  2.5000000 
      26      0.030  2.5000000 
      27      0.030  2.5000000 
      28      0.030  2.5000000 

Bond Coeffs 

       1   268.0000     1.5290 
       2   268.0000     1.5290 
       3   280.0000     1.5100 
       4   260.0000     1.5200 
       5   260.0000     1.5200 
       6   280.0000     1.5100 
       7   260.0000     1.5200 
       8   280.0000     1.5100 
       9   317.0000     1.5220 
      10   570.0000     1.2290 
      11   320.0000     1.4100 
      12   340.0000     1.0900 
      13   340.0000     1.0900 
      14   340.0000     1.0900 
      15   340.0000     1.0900 
      16   340.0000     1.0900 
      17   340.0000     1.0900 
      18   340.0000     1.0900 
      19   340.0000     1.0880 
      20   340.0000     1.0880 
      21   340.0000     1.0880 
      22   340.0000     1.0900 
      23   340.0000     1.0900 
      24   340.0000     1.0900 
      25   340.0000     1.0880 
      26   340.0000     1.0900 
      27   340.0000     1.0900 
      28   260.0000     1.5200 
      29   214.0000     1.3270 

Angle Coeffs 

       1     58.350    112.700
       2     58.350    112.700
       3     37.500    117.200
       4     30.000     83.000
       5     37.500    117.200
       6     37.500    117.200
       7     37.500    117.200
       8     63.000    111.100
       9     80.000    120.400
      10     50.000    109.500
      11     37.500    110.700
      12     37.500    110.700
      13     37.500    110.700
      14     37.500    110.700
      15     37.500    110.700
      16     37.500    110.700
      17     37.500    110.700
      18     37.500    117.200
      19     37.500    117.200
      20     37.500    117.200
      21     37.500    110.700
      22     37.500    110.700
      23     37.500    110.700
      24     37.500    117.200
      25     37.500    110.700
      26     37.500    110.700
      27     33.000    107.800
      28     50.000    109.500
      29     33.000    107.800
      30     33.000    107.800
      31     35.000    109.500
      32     35.000    114.300
      33     37.500    117.200
      34     37.500    110.700
      35     33.000    107.800
      36     33.000    107.800
      37     30.000     83.000
      38     37.500    110.700
      39     30.000     83.000
      40     37.500    110.700
      41     30.000     83.000
      42     33.000    107.800
      43     37.500    110.700
      44     81.000    111.400
      45     33.000    107.800
      46     37.500    117.200
      47     33.000    107.800
      48     37.500    117.200
      49     37.500    117.200
      50     37.500    117.200
      51     37.500    117.200
      52     35.000    114.300
      53     33.000    107.800
      54     83.000    123.400
      55     35.000    109.500
      56     50.000    109.500
      57     83.000    116.900
      58     35.000    114.300

Dihedral Coeffs  

       1      1.300     -0.200      0.200      0.000 
       2      0.000      0.000      0.000      0.000 
       3      0.000      0.000      0.000      0.000 
       4      0.000      0.000      0.000      0.000 
       5     -2.060     -0.313      0.315      0.000 
       6      0.000      0.000      0.000      0.000 
       7      0.000      0.000      0.300      0.000 
       8      0.000      0.000      0.300      0.000 
       9      0.000      0.000      0.300      0.000 
      10      0.000      0.000      0.000      0.000 
      11      0.000      0.000      0.000      0.000 
      12      0.000      0.000      0.300      0.000 
      13      0.000      0.000      0.300      0.000 
      14      0.000      0.000      0.000      0.000 
      15      0.000      0.000      0.000      0.000 
      16      0.000      0.000      0.000      0.000 
      17      0.000      0.000      0.300      0.000 
      18      0.000      0.000      0.000      0.000 
      19      0.000      0.000      0.300      0.000 
      20      0.000      0.000      0.000      0.000 
      21      0.000      0.000      0.300      0.000 
      22      0.000      0.000      0.300      0.000 
      23      0.000      0.000     -0.100      0.000 
      24      0.000      0.000      0.300      0.000 
      25      0.000      0.000      0.300      0.000 
      26      0.000      0.000      0.468      0.000 
      27      0.000      0.000      0.300      0.000 
      28     -1.220     -0.126      0.422      0.000 
      29      0.000      0.000      0.300      0.000 
      30      0.000      0.000      0.000      0.000 
      31      0.000      0.000      0.300      0.000 
      32      0.000      0.000      0.000      0.000 
      33      0.000      0.000      0.000      0.000 
      34     -1.220     -0.126      0.422      0.000 
      35      0.000      0.000      0.000      0.000 
      36      0.000      0.000      0.000      0.000 
      37      0.000      0.000      0.000      0.000 
      38      0.000      0.000      0.300      0.000 
      39      0.000      0.000      0.000      0.000 
      40     -1.220     -0.126      0.422      0.000 
      41      0.000      0.000      0.000      0.000 
      42      0.000      0.000      0.300      0.000 
      43      0.000      0.000      0.000      0.000 
      44      0.000      0.000      0.132      0.000 
      45      0.000      0.000      0.000      0.000 
      46      0.000      0.000      0.300      0.000 
      47      0.000      0.000      0.300      0.000 
      48      0.000      0.000      0.000      0.000 
      49      0.000      0.000      0.000      0.000 
      50      0.000      0.000      0.300      0.000 
      51      0.000      0.000      0.300      0.000 
      52      0.000      0.000      0.000      0.000 
      53      0.000      0.000      0.300      0.000 
      54      0.000      0.000      0.000      0.000 
      55      0.000      0.000      0.300      0.000 
      56      0.000      0.000      0.300      0.000 
      57      0.000      0.000      0.000      0.000 
      58     -2.060     -0.313      0.315      0.000 
      59      4.669      5.124      0.000      0.000 
      60      0.000      0.000      0.300      0.000 
      61      0.000      0.000      0.000      0.000 
      62      0.000      0.000      0.300      0.000 
      63      0.000      0.000      0.300      0.000 
      64      0.000      0.000      0.300      0.000 
      65      0.000      0.000     -0.553      0.000 
      66      0.000      0.000      0.300      0.000 
      67      0.000      0.000      0.300      0.000 
      68      0.000      0.000      0.000      0.000 
      69      0.000      5.124      0.000      0.000 
      70      0.000      0.000      0.300      0.000 
      71      0.000      0.000      0.000      0.000 
      72      0.000      0.000      0.000      0.000 
      73      0.000      0.000      0.000      0.000 
      74      0.000      0.000      0.000      0.000 
      75      0.000      0.000      0.000      0.000 
      76      0.000      0.000     -0.553      0.000 
      77      0.000      0.000      0.300      0.000 
      78      0.000      0.000      0.300      0.000 
      79      0.000      0.000      0.300      0.000 
      80      0.000      0.000      0.468      0.000 
      81      0.000      0.000      0.300      0.000 
      82      0.000      0.000      0.000      0.000 
      83      0.000      0.000      0.000      0.000 
      84      0.000      0.000      0.132      0.000 
      85      0.000      0.000      0.000      0.000 
      86      0.000      0.000      0.300      0.000 
      87      0.000      0.000      0.300      0.000 
      88      0.000      0.000      0.000      0.000 

Improper Coeffs 

       1      0.000      -1       2 
       2      0.000      -1       2 
       3      0.000      -1       2 
       4      0.000      -1       2 
       5      0.000      -1       2 
       6      0.000      -1       2 
       7      0.000      -1       2 
       8      0.000      -1       2 
       9      0.000      -1       2 
      10      0.000      -1       2 
      11      0.000      -1       2 
      12      0.000      -1       2 
      13      0.000      -1       2 
      14      0.000      -1       2 
      15      0.000      -1       2 
      16      0.000      -1       2 
      17      0.000      -1       2 
      18      0.000      -1       2 
      19      0.000      -1       2 
      20      0.000      -1       2 
      21      0.000      -1       2 
      22     10.500      -1       2 

Atoms 

     1      1      1 -0.23950000    1.000  1.00000  0.00000
     2      1      2 -0.18940000   -0.522  1.00000  0.00000
     3      1      3 -0.15470000   -1.072  1.00000  1.42432
     4      1      4 0.05480000   -2.610  1.16613  1.57036
     5      1      5 -0.18210000   -2.829  1.22194  3.09805
     6      1      6 -0.09090000   -3.360 -0.28351  2.97728
     7      1      7 -0.22240000   -2.532 -1.54884  2.83625
     8      1      8 -0.17120000   -3.907  0.21473  1.64093
     9      1      9 -0.21690000   -4.004 -0.03565  0.16207
    10      1     10 0.45720000   -3.590  1.31157 -0.45154
    11      1     11 -0.38540000   -3.696  1.62709 -1.62309
    12      1     12 -0.34080000   -3.040  2.09895  0.55471
    13      1     13 0.08270000    1.381  1.08109 -1.02808
    14      1     14 0.08270000    1.405  0.08905  0.44115
    15      1     15 0.08270000    1.394  1.86675  0.56184
    16      1     16 0.10190000   -0.888  0.12924 -0.55036
    17      1     17 0.10190000   -0.847  1.89845 -0.53733
    18      1     18 0.10630000   -0.609  1.86550  1.92609
    19      1     19 0.10630000   -0.697  0.12427  1.95831
    20      1     20 0.11820000   -3.580  1.95315  3.42822
    21      1     21 0.11820000   -1.955  1.32715  3.75100
    22      1     22 0.10990000   -4.131 -0.46683  3.73444
    23      1     23 0.09170000   -1.928 -1.56839  1.92455
    24      1     24 0.09170000   -3.197 -2.41785  2.77637
    25      1     25 0.09170000   -1.871 -1.68401  3.69689
    26      1     26 0.12370000   -4.836  0.78067  1.86780
    27      1     27 0.13580000   -5.042 -0.24657 -0.11854
    28      1     28 0.13580000   -3.353 -0.84683 -0.16985

Bonds 

     1      1      2      1
     2      2      3      2
     3      3      4      3
     4      4      5      4
     5      5      6      5
     6      6      7      6
     7      7      8      4
     8      8      9      8
     9      9     10      9
    10     10     11     10
    11     11     12      4
    12     12     13      1
    13     13     14      1
    14     14     15      1
    15     15     16      2
    16     16     17      2
    17     17     18      3
    18     18     19      3
    19     19     20      5
    20     20     21      5
    21     21     22      6
    22     22     23      7
    23     23     24      7
    24     24     25      7
    25     25     26      8
    26     26     27      9
    27     27     28      9
    28     28      8      6
    29     29     12     10

Angles 

     1      1      1      2      3
     2      2      2      3      4
     3      3      3      4      5
     4      4      4      5      6
     5      5      5      6      7
     6      6      3      4      8
     7      7      4      8      9
     8      8      8      9     10
     9      9      9     10     11
    10     10      3      4     12
    11     11      2      1     13
    12     12      2      1     14
    13     13      2      1     15
    14     14      1      2     16
    15     15      1      2     17
    16     16      2      3     18
    17     17      2      3     19
    18     18      4      5     20
    19     19      4      5     21
    20     20      5      6     22
    21     21      6      7     23
    22     22      6      7     24
    23     23      6      7     25
    24     24      4      8     26
    25     25      8      9     27
    26     26      8      9     28
    27     27     23      7     24
    28     28      5      4     12
    29     29     13      1     14
    30     30     23      7     25
    31     31     10      9     28
    32     32      7      6     22
    33     33      6      8     26
    34     34      3      2     17
    35     35     24      7     25
    36     36     27      9     28
    37     37      5      6      8
    38     38      4      3     19
    39     39      4      8      6
    40     40      3      2     16
    41     41      5      4      8
    42     42     14      1     15
    43     43      4      3     18
    44     44      9     10     12
    45     45     16      2     17
    46     46      6      5     20
    47     47     18      3     19
    48     48      7      6      8
    49     49      6      5     21
    50     50      8      6     22
    51     51      6      8      9
    52     52      9      8     26
    53     53     13      1     15
    54     54     11     10     12
    55     55     10      9     27
    56     56      8      4     12
    57     57      4     12     10
    58     58     20      5     21

Dihedrals

     1      1      4      3      2      1 
     2      2      5      4      3      2 
     3      3      6      5      4      3 
     4      4      7      6      5      4 
     5      5     10      9      8      4 
     6      6     11     10      9      8 
     7      7     13      1      2      3 
     8      8     23      7      6      5 
     9      9     23      7      6      8 
    10     10      6      8      4      3 
    11     11     21      5      4      3 
    12     12     25      7      6      8 
    13     13     19      3      4      8 
    14     14     22      6      5      4 
    15     15     26      8      4      3 
    16     16     12      4      8      6 
    17     17     27      9      8      6 
    18     18     20      5      6      7 
    19     19     25      7      6     22 
    20     20      9      8      4      5 
    21     21     18      3      2     17 
    22     22     19      3      2     16 
    23     23     26      8      9     10 
    24     24     24      7      6      5 
    25     25     17      2      3      4 
    26     26     19      3      4     12 
    27     27     16      2      3      4 
    28     28     10     12      4      3 
    29     29     19      3      2      1 
    30     30      9      8      6      7 
    31     31     28      9      8      6 
    32     32     20      5      4      3 
    33     33     22      6      5     21 
    34     34     10     12      4      8 
    35     35     21      5      4      8 
    36     36     26      8      4      5 
    37     37      7      6      8      4 
    38     38     17      2      1     15 
    39     39     26      8      6     22 
    40     40     10     12      4      5 
    41     41     12      4      5      6 
    42     42     27      9      8      4 
    43     43     21      5      4     12 
    44     44     28      9     10     12 
    45     45     12      4      8      9 
    46     46     17      2      1     13 
    47     47     16      2      1     14 
    48     48     20      5      6      8 
    49     49     21      5      6      7 
    50     50     18      3      2      1 
    51     51     25      7      6      5 
    52     52     22      6      8      4 
    53     53     28      9      8      4 
    54     54      8      4      3      2 
    55     55     18      3      4      5 
    56     56     24      7      6     22 
    57     57     21      5      6      8 
    58     58     10      9      8      6 
    59     59      9     10     12      4 
    60     60     27      9      8     26 
    61     61      9      8      6      5 
    62     62     28      9      8     26 
    63     63     23      7      6     22 
    64     64     15      1      2      3 
    65     65     12      4      3      2 
    66     66     24      7      6      8 
    67     67     18      3      2     16 
    68     68     27      9     10     11 
    69     69     11     10     12      4 
    70     70     18      3      4      8 
    71     71     22      6      8      9 
    72     72     26      8      6      5 
    73     73     22      6      5     20 
    74     74      9      8      4      3 
    75     75     26      8      4     12 
    76     76     12     10      9      8 
    77     77     16      2      1     13 
    78     78     19      3      2     17 
    79     79     19      3      4      5 
    80     80     18      3      4     12 
    81     81     14      1      2      3 
    82     82     20      5      4      8 
    83     83     20      5      4     12 
    84     84     27      9     10     12 
    85     85     26      8      6      7 
    86     86     16      2      1     15 
    87     87     17      2      1     14 
    88     88     28      9     10     11 

Impropers

     1      1      4      3      5      8 
     2      2      8      9      4      6 
     3      3      4      3     12      5 
     4      4      1      2     13     14 
     5      5      1      2     13     15 
     6      6      2      1      3     16 
     7      7      2     17      3      1 
     8      8      3     18      4      2 
     9      9      3      2     19      4 
    10     10      5      4     20      6 
    11     11      5      4     21      6 
    12     12      6      5     22      7 
    13     13      7     23      6     24 
    14     14      7     25     23      6 
    15     15      8     26      4      6 
    16     16      9     10     27      8 
    17     17      9     10     28      8 
    18     18      4      5      6      8 
    19     19      4      5      6      8 
    20     20      4      5      6      8 
    21     21      4      5      6      8 
    22     22     10      9     11     12 

