LAMMPS data file Created by LigParGen - (Written by Leela S. Dodda)

      29 atoms
      28 bonds
      52 angles
      71 dihedrals
      17 impropers
 
      29 atom types
      28 bond types
      52 angle types
      71 dihedral types
      17 improper types
 
   -5.158850    44.841150 xlo xhi
   -3.699120    46.300880 ylo yhi
   -2.840760    47.159240 zlo zhi

Masses

       1     12.011  
       2     12.011  
       3     12.011  
       4     12.011  
       5     12.011  
       6     12.011  
       7     12.011  
       8     12.011  
       9     12.011  
      10     15.999  
      11     12.011  
      12     14.007  
      13      1.008  
      14      1.008  
      15      1.008  
      16      1.008  
      17      1.008  
      18      1.008  
      19      1.008  
      20      1.008  
      21      1.008  
      22      1.008  
      23      1.008  
      24      1.008  
      25      1.008  
      26      1.008  
      27      1.008  
      28      1.008  
      29      1.008  

Pair Coeffs 

       1      0.066  3.5000000 
       2      0.066  3.5000000 
       3      0.066  3.5000000 
       4      0.066  3.5000000 
       5      0.066  3.5000000 
       6      0.066  3.5000000 
       7      0.066  3.5000000 
       8      0.066  3.5000000 
       9      0.070  3.5500000 
      10      0.210  2.9600000 
      11      0.066  3.3000000 
      12      0.170  3.2000000 
      13      0.030  2.5000000 
      14      0.030  2.5000000 
      15      0.030  2.5000000 
      16      0.030  2.5000000 
      17      0.030  2.5000000 
      18      0.030  2.5000000 
      19      0.030  2.5000000 
      20      0.030  2.5000000 
      21      0.030  2.5000000 
      22      0.030  2.5000000 
      23      0.030  2.5000000 
      24      0.030  2.5000000 
      25      0.030  2.5000000 
      26      0.030  2.5000000 
      27      0.030  2.5000000 
      28      0.030  2.5000000 
      29      0.030  2.5000000 

Bond Coeffs 

       1   268.0000     1.5290 
       2   268.0000     1.5290 
       3   268.0000     1.5290 
       4   268.0000     1.5290 
       5   268.0000     1.5290 
       6   268.0000     1.5290 
       7   268.0000     1.5290 
       8   317.0000     1.5220 
       9   570.0000     1.2290 
      10   400.0000     1.4440 
      11   650.0000     1.1570 
      12   340.0000     1.0900 
      13   340.0000     1.0900 
      14   340.0000     1.0900 
      15   340.0000     1.0900 
      16   340.0000     1.0900 
      17   340.0000     1.0900 
      18   340.0000     1.0900 
      19   340.0000     1.0900 
      20   340.0000     1.0900 
      21   340.0000     1.0900 
      22   340.0000     1.0900 
      23   340.0000     1.0900 
      24   340.0000     1.0900 
      25   340.0000     1.0900 
      26   340.0000     1.0900 
      27   340.0000     1.0900 
      28   340.0000     1.0900 

Angle Coeffs 

       1     58.350    112.700
       2     58.350    112.700
       3     58.350    112.700
       4     58.350    112.700
       5     58.350    112.700
       6     58.350    112.700
       7     63.000    111.100
       8     80.000    120.400
       9     69.900    118.180
      10    110.470    156.000
      11     37.500    110.700
      12     37.500    110.700
      13     37.500    110.700
      14     37.500    110.700
      15     37.500    110.700
      16     37.500    110.700
      17     37.500    110.700
      18     37.500    110.700
      19     37.500    110.700
      20     37.500    110.700
      21     37.500    110.700
      22     37.500    110.700
      23     37.500    110.700
      24     37.500    110.700
      25     37.500    110.700
      26     37.500    110.700
      27     37.500    110.700
      28     35.000    109.500
      29     37.500    110.700
      30     58.350    112.700
      31     37.500    110.700
      32     33.000    107.800
      33     37.500    110.700
      34     33.000    107.800
      35     33.000    107.800
      36     37.500    110.700
      37     33.000    107.800
      38     37.500    110.700
      39     33.000    107.800
      40     33.000    107.800
      41     37.500    110.700
      42     58.350    112.700
      43     33.000    107.800
      44     33.000    107.800
      45     35.000    109.500
      46     37.500    110.700
      47     69.900    118.180
      48     33.000    107.800
      49     33.000    107.800
      50     33.000    107.800
      51     37.500    110.700
      52     33.000    107.800

Dihedral Coeffs  

       1      1.300     -0.200      0.200      0.000 
       2      1.300     -0.200      0.200      0.000 
       3      1.300     -0.200      0.200      0.000 
       4     -2.060     -0.313      0.315      0.000 
       5      0.000      0.000      0.000      0.000 
       6     -0.500      0.200      0.000      0.000 
       7      0.000      0.000      0.300      0.000 
       8      0.000      0.000      0.300      0.000 
       9      0.000      0.000      0.300      0.000 
      10      0.000      0.000      0.300      0.000 
      11      0.000      0.000      0.300      0.000 
      12      0.000      0.000      0.300      0.000 
      13      0.000      0.000      0.300      0.000 
      14      0.000      0.000      0.000      0.000 
      15      0.000      0.000      0.300      0.000 
      16      0.000      0.000      0.300      0.000 
      17      0.000      0.000      0.300      0.000 
      18      0.000      0.000      0.300      0.000 
      19      0.000      0.000      0.300      0.000 
      20      0.000      0.000      0.300      0.000 
      21      0.000      0.000      0.300      0.000 
      22      0.000      0.000      0.300      0.000 
      23      1.300     -0.200      0.200      0.000 
      24      0.000      0.000      0.000      0.000 
      25      0.000      0.000      0.300      0.000 
      26      0.000      0.000      0.300      0.000 
      27      0.000      0.000      0.300      0.000 
      28      0.000      0.000      0.300      0.000 
      29      0.000      0.000      0.300      0.000 
      30      0.000      0.000      0.300      0.000 
      31      0.000      0.000      0.300      0.000 
      32      0.000      0.000     -0.100      0.000 
      33      0.000      0.000      0.275      0.000 
      34      0.000      0.000      0.300      0.000 
      35      0.000      0.000      0.300      0.000 
      36      0.000      0.000      0.300      0.000 
      37      0.000      0.000     -0.100      0.000 
      38      0.000      0.000      0.300      0.000 
      39      0.000      0.000      0.300      0.000 
      40      0.000      0.000      0.300      0.000 
      41      1.300     -0.200      0.200      0.000 
      42      0.000      0.000      0.300      0.000 
      43      0.000      0.000      0.300      0.000 
      44      0.000      0.000      0.300      0.000 
      45      0.000      0.000      0.300      0.000 
      46      0.000      0.000      0.300      0.000 
      47      0.000      0.000      0.300      0.000 
      48      0.000      0.000      0.300      0.000 
      49      0.000      0.000      0.300      0.000 
      50      0.000      0.000      0.300      0.000 
      51      0.000      0.000      0.000      0.000 
      52      1.300     -0.200      0.200      0.000 
      53      0.000      0.000      0.300      0.000 
      54      0.000      0.000      0.300      0.000 
      55      1.300     -0.200      0.200      0.000 
      56      0.000      0.000      0.300      0.000 
      57      0.000      0.000      0.300      0.000 
      58      0.000      0.000      0.300      0.000 
      59      0.000      0.000      0.300      0.000 
      60      0.000      0.000      0.000      0.000 
      61      0.000      0.000      0.300      0.000 
      62      0.000      0.000      0.300      0.000 
      63      0.000      0.000      0.300      0.000 
      64      0.000      0.000      0.275      0.000 
      65      0.000      0.000      0.300      0.000 
      66      0.000      0.000      0.300      0.000 
      67      0.000      0.000      0.300      0.000 
      68      0.000      0.000      0.300      0.000 
      69      0.000      0.000      0.300      0.000 
      70      0.000      0.000      0.300      0.000 
      71      0.000      0.000      0.300      0.000 

Improper Coeffs 

       1      0.000      -1       2 
       2      0.000      -1       2 
       3     10.500      -1       2 
       4      0.000      -1       2 
       5      0.000      -1       2 
       6      0.000      -1       2 
       7      0.000      -1       2 
       8      0.000      -1       2 
       9      0.000      -1       2 
      10      0.000      -1       2 
      11      0.000      -1       2 
      12      0.000      -1       2 
      13      0.000      -1       2 
      14      0.000      -1       2 
      15      0.000      -1       2 
      16      0.000      -1       2 
      17      0.000      -1       2 

Atoms 

     1      1      1 -0.23700000    1.000  1.00000  0.00000
     2      1      2 -0.11120000   -0.532  1.00000  0.00000
     3      1      3 -0.23660000   -1.019  1.00000  1.45458
     4      1      4 -0.10380000   -1.172  2.14300 -0.84021
     5      1      5 -0.23740000   -0.710  2.12874 -2.30417
     6      1      6 -0.16810000   -2.728  2.22541 -0.78817
     7      1      7 -0.16490000   -3.565  1.07189 -1.39102
     8      1      8 -0.21880000   -3.452 -0.26523 -0.66554
     9      1      9 0.48410000   -4.310 -1.37417 -1.20932
    10      1     10 -0.38480000   -5.159 -1.24313 -2.08320
    11      1     11 0.07870000   -4.056 -2.68159 -0.60356
    12      1     12 -0.29470000   -3.815 -3.69912 -0.09364
    13      1     13 0.08360000    1.371  0.17034  0.61468
    14      1     14 0.08360000    1.407  1.93142  0.40143
    15      1     15 0.08360000    1.398  0.83837 -1.00574
    16      1     16 0.08740000   -0.779  0.04347 -0.45463
    17      1     17 0.08210000   -0.694  1.90435  1.97902
    18      1     18 0.08210000   -0.622  0.13237  1.99204
    19      1     19 0.08210000   -2.106  0.94357  1.53431
    20      1     20 0.09660000   -0.804  3.08721 -0.41155
    21      1     21 0.08350000   -1.041  1.22334 -2.82097
    22      1     22 0.08350000    0.378  2.18812 -2.38813
    23      1     23 0.08350000   -1.115  2.99473 -2.84076
    24      1     24 0.09110000   -3.016  3.14054 -1.32876
    25      1     25 0.09110000   -3.054  2.40635  0.24321
    26      1     26 0.10400000   -3.317  0.95111 -2.45552
    27      1     27 0.10400000   -4.615  1.38872 -1.36814
    28      1     28 0.13640000   -3.697 -0.13749  0.39344
    29      1     29 0.13640000   -2.442 -0.64930 -0.76115

Bonds 

     1      1      2      1
     2      2      3      2
     3      3      4      2
     4      4      5      4
     5      5      6      4
     6      6      7      6
     7      7      8      7
     8      8      9      8
     9      9     10      9
    10     10     11      9
    11     11     12     11
    12     12     13      1
    13     13     14      1
    14     14     15      1
    15     15     16      2
    16     16     17      3
    17     17     18      3
    18     18     19      3
    19     19     20      4
    20     20     21      5
    21     21     22      5
    22     22     23      5
    23     23     24      6
    24     24     25      6
    25     25     26      7
    26     26     27      7
    27     27     28      8
    28     28     29      8

Angles 

     1      1      1      2      3
     2      2      1      2      4
     3      3      2      4      5
     4      4      2      4      6
     5      5      4      6      7
     6      6      6      7      8
     7      7      7      8      9
     8      8      8      9     10
     9      9      8      9     11
    10     10      9     11     12
    11     11      2      1     13
    12     12      2      1     14
    13     13      2      1     15
    14     14      1      2     16
    15     15      2      3     17
    16     16      2      3     18
    17     17      2      3     19
    18     18      2      4     20
    19     19      4      5     21
    20     20      4      5     22
    21     21      4      5     23
    22     22      4      6     24
    23     23      4      6     25
    24     24      6      7     26
    25     25      6      7     27
    26     26      7      8     28
    27     27      7      8     29
    28     28      9      8     28
    29     29      6      4     20
    30     30      5      4      6
    31     31      8      7     27
    32     32     21      5     22
    33     33      7      6     24
    34     34     13      1     14
    35     35     22      5     23
    36     36      7      6     25
    37     37     28      8     29
    38     38      8      7     26
    39     39     14      1     15
    40     40     21      5     23
    41     41      3      2     16
    42     42      3      2      4
    43     43     18      3     19
    44     44     26      7     27
    45     45      9      8     29
    46     46      5      4     20
    47     47     10      9     11
    48     48     17      3     19
    49     49     24      6     25
    50     50     17      3     18
    51     51      4      2     16
    52     52     13      1     15

Dihedrals

     1      1      5      4      2      1 
     2      2      7      6      4      2 
     3      3      8      7      6      4 
     4      4      9      8      7      6 
     5      5     10      9      8      7 
     6      6     12     11      9      8 
     7      7     13      1      2      3 
     8      8     17      3      2      1 
     9      9     21      5      4      2 
    10     10     18      3      2     16 
    11     11     20      4      6      7 
    12     12     27      7      6     25 
    13     13     18      3      2      1 
    14     14     12     11      9     10 
    15     15     25      6      4      2 
    16     16     19      3      2      1 
    17     17     17      3      2     16 
    18     18     26      7      6      4 
    19     19     26      7      6     25 
    20     20     25      6      7      8 
    21     21     22      5      4     20 
    22     22     16      2      4      5 
    23     23      5      4      2      3 
    24     24     11      9      8      7 
    25     25     29      8      7     26 
    26     26     19      3      2      4 
    27     27     16      2      4      6 
    28     28     21      5      4     20 
    29     29     23      5      4      6 
    30     30     28      8      7     26 
    31     31     29      8      7      6 
    32     32     26      7      8      9 
    33     33     29      8      9     11 
    34     34     24      6      4     20 
    35     35     23      5      4     20 
    36     36     19      3      2     16 
    37     37     27      7      8      9 
    38     38     24      6      4      5 
    39     39     29      8      7     27 
    40     40     18      3      2      4 
    41     41      6      4      2      1 
    42     42     27      7      6      4 
    43     43     16      2      1     13 
    44     44     26      7      6     24 
    45     45     22      5      4      6 
    46     46     22      5      4      2 
    47     47     14      1      2      3 
    48     48     13      1      2      4 
    49     49     23      5      4      2 
    50     50     20      4      2      1 
    51     51     28      8      9     10 
    52     52      6      4      2      3 
    53     53     15      1      2      4 
    54     54     28      8      7      6 
    55     55      7      6      4      5 
    56     56     16      2      1     15 
    57     57     25      6      4     20 
    58     58     16      2      1     14 
    59     59     27      7      6     24 
    60     60     29      8      9     10 
    61     61     20      4      2     16 
    62     62     15      1      2      3 
    63     63     14      1      2      4 
    64     64     28      8      9     11 
    65     65     28      8      7     27 
    66     66     20      4      2      3 
    67     67     21      5      4      6 
    68     68     17      3      2      4 
    69     69     24      6      4      2 
    70     70     24      6      7      8 
    71     71     25      6      4      5 

Impropers

     1      1      2      1      3      4 
     2      2      4      2      5      6 
     3      3      9     10     11      8 
     4      4      1      2     13     14 
     5      5      1      2     13     15 
     6      6      2      1      3     16 
     7      7      3     17     18      2 
     8      8      3     17      2     19 
     9      9      4      2     20      5 
    10     10      5     21      4     22 
    11     11      5     21      4     23 
    12     12      6      4      7     24 
    13     13      6     25      4      7 
    14     14      7     26      6      8 
    15     15      7     27      6      8 
    16     16      8      9     28      7 
    17     17      8      9     29      7 

