LAMMPS data file Created by LigParGen - (Written by Leela S. Dodda)

      29 atoms
      29 bonds
      55 angles
      77 dihedrals
      18 impropers
 
      29 atom types
      29 bond types
      55 angle types
      77 dihedral types
      18 improper types
 
   -5.162620    44.837380 xlo xhi
   -1.027470    48.972530 ylo yhi
   -1.143830    48.856170 zlo zhi

Masses

       1     12.011  
       2     15.999  
       3     12.011  
       4     15.999  
       5     12.011  
       6     12.011  
       7     12.011  
       8     12.011  
       9     12.011  
      10     12.011  
      11     15.999  
      12     12.011  
      13     12.011  
      14      1.008  
      15      1.008  
      16      1.008  
      17      1.008  
      18      1.008  
      19      1.008  
      20      1.008  
      21      1.008  
      22      1.008  
      23      1.008  
      24      1.008  
      25      1.008  
      26      1.008  
      27      1.008  
      28      1.008  
      29      1.008  

Pair Coeffs 

       1      0.066  3.5000000 
       2      0.140  2.9000000 
       3      0.070  3.5500000 
       4      0.210  2.9600000 
       5      0.066  3.5000000 
       6      0.066  3.5000000 
       7      0.066  3.5000000 
       8      0.066  3.5000000 
       9      0.066  3.5000000 
      10      0.070  3.5500000 
      11      0.210  2.9600000 
      12      0.066  3.5000000 
      13      0.066  3.5000000 
      14      0.030  2.5000000 
      15      0.030  2.5000000 
      16      0.030  2.5000000 
      17      0.030  2.5000000 
      18      0.030  2.5000000 
      19      0.030  2.5000000 
      20      0.030  2.5000000 
      21      0.030  2.5000000 
      22      0.030  2.5000000 
      23      0.030  2.5000000 
      24      0.030  2.5000000 
      25      0.030  2.5000000 
      26      0.030  2.5000000 
      27      0.030  2.5000000 
      28      0.030  2.5000000 
      29      0.030  2.5000000 

Bond Coeffs 

       1   320.0000     1.4100 
       2   214.0000     1.3270 
       3   570.0000     1.2290 
       4   317.0000     1.5220 
       5   268.0000     1.5290 
       6   268.0000     1.5290 
       7   268.0000     1.5290 
       8   268.0000     1.5290 
       9   317.0000     1.5220 
      10   570.0000     1.2290 
      11   268.0000     1.5290 
      12   268.0000     1.5290 
      13   340.0000     1.0900 
      14   340.0000     1.0900 
      15   340.0000     1.0900 
      16   340.0000     1.0900 
      17   340.0000     1.0900 
      18   340.0000     1.0900 
      19   340.0000     1.0900 
      20   340.0000     1.0900 
      21   340.0000     1.0900 
      22   340.0000     1.0900 
      23   340.0000     1.0900 
      24   340.0000     1.0900 
      25   340.0000     1.0900 
      26   340.0000     1.0900 
      27   340.0000     1.0900 
      28   340.0000     1.0900 
      29   317.0000     1.5220 

Angle Coeffs 

       1     83.000    116.900
       2     83.000    123.400
       3     81.000    111.400
       4     63.000    111.100
       5     63.000    111.100
       6     58.350    112.700
       7     58.350    112.700
       8     63.000    111.100
       9     80.000    120.400
      10     63.000    111.100
      11     58.350    112.700
      12     35.000    109.500
      13     35.000    109.500
      14     35.000    109.500
      15     37.500    110.700
      16     37.500    110.700
      17     37.500    110.700
      18     37.500    110.700
      19     37.500    110.700
      20     37.500    110.700
      21     37.500    110.700
      22     37.500    110.700
      23     37.500    110.700
      24     37.500    110.700
      25     37.500    110.700
      26     37.500    110.700
      27     37.500    110.700
      28     80.000    120.400
      29     63.000    111.100
      30     33.000    107.800
      31     33.000    107.800
      32     33.000    107.800
      33     33.000    107.800
      34     33.000    107.800
      35     63.000    111.100
      36     58.350    112.700
      37     80.000    120.400
      38     33.000    107.800
      39     33.000    107.800
      40     70.000    116.000
      41     33.000    107.800
      42     58.350    112.700
      43     35.000    109.500
      44     33.000    107.800
      45     37.500    110.700
      46     35.000    109.500
      47     58.350    112.700
      48     37.500    110.700
      49     33.000    107.800
      50     37.500    110.700
      51     35.000    109.500
      52     33.000    107.800
      53     37.500    110.700
      54     37.500    110.700
      55     33.000    107.800

Dihedral Coeffs  

       1      0.000      5.124      0.000      0.000 
       2      0.000      0.000     -0.553      0.000 
       3     -2.060     -0.313      0.315      0.000 
       4      1.300     -0.200      0.200      0.000 
       5     -2.060     -0.313      0.315      0.000 
       6      0.000      0.000      0.000      0.000 
       7      0.000      0.000      0.198      0.000 
       8      0.000      0.000     -0.100      0.000 
       9      0.000      0.000      0.300      0.000 
      10      1.300     -0.200      0.200      0.000 
      11      0.000      0.000      0.300      0.000 
      12      0.000      0.000      0.300      0.000 
      13      0.000      0.000      0.300      0.000 
      14      0.000      0.000     -0.100      0.000 
      15      4.669      5.124      0.000      0.000 
      16      0.000      0.000      0.300      0.000 
      17      0.000      0.000     -0.100      0.000 
      18      0.000      0.000     -0.100      0.000 
      19      0.000      0.000      0.000      0.000 
      20      1.300     -0.200      0.200      0.000 
      21      0.000      0.000     -0.100      0.000 
      22      0.000      0.000      0.300      0.000 
      23      0.000      0.000     -0.100      0.000 
      24      1.300     -0.200      0.200      0.000 
      25      0.000      0.000      0.300      0.000 
      26      1.454     -0.144     -0.775      0.000 
      27      0.000      0.000      0.300      0.000 
      28      0.000      0.000      0.000      0.000 
      29      0.000      0.000      0.275      0.000 
      30      0.000      0.000     -0.553      0.000 
      31      0.000      0.000      0.300      0.000 
      32      0.000      0.000      0.300      0.000 
      33      0.000      0.000      0.000      0.000 
      34      0.000      0.000      0.300      0.000 
      35      0.000      0.000     -0.100      0.000 
      36      1.300     -0.200      0.200      0.000 
      37      0.000      0.000      0.300      0.000 
      38      0.000      0.000     -0.100      0.000 
      39      1.454     -0.144     -0.775      0.000 
      40      1.454     -0.144     -0.775      0.000 
      41      0.000      0.000      0.275      0.000 
      42      0.000      0.000      0.300      0.000 
      43      0.000      0.000      0.198      0.000 
      44      0.000      0.000     -0.100      0.000 
      45      0.000      0.000     -0.100      0.000 
      46     -2.060     -0.313      0.315      0.000 
      47      0.000      0.000      0.300      0.000 
      48      0.000      0.000     -0.100      0.000 
      49     -2.060     -0.313      0.315      0.000 
      50      0.000      0.000      0.300      0.000 
      51     -2.060     -0.313      0.315      0.000 
      52      0.000      0.000      0.300      0.000 
      53      0.000      0.000      0.300      0.000 
      54      0.000      0.000      0.300      0.000 
      55      0.000      0.000      0.000      0.000 
      56      0.000      0.000      0.000      0.000 
      57      0.000      0.000     -0.553      0.000 
      58      0.000      0.000      0.300      0.000 
      59      0.000      0.000      0.300      0.000 
      60      0.000      0.000      0.300      0.000 
      61      0.000      0.000      0.300      0.000 
      62     -0.550      0.000      1.000      0.000 
      63      0.000      0.000      0.300      0.000 
      64      0.000      0.000      0.300      0.000 
      65      0.000      0.000      0.198      0.000 
      66      0.000      0.000      0.300      0.000 
      67      0.000      0.000      0.300      0.000 
      68      0.000      0.000      0.000      0.000 
      69      0.000      0.000      0.275      0.000 
      70      0.000      0.000      0.300      0.000 
      71      0.000      0.000      0.300      0.000 
      72      0.000      0.000      0.000      0.000 
      73      0.000      0.000      0.300      0.000 
      74      0.000      0.000      0.300      0.000 
      75      0.000      0.000      0.300      0.000 
      76      0.000      0.000      0.000      0.000 
      77      0.000      0.000      0.300      0.000 

Improper Coeffs 

       1     10.500      -1       2 
       2      0.000      -1       2 
       3      0.000      -1       2 
       4      0.000      -1       2 
       5      0.000      -1       2 
       6      0.000      -1       2 
       7      0.000      -1       2 
       8      0.000      -1       2 
       9      0.000      -1       2 
      10      0.000      -1       2 
      11      0.000      -1       2 
      12      0.000      -1       2 
      13      0.000      -1       2 
      14      0.000      -1       2 
      15      0.000      -1       2 
      16      0.000      -1       2 
      17      0.000      -1       2 
      18     10.500      -1       2 

Atoms 

     1      1      1 -0.05630000    1.000  1.00000  0.00000
     2      1      2 -0.34570000   -0.430  1.00000  0.00000
     3      1      3 0.43510000   -0.984  1.00000  1.24030
     4      1      4 -0.45050000   -0.338  0.93578  2.28029
     5      1      5 -0.03060000   -2.525  1.02464  1.18842
     6      1      6 -0.23660000   -2.953 -0.45399  1.13814
     7      1      7 -0.17020000   -3.053  1.66138  2.50106
     8      1      8 -0.17750000   -2.701  3.14685  2.61389
     9      1      9 -0.23490000   -3.174  3.94847  1.41362
    10      1     10 0.36900000   -2.739  3.28943  0.12408
    11      1     11 -0.44010000   -2.241  3.94491 -0.79093
    12      1     12 -0.15270000   -3.053  1.81053 -0.04454
    13      1     13 -0.22900000   -4.555  1.66661 -0.31480
    14      1     14 0.10380000    1.339  1.08173 -1.03617
    15      1     15 0.10380000    1.378  0.06221  0.41876
    16      1     16 0.10380000    1.386  1.85932  0.55841
    17      1     17 0.09910000   -2.492 -1.02747  1.95146
    18      1     18 0.09910000   -2.640 -0.92152  0.19706
    19      1     19 0.09910000   -4.037 -0.56924  1.23496
    20      1     20 0.11000000   -2.646  1.13730  3.37492
    21      1     21 0.11000000   -4.143  1.54789  2.56289
    22      1     22 0.10640000   -1.615  3.26050  2.71749
    23      1     23 0.10640000   -3.146  3.55811  3.52726
    24      1     24 0.12440000   -2.754  4.95911  1.45721
    25      1     25 0.12440000   -4.265  4.03845  1.40726
    26      1     26 0.15060000   -2.537  1.47339 -0.95252
    27      1     27 0.09300000   -5.163  1.94894  0.55057
    28      1     28 0.09300000   -4.813  0.63999 -0.59208
    29      1     29 0.09300000   -4.859  2.31643 -1.14383

Bonds 

     1      1      2      1
     2      2      3      2
     3      3      4      3
     4      4      5      3
     5      5      6      5
     6      6      7      5
     7      7      8      7
     8      8      9      8
     9      9     10      9
    10     10     11     10
    11     11     12      5
    12     12     13     12
    13     13     14      1
    14     14     15      1
    15     15     16      1
    16     16     17      6
    17     17     18      6
    18     18     19      6
    19     19     20      7
    20     20     21      7
    21     21     22      8
    22     22     23      8
    23     23     24      9
    24     24     25      9
    25     25     26     12
    26     26     27     13
    27     27     28     13
    28     28     29     13
    29     29     12     10

Angles 

     1      1      1      2      3
     2      2      2      3      4
     3      3      2      3      5
     4      4      3      5      6
     5      5      3      5      7
     6      6      5      7      8
     7      7      7      8      9
     8      8      8      9     10
     9      9      9     10     11
    10     10      3      5     12
    11     11      5     12     13
    12     12      2      1     14
    13     13      2      1     15
    14     14      2      1     16
    15     15      5      6     17
    16     16      5      6     18
    17     17      5      6     19
    18     18      5      7     20
    19     19      5      7     21
    20     20      7      8     22
    21     21      7      8     23
    22     22      8      9     24
    23     23      8      9     25
    24     24      5     12     26
    25     25     12     13     27
    26     26     12     13     28
    27     27     12     13     29
    28     28     11     10     12
    29     29      5     12     10
    30     30     17      6     19
    31     31     14      1     16
    32     32     17      6     18
    33     33     18      6     19
    34     34     20      7     21
    35     35     10     12     13
    36     36      7      5     12
    37     37      4      3      5
    38     38     15      1     16
    39     39     22      8     23
    40     40      9     10     12
    41     41     24      9     25
    42     42      6      5      7
    43     43     10     12     26
    44     44     14      1     15
    45     45      9      8     23
    46     46     10      9     25
    47     47      6      5     12
    48     48      9      8     22
    49     49     28     13     29
    50     50      8      7     21
    51     51     10      9     24
    52     52     27     13     29
    53     53      8      7     20
    54     54     13     12     26
    55     55     27     13     28

Dihedrals

     1      1      4      3      2      1 
     2      2      6      5      3      2 
     3      3      8      7      5      3 
     4      4      9      8      7      5 
     5      5     10      9      8      7 
     6      6     11     10      9      8 
     7      7     14      1      2      3 
     8      8     17      6      5      3 
     9      9     27     13     12      5 
    10     10     12      5      7      8 
    11     11     17      6      5      7 
    12     12     20      7      5     12 
    13     13     18      6      5      7 
    14     14     19      6      5      3 
    15     15      5      3      2      1 
    16     16     23      8      7     20 
    17     17     29     13     12     10 
    18     18     26     12      5      3 
    19     19     26     12     10     11 
    20     20     13     12      5      6 
    21     21     21      7      5      3 
    22     22     25      9      8     23 
    23     23     22      8      9     10 
    24     24     13     12      5      7 
    25     25     28     13     12      5 
    26     26      9     10     12      5 
    27     27     24      9      8      7 
    28     28     25      9     10     11 
    29     29     24      9     10     12 
    30     30     12      5      3      2 
    31     31     19      6      5     12 
    32     32     25      9      8     22 
    33     33      6      5      3      4 
    34     34     20      7      8      9 
    35     35     27     13     12     10 
    36     36      8      7      5      6 
    37     37     19      6      5      7 
    38     38     20      7      5      3 
    39     39     12     10      9      8 
    40     40     13     12     10      9 
    41     41     25      9     10     12 
    42     42     29     13     12      5 
    43     43     15      1      2      3 
    44     44     18      6      5      3 
    45     45     28     13     12     10 
    46     46     10     12      5      6 
    47     47     17      6      5     12 
    48     48     23      8      9     10 
    49     49     13     12      5      3 
    50     50     22      8      7     21 
    51     51     10     12      5      7 
    52     52     22      8      7     20 
    53     53     26     12      5      6 
    54     54     21      7      5      6 
    55     55     11     10     12      5 
    56     56     13     12     10     11 
    57     57      7      5      3      2 
    58     58     20      7      5      6 
    59     59     21      7      8      9 
    60     60     21      7      5     12 
    61     61     29     13     12     26 
    62     62     10     12      5      3 
    63     63     23      8      7     21 
    64     64     18      6      5     12 
    65     65     16      1      2      3 
    66     66     22      8      7      5 
    67     67     23      8      7      5 
    68     68      7      5      3      4 
    69     69     26     12     10      9 
    70     70     28     13     12     26 
    71     71     26     12      5      7 
    72     72     12      5      3      4 
    73     73     24      9      8     23 
    74     74     24      9      8     22 
    75     75     27     13     12     26 
    76     76     24      9     10     11 
    77     77     25      9      8      7 

Impropers

     1      1      3      2      4      5 
     2      2      5      3      6      7 
     3      3      5      3     12      6 
     4      4     12      5     13     10 
     5      5      1      2     14     15 
     6      6      1      2     14     16 
     7      7      6     17     18      5 
     8      8      6     17     19      5 
     9      9      7     20      5      8 
    10     10      7      5     21      8 
    11     11      8      9     22      7 
    12     12      8      9      7     23 
    13     13      9     10      8     24 
    14     14      9     25     10      8 
    15     15     12     26      5     10 
    16     16     13     12     27     28 
    17     17     13     27     12     29 
    18     18     10      9     11     12 

