LAMMPS data file Created by LigParGen - (Written by Leela S. Dodda)

      40 atoms
      39 bonds
      75 angles
     102 dihedrals
      25 impropers
 
      40 atom types
      39 bond types
      75 angle types
     102 dihedral types
      25 improper types
 
   -6.560360    43.439640 xlo xhi
   -1.113780    48.886220 ylo yhi
   -1.457470    48.542530 zlo zhi

Masses

       1     12.011  
       2     12.011  
       3     12.011  
       4     12.011  
       5     12.011  
       6     12.011  
       7     12.011  
       8     12.011  
       9     15.999  
      10     12.011  
      11     12.011  
      12     12.011  
      13     12.011  
      14     12.011  
      15      1.008  
      16      1.008  
      17      1.008  
      18      1.008  
      19      1.008  
      20      1.008  
      21      1.008  
      22      1.008  
      23      1.008  
      24      1.008  
      25      1.008  
      26      1.008  
      27      1.008  
      28      1.008  
      29      1.008  
      30      1.008  
      31      1.008  
      32      1.008  
      33      1.008  
      34      1.008  
      35      1.008  
      36      1.008  
      37      1.008  
      38      1.008  
      39      1.008  
      40      1.008  

Pair Coeffs 

       1      0.066  3.5000000 
       2      0.066  3.5000000 
       3      0.066  3.5000000 
       4      0.066  3.5000000 
       5      0.066  3.5000000 
       6      0.066  3.5000000 
       7      0.066  3.5000000 
       8      0.070  3.5500000 
       9      0.210  2.9600000 
      10      0.066  3.5000000 
      11      0.066  3.5000000 
      12      0.066  3.5000000 
      13      0.066  3.5000000 
      14      0.066  3.5000000 
      15      0.030  2.5000000 
      16      0.030  2.5000000 
      17      0.030  2.5000000 
      18      0.030  2.5000000 
      19      0.030  2.5000000 
      20      0.030  2.5000000 
      21      0.030  2.5000000 
      22      0.030  2.5000000 
      23      0.030  2.5000000 
      24      0.030  2.5000000 
      25      0.030  2.5000000 
      26      0.030  2.5000000 
      27      0.030  2.5000000 
      28      0.030  2.5000000 
      29      0.030  2.5000000 
      30      0.030  2.5000000 
      31      0.030  2.5000000 
      32      0.030  2.5000000 
      33      0.030  2.5000000 
      34      0.030  2.5000000 
      35      0.030  2.5000000 
      36      0.030  2.5000000 
      37      0.030  2.5000000 
      38      0.030  2.5000000 
      39      0.030  2.5000000 
      40      0.030  2.5000000 

Bond Coeffs 

       1   268.0000     1.5290 
       2   268.0000     1.5290 
       3   268.0000     1.5290 
       4   268.0000     1.5290 
       5   268.0000     1.5290 
       6   268.0000     1.5290 
       7   317.0000     1.5220 
       8   570.0000     1.2290 
       9   317.0000     1.5220 
      10   268.0000     1.5290 
      11   268.0000     1.5290 
      12   268.0000     1.5290 
      13   268.0000     1.5290 
      14   340.0000     1.0900 
      15   340.0000     1.0900 
      16   340.0000     1.0900 
      17   340.0000     1.0900 
      18   340.0000     1.0900 
      19   340.0000     1.0900 
      20   340.0000     1.0900 
      21   340.0000     1.0900 
      22   340.0000     1.0900 
      23   340.0000     1.0900 
      24   340.0000     1.0900 
      25   340.0000     1.0900 
      26   340.0000     1.0900 
      27   340.0000     1.0900 
      28   340.0000     1.0900 
      29   340.0000     1.0900 
      30   340.0000     1.0900 
      31   340.0000     1.0900 
      32   340.0000     1.0900 
      33   340.0000     1.0900 
      34   340.0000     1.0900 
      35   340.0000     1.0900 
      36   340.0000     1.0900 
      37   340.0000     1.0900 
      38   340.0000     1.0900 
      39   340.0000     1.0900 

Angle Coeffs 

       1     58.350    112.700
       2     58.350    112.700
       3     58.350    112.700
       4     58.350    112.700
       5     58.350    112.700
       6     63.000    111.100
       7     80.000    120.400
       8     70.000    116.000
       9     63.000    111.100
      10     63.000    111.100
      11     58.350    112.700
      12     58.350    112.700
      13     37.500    110.700
      14     37.500    110.700
      15     37.500    110.700
      16     37.500    110.700
      17     37.500    110.700
      18     37.500    110.700
      19     37.500    110.700
      20     37.500    110.700
      21     37.500    110.700
      22     37.500    110.700
      23     37.500    110.700
      24     37.500    110.700
      25     37.500    110.700
      26     37.500    110.700
      27     37.500    110.700
      28     35.000    109.500
      29     37.500    110.700
      30     37.500    110.700
      31     37.500    110.700
      32     37.500    110.700
      33     37.500    110.700
      34     37.500    110.700
      35     37.500    110.700
      36     37.500    110.700
      37     37.500    110.700
      38     37.500    110.700
      39     58.350    112.700
      40     35.000    109.500
      41     58.350    112.700
      42     37.500    110.700
      43     37.500    110.700
      44     58.350    112.700
      45     33.000    107.800
      46     37.500    110.700
      47     58.350    112.700
      48     33.000    107.800
      49     33.000    107.800
      50     58.350    112.700
      51     33.000    107.800
      52     33.000    107.800
      53     80.000    120.400
      54     33.000    107.800
      55     33.000    107.800
      56     33.000    107.800
      57     33.000    107.800
      58     33.000    107.800
      59     35.000    109.500
      60     33.000    107.800
      61     37.500    110.700
      62     33.000    107.800
      63     33.000    107.800
      64     37.500    110.700
      65     33.000    107.800
      66     33.000    107.800
      67     33.000    107.800
      68     33.000    107.800
      69     37.500    110.700
      70     37.500    110.700
      71     33.000    107.800
      72     33.000    107.800
      73     33.000    107.800
      74     37.500    110.700
      75     33.000    107.800

Dihedral Coeffs  

       1      1.300     -0.200      0.200      0.000 
       2      1.300     -0.200      0.200      0.000 
       3     -2.060     -0.313      0.315      0.000 
       4      0.000      0.000      0.000      0.000 
       5      1.454     -0.144     -0.775      0.000 
       6     -2.060     -0.313      0.315      0.000 
       7      0.000      0.000      0.300      0.000 
       8      0.000      0.000      0.300      0.000 
       9      0.000      0.000      0.300      0.000 
      10      0.000      0.000     -0.100      0.000 
      11      0.000      0.000      0.300      0.000 
      12      0.000      0.000      0.300      0.000 
      13      0.000      0.000      0.300      0.000 
      14      0.000      0.000      0.300      0.000 
      15      0.000      0.000      0.300      0.000 
      16      0.000      0.000      0.300      0.000 
      17      0.000      0.000      0.300      0.000 
      18      0.000      0.000      0.300      0.000 
      19      0.000      0.000      0.300      0.000 
      20      0.000      0.000      0.300      0.000 
      21      0.000      0.000      0.300      0.000 
      22      0.000      0.000      0.300      0.000 
      23      1.454     -0.144     -0.775      0.000 
      24      1.300     -0.200      0.200      0.000 
      25      0.000      0.000      0.300      0.000 
      26      0.000      0.000      0.300      0.000 
      27      0.000      0.000      0.300      0.000 
      28      0.000      0.000      0.300      0.000 
      29      0.000      0.000      0.300      0.000 
      30      0.000      0.000      0.300      0.000 
      31      0.000      0.000      0.300      0.000 
      32      0.000      0.000      0.300      0.000 
      33      0.000      0.000      0.300      0.000 
      34      1.454     -0.144     -0.775      0.000 
      35      0.000      0.000      0.300      0.000 
      36      0.000      0.000      0.000      0.000 
      37      0.000      0.000      0.300      0.000 
      38     -2.060     -0.313      0.315      0.000 
      39      0.000      0.000      0.300      0.000 
      40      1.300     -0.200      0.200      0.000 
      41      0.000      0.000      0.300      0.000 
      42      0.000      0.000      0.300      0.000 
      43      0.000      0.000      0.300      0.000 
      44      0.000      0.000      0.300      0.000 
      45      0.000      0.000     -0.100      0.000 
      46      0.000      0.000      0.300      0.000 
      47      0.000      0.000      0.275      0.000 
      48      0.000      0.000      0.300      0.000 
      49      0.000      0.000      0.300      0.000 
      50      0.000      0.000      0.300      0.000 
      51      0.000      0.000      0.300      0.000 
      52      0.000      0.000      0.300      0.000 
      53      0.000      0.000      0.000      0.000 
      54      1.300     -0.200      0.200      0.000 
      55      0.000      0.000      0.300      0.000 
      56      0.000      0.000      0.300      0.000 
      57      0.000      0.000      0.000      0.000 
      58      0.000      0.000      0.300      0.000 
      59      0.000      0.000      0.300      0.000 
      60      0.000      0.000      0.300      0.000 
      61      0.000      0.000      0.300      0.000 
      62      0.000      0.000      0.300      0.000 
      63      0.000      0.000      0.300      0.000 
      64      0.000      0.000      0.300      0.000 
      65     -2.060     -0.313      0.315      0.000 
      66      0.000      0.000      0.300      0.000 
      67      0.000      0.000      0.300      0.000 
      68      0.000      0.000      0.300      0.000 
      69      0.000      0.000      0.300      0.000 
      70      0.000      0.000      0.000      0.000 
      71      0.000      0.000     -0.100      0.000 
      72      0.000      0.000      0.300      0.000 
      73     -2.060     -0.313      0.315      0.000 
      74      0.000      0.000      0.300      0.000 
      75      0.000      0.000      0.300      0.000 
      76      0.000      0.000      0.300      0.000 
      77      0.000      0.000      0.300      0.000 
      78      0.000      0.000      0.300      0.000 
      79      0.000      0.000      0.300      0.000 
      80      0.000      0.000      0.300      0.000 
      81      0.000      0.000      0.300      0.000 
      82      0.000      0.000      0.275      0.000 
      83      0.000      0.000      0.300      0.000 
      84      0.000      0.000      0.300      0.000 
      85      0.000      0.000     -0.100      0.000 
      86      0.000      0.000      0.275      0.000 
      87      0.000      0.000      0.300      0.000 
      88      0.000      0.000      0.000      0.000 
      89      0.000      0.000      0.300      0.000 
      90      0.000      0.000      0.300      0.000 
      91      0.000      0.000      0.300      0.000 
      92      1.300     -0.200      0.200      0.000 
      93      0.000      0.000      0.300      0.000 
      94      0.000      0.000      0.300      0.000 
      95      0.000      0.000      0.300      0.000 
      96      0.000      0.000      0.300      0.000 
      97      0.000      0.000      0.300      0.000 
      98      0.000      0.000      0.300      0.000 
      99      0.000      0.000      0.300      0.000 
     100      0.000      0.000      0.300      0.000 
     101      0.000      0.000      0.300      0.000 
     102      0.000      0.000      0.300      0.000 

Improper Coeffs 

       1      0.000      -1       2 
       2      0.000      -1       2 
       3     10.500      -1       2 
       4      0.000      -1       2 
       5      0.000      -1       2 
       6      0.000      -1       2 
       7      0.000      -1       2 
       8      0.000      -1       2 
       9      0.000      -1       2 
      10      0.000      -1       2 
      11      0.000      -1       2 
      12      0.000      -1       2 
      13      0.000      -1       2 
      14      0.000      -1       2 
      15      0.000      -1       2 
      16      0.000      -1       2 
      17      0.000      -1       2 
      18      0.000      -1       2 
      19      0.000      -1       2 
      20      0.000      -1       2 
      21      0.000      -1       2 
      22      0.000      -1       2 
      23      0.000      -1       2 
      24      0.000      -1       2 
      25      0.000      -1       2 

Atoms 

     1      1      1 -0.23940000    1.000  1.00000  0.00000
     2      1      2 -0.17700000   -0.522  1.00000  0.00000
     3      1      3 -0.17090000   -1.089  1.00000  1.42619
     4      1      4 -0.03320000   -2.641  1.06476  1.51995
     5      1      5 -0.23660000   -3.245 -0.20622  0.87633
     6      1      6 -0.23660000   -3.066  1.05751  3.00446
     7      1      7 -0.21830000   -3.244  2.29944  0.80005
     8      1      8 0.37380000   -2.784  3.67957  1.28302
     9      1      9 -0.45070000   -1.974  3.83051  2.19671
    10      1     10 -0.16550000   -3.365  4.91458  0.58618
    11      1     11 -0.23160000   -2.879  4.93837 -0.86400
    12      1     12 -0.10300000   -4.901  5.00596  0.74563
    13      1     13 -0.24290000   -5.302  5.02042  2.22839
    14      1     14 -0.23530000   -5.479  6.25393  0.07028
    15      1     15 0.08150000    1.373  0.99870 -1.03025
    16      1     16 0.08150000    1.394  0.11321  0.50435
    17      1     17 0.08150000    1.390  1.89146  0.49997
    18      1     18 0.08330000   -0.866  0.11479 -0.54500
    19      1     19 0.08330000   -0.863  1.88122 -0.55261
    20      1     20 0.10180000   -0.642  1.83328  1.98019
    21      1     21 0.10180000   -0.739  0.09280  1.93781
    22      1     22 0.08170000   -2.840 -1.11378  1.34023
    23      1     23 0.08170000   -3.040 -0.25753 -0.19754
    24      1     24 0.08170000   -4.334 -0.23033  0.99959
    25      1     25 0.08720000   -2.756  0.13003  3.49925
    26      1     26 0.08720000   -4.156  1.13389  3.09915
    27      1     27 0.08720000   -2.625  1.88607  3.56643
    28      1     28 0.11790000   -4.334  2.26068  0.91435
    29      1     29 0.11790000   -3.035  2.23194 -0.27308
    30      1     30 0.12840000   -2.918  5.78493  1.08773
    31      1     31 0.08930000   -3.340  4.14236 -1.45747
    32      1     32 0.08930000   -1.793  4.79601 -0.90534
    33      1     33 0.08930000   -3.101  5.89446 -1.34497
    34      1     34 0.09670000   -5.371  4.13215  0.27878
    35      1     35 0.08740000   -4.872  5.88528  2.74535
    36      1     36 0.08740000   -4.968  4.11573  2.74627
    37      1     37 0.08740000   -6.391  5.07238  2.33421
    38      1     38 0.08490000   -5.023  7.16651  0.46853
    39      1     39 0.08490000   -6.560  6.31621  0.23745
    40      1     40 0.08490000   -5.321  6.23210 -1.01158

Bonds 

     1      1      2      1
     2      2      3      2
     3      3      4      3
     4      4      5      4
     5      5      6      4
     6      6      7      4
     7      7      8      7
     8      8      9      8
     9      9     10      8
    10     10     11     10
    11     11     12     10
    12     12     13     12
    13     13     14     12
    14     14     15      1
    15     15     16      1
    16     16     17      1
    17     17     18      2
    18     18     19      2
    19     19     20      3
    20     20     21      3
    21     21     22      5
    22     22     23      5
    23     23     24      5
    24     24     25      6
    25     25     26      6
    26     26     27      6
    27     27     28      7
    28     28     29      7
    29     29     30     10
    30     30     31     11
    31     31     32     11
    32     32     33     11
    33     33     34     12
    34     34     35     13
    35     35     36     13
    36     36     37     13
    37     37     38     14
    38     38     39     14
    39     39     40     14

Angles 

     1      1      1      2      3
     2      2      2      3      4
     3      3      3      4      5
     4      4      3      4      6
     5      5      3      4      7
     6      6      4      7      8
     7      7      7      8      9
     8      8      7      8     10
     9      9      8     10     11
    10     10      8     10     12
    11     11     10     12     13
    12     12     10     12     14
    13     13      2      1     15
    14     14      2      1     16
    15     15      2      1     17
    16     16      1      2     18
    17     17      1      2     19
    18     18      2      3     20
    19     19      2      3     21
    20     20      4      5     22
    21     21      4      5     23
    22     22      4      5     24
    23     23      4      6     25
    24     24      4      6     26
    25     25      4      6     27
    26     26      4      7     28
    27     27      4      7     29
    28     28      8     10     30
    29     29     10     11     31
    30     30     10     11     32
    31     31     10     11     33
    32     32     10     12     34
    33     33     12     13     35
    34     34     12     13     36
    35     35     12     13     37
    36     36     12     14     38
    37     37     12     14     39
    38     38     12     14     40
    39     39     11     10     12
    40     40      8      7     28
    41     41      5      4      6
    42     42     12     10     30
    43     43     14     12     34
    44     44     13     12     14
    45     45     22      5     23
    46     46      3      2     18
    47     47      5      4      7
    48     48     31     11     33
    49     49     15      1     17
    50     50      6      4      7
    51     51     22      5     24
    52     52     23      5     24
    53     53      9      8     10
    54     54     18      2     19
    55     55     31     11     32
    56     56     26      6     27
    57     57     32     11     33
    58     58     35     13     37
    59     59      8      7     29
    60     60     28      7     29
    61     61      3      2     19
    62     62     15      1     16
    63     63     38     14     40
    64     64      4      3     21
    65     65     39     14     40
    66     66     25      6     26
    67     67     16      1     17
    68     68     35     13     36
    69     69     13     12     34
    70     70      4      3     20
    71     71     25      6     27
    72     72     38     14     39
    73     73     36     13     37
    74     74     11     10     30
    75     75     20      3     21

Dihedrals

     1      1      4      3      2      1 
     2      2      5      4      3      2 
     3      3      8      7      4      3 
     4      4      9      8      7      4 
     5      5     11     10      8      7 
     6      6     13     12     10      8 
     7      7     15      1      2      3 
     8      8     22      5      4      3 
     9      9     25      6      4      3 
    10     10     31     11     10      8 
    11     11     35     13     12     10 
    12     12     38     14     12     10 
    13     13     31     11     10     12 
    14     14     26      6      4      7 
    15     15     38     14     12     34 
    16     16     40     14     12     34 
    17     17     20      3      4      7 
    18     18     21      3      4      6 
    19     19     32     11     10     30 
    20     20     29      7      4      6 
    21     21     20      3      2     19 
    22     22     21      3      2     18 
    23     23     12     10      8      7 
    24     24     13     12     10     11 
    25     25     24      5      4      7 
    26     26     21      3      4      7 
    27     27     29      7      4      3 
    28     28     37     13     12     10 
    29     29     18      2      1     15 
    30     30     34     12     10     11 
    31     31     38     14     12     13 
    32     32     26      6      4      3 
    33     33     35     13     12     34 
    34     34     10      8      7      4 
    35     35     32     11     10     12 
    36     36     28      7      8      9 
    37     37     34     12     10     30 
    38     38     14     12     10      8 
    39     39     23      5      4      6 
    40     40      6      4      3      2 
    41     41     37     13     12     34 
    42     42     22      5      4      7 
    43     43     20      3      2      1 
    44     44     20      3      2     18 
    45     45     33     11     10      8 
    46     46     30     10     12     13 
    47     47     29      7      8     10 
    48     48     21      3      2      1 
    49     49     25      6      4      5 
    50     50     27      6      4      3 
    51     51     39     14     12     34 
    52     52     28      7      4      5 
    53     53     30     10      8      9 
    54     54      7      4      3      2 
    55     55     20      3      4      5 
    56     56     36     13     12     34 
    57     57     29      7      8      9 
    58     58     31     11     10     30 
    59     59     23      5      4      3 
    60     60     18      2      1     17 
    61     61     19      2      1     16 
    62     62     35     13     12     14 
    63     63     21      3      2     19 
    64     64     27      6      4      5 
    65     65      8      7      4      6 
    66     66     25      6      4      7 
    67     67     20      3      4      6 
    68     68     21      3      4      5 
    69     69     40     14     12     10 
    70     70     12     10      8      9 
    71     71     32     11     10      8 
    72     72     24      5      4      3 
    73     73      8      7      4      5 
    74     74     39     14     12     13 
    75     75     30     10     12     14 
    76     76     27      6      4      7 
    77     77     23      5      4      7 
    78     78     24      5      4      6 
    79     79     17      1      2      3 
    80     80     33     11     10     12 
    81     81     26      6      4      5 
    82     82     28      7      8     10 
    83     83     36     13     12     10 
    84     84     19      2      3      4 
    85     85     34     12     10      8 
    86     86     30     10      8      7 
    87     87     28      7      4      3 
    88     88     11     10      8      9 
    89     89     33     11     10     30 
    90     90     18      2      3      4 
    91     91     19      2      1     17 
    92     92     14     12     10     11 
    93     93     37     13     12     14 
    94     94     22      5      4      6 
    95     95     36     13     12     14 
    96     96     16      1      2      3 
    97     97     40     14     12     13 
    98     98     39     14     12     10 
    99     99     18      2      1     16 
   100    100     29      7      4      5 
   101    101     28      7      4      6 
   102    102     19      2      1     15 

Impropers

     1      1      4      3      5      6 
     2      2      4      3      5      7 
     3      3      8      9     10      7 
     4      4     10     11     12      8 
     5      5     12     10     13     14 
     6      6      1      2     15     16 
     7      7      1     17     15      2 
     8      8      2      1     18      3 
     9      9      2      1     19      3 
    10     10      3      4      2     20 
    11     11      3      2      4     21 
    12     12      5      4     22     23 
    13     13      5      4     22     24 
    14     14      6     25     26      4 
    15     15      6     25     27      4 
    16     16      7      4     28      8 
    17     17      7      4     29      8 
    18     18     10     11     30      8 
    19     19     11     10     31     32 
    20     20     11     33     10     31 
    21     21     12     34     13     10 
    22     22     13     12     35     36 
    23     23     13     35     12     37 
    24     24     14     12     39     38 
    25     25     14     38     12     40 

