LAMMPS data file Created by LigParGen - (Written by Leela S. Dodda)

      27 atoms
      27 bonds
      52 angles
      72 dihedrals
      16 impropers
 
      27 atom types
      27 bond types
      52 angle types
      72 dihedral types
      16 improper types
 
   -4.613880    45.386120 xlo xhi
   -3.657420    46.342580 ylo yhi
   -1.020090    48.979910 zlo zhi

Masses

       1     12.011  
       2     32.060  
       3     12.011  
       4     12.011  
       5     12.011  
       6     12.011  
       7     12.011  
       8     15.999  
       9     12.011  
      10     12.011  
      11     12.011  
      12      1.008  
      13      1.008  
      14      1.008  
      15      1.008  
      16      1.008  
      17      1.008  
      18      1.008  
      19      1.008  
      20      1.008  
      21      1.008  
      22      1.008  
      23      1.008  
      24      1.008  
      25      1.008  
      26      1.008  
      27      1.008  

Pair Coeffs 

       1      0.066  3.5000000 
       2      0.355  3.6000000 
       3      0.066  3.5000000 
       4      0.066  3.5000000 
       5      0.066  3.5000000 
       6      0.066  3.5000000 
       7      0.070  3.5500000 
       8      0.210  2.9600000 
       9      0.066  3.5000000 
      10      0.066  3.5000000 
      11      0.066  3.5000000 
      12      0.030  2.5000000 
      13      0.030  2.5000000 
      14      0.030  2.5000000 
      15      0.030  2.5000000 
      16      0.030  2.5000000 
      17      0.030  2.5000000 
      18      0.030  2.5000000 
      19      0.030  2.5000000 
      20      0.030  2.5000000 
      21      0.030  2.5000000 
      22      0.030  2.5000000 
      23      0.030  2.5000000 
      24      0.030  2.5000000 
      25      0.030  2.5000000 
      26      0.030  2.5000000 
      27      0.030  2.5000000 

Bond Coeffs 

       1   222.0000     1.8100 
       2   222.0000     1.8100 
       3   268.0000     1.5290 
       4   268.0000     1.5290 
       5   268.0000     1.5290 
       6   317.0000     1.5220 
       7   570.0000     1.2290 
       8   317.0000     1.5220 
       9   268.0000     1.5290 
      10   268.0000     1.5290 
      11   340.0000     1.0900 
      12   340.0000     1.0900 
      13   340.0000     1.0900 
      14   340.0000     1.0900 
      15   340.0000     1.0900 
      16   340.0000     1.0900 
      17   340.0000     1.0900 
      18   340.0000     1.0900 
      19   340.0000     1.0900 
      20   340.0000     1.0900 
      21   340.0000     1.0900 
      22   340.0000     1.0900 
      23   340.0000     1.0900 
      24   340.0000     1.0900 
      25   340.0000     1.0900 
      26   340.0000     1.0900 
      27   268.0000     1.5290 

Angle Coeffs 

       1     62.000     98.900
       2     50.000    114.700
       3     50.000    114.700
       4     58.350    112.700
       5     63.000    111.100
       6     80.000    120.400
       7     70.000    116.000
       8     63.000    111.100
       9     50.000    114.700
      10     35.000    109.500
      11     35.000    109.500
      12     35.000    109.500
      13     37.500    110.700
      14     37.500    110.700
      15     37.500    110.700
      16     37.500    110.700
      17     37.500    110.700
      18     37.500    110.700
      19     37.500    110.700
      20     35.000    109.500
      21     37.500    110.700
      22     37.500    110.700
      23     37.500    110.700
      24     37.500    110.700
      25     37.500    110.700
      26     58.350    112.700
      27     33.000    107.800
      28     33.000    107.800
      29     33.000    107.800
      30     33.000    107.800
      31     37.500    110.700
      32     33.000    107.800
      33     33.000    107.800
      34     80.000    120.400
      35     37.500    110.700
      36     33.000    107.800
      37     58.350    112.700
      38     33.000    107.800
      39     63.000    111.100
      40     33.000    107.800
      41     37.500    110.700
      42     35.000    109.500
      43     37.500    110.700
      44     58.350    112.700
      45     33.000    107.800
      46     58.350    112.700
      47     33.000    107.800
      48     37.500    110.700
      49     58.350    112.700
      50     33.000    107.800
      51     35.000    109.500
      52     37.500    110.700

Dihedral Coeffs  

       1      0.925     -0.576      0.677      0.000 
       2      2.619     -0.620      0.258      0.000 
       3     -2.060     -0.313      0.315      0.000 
       4      0.000      0.000      0.000      0.000 
       5      1.454     -0.144     -0.775      0.000 
       6      0.000      0.000      0.647      0.000 
       7      0.000      0.000      0.452      0.000 
       8      0.000      0.000     -0.100      0.000 
       9      0.000      0.000      0.300      0.000 
      10      0.000      0.000      0.300      0.000 
      11      0.000      0.000      0.300      0.000 
      12      0.000      0.000      0.300      0.000 
      13      0.000      0.000      0.300      0.000 
      14      0.000      0.000      0.452      0.000 
      15      0.925     -0.576      0.677      0.000 
      16      0.000      0.000     -0.100      0.000 
      17      0.000      0.000      0.300      0.000 
      18      0.000      0.000      0.300      0.000 
      19      1.454     -0.144     -0.775      0.000 
      20      0.925     -0.576      0.677      0.000 
      21      0.000      0.000      0.300      0.000 
      22      0.000      0.000      0.300      0.000 
      23      0.000      0.000      0.647      0.000 
      24      0.000      0.000      0.300      0.000 
      25      0.000      0.000     -0.100      0.000 
      26      0.000      0.000      0.452      0.000 
      27      0.000      0.000      0.300      0.000 
      28      0.000      0.000      0.300      0.000 
      29      0.000      0.000      0.300      0.000 
      30      0.000      0.000      0.300      0.000 
      31      0.000      0.000      0.452      0.000 
      32      0.000      0.000      0.300      0.000 
      33      1.300     -0.200      0.200      0.000 
      34      0.000      0.000      0.000      0.000 
      35      1.454     -0.144     -0.775      0.000 
      36      1.300     -0.200      0.200      0.000 
      37      0.000      0.000      0.300      0.000 
      38      0.000      0.000     -0.100      0.000 
      39      0.000      0.000      0.300      0.000 
      40      0.000      0.000      0.300      0.000 
      41      0.000      0.000      0.300      0.000 
      42      1.300     -0.200      0.200      0.000 
      43      0.000      0.000      0.000      0.000 
      44     -2.060     -0.313      0.315      0.000 
      45      0.000      0.000     -0.100      0.000 
      46      0.000      0.000      0.275      0.000 
      47      0.000      0.000      0.300      0.000 
      48      0.000      0.000     -0.100      0.000 
      49      0.000      0.000      0.452      0.000 
      50      0.000      0.000      0.300      0.000 
      51      0.000      0.000      0.300      0.000 
      52      0.000      0.000      0.300      0.000 
      53      0.000      0.000      0.300      0.000 
      54      0.000      0.000      0.275      0.000 
      55      2.619     -0.620      0.258      0.000 
      56      0.000      0.000      0.000      0.000 
      57      0.000      0.000      0.647      0.000 
      58      0.000      0.000      0.300      0.000 
      59      0.000      0.000     -0.100      0.000 
      60      0.000      0.000      0.300      0.000 
      61      0.000      0.000      0.300      0.000 
      62      0.000      0.000      0.300      0.000 
      63      0.000      0.000      0.300      0.000 
      64      1.300     -0.200      0.200      0.000 
      65      1.300     -0.200      0.200      0.000 
      66      0.000      0.000      0.275      0.000 
      67      0.000      0.000      0.000      0.000 
      68      0.000      0.000      0.000      0.000 
      69      0.000      0.000      0.300      0.000 
      70      0.000      0.000      0.452      0.000 
      71      0.000      0.000      0.452      0.000 
      72      0.000      0.000      0.300      0.000 

Improper Coeffs 

       1      0.000      -1       2 
       2     10.500      -1       2 
       3      0.000      -1       2 
       4      0.000      -1       2 
       5      0.000      -1       2 
       6      0.000      -1       2 
       7      0.000      -1       2 
       8      0.000      -1       2 
       9      0.000      -1       2 
      10      0.000      -1       2 
      11      0.000      -1       2 
      12      0.000      -1       2 
      13      0.000      -1       2 
      14      0.000      -1       2 
      15      0.000      -1       2 
      16      0.000      -1       2 

Atoms 

     1      1      1 -0.15350000    1.000  1.00000  0.00000
     2      1      2 -0.38190000   -0.813  1.00000  0.00000
     3      1      3 0.05360000   -1.226  1.00000  1.81171
     4      1      4 -0.23670000   -0.573  2.21281  2.49590
     5      1      5 -0.15120000   -2.765  1.15404  1.93064
     6      1      6 -0.23650000   -3.552 -0.06908  1.47349
     7      1      7 0.37170000   -3.051 -1.29315  2.20011
     8      1      8 -0.44800000   -3.833 -2.05964  2.76212
     9      1      9 -0.16450000   -1.556 -1.56343  2.09743
    10      1     10 -0.23070000   -1.154 -2.74943  2.97493
    11      1     11 -0.15580000   -0.777 -0.30236  2.51586
    12      1     12 0.11380000    1.341  1.20300 -1.02009
    13      1     13 0.11380000    1.389  0.02158  0.29777
    14      1     14 0.11380000    1.414  1.78317  0.63674
    15      1     15 0.09490000   -0.834  3.15182  1.99358
    16      1     16 0.09490000    0.517  2.12976  2.53763
    17      1     17 0.09490000   -0.913  2.29716  3.53512
    18      1     18 0.10900000   -3.111  2.03806  1.37976
    19      1     19 0.10900000   -3.017  1.33694  2.98431
    20      1     20 0.13240000   -3.467 -0.24099  0.39596
    21      1     21 0.13240000   -4.614  0.07331  1.70236
    22      1     22 0.14400000   -1.345 -1.82165  1.05298
    23      1     23 0.09250000   -1.395 -2.56383  4.02856
    24      1     24 0.09250000   -0.079 -2.94429  2.89862
    25      1     25 0.09250000   -1.687 -3.65742  2.67231
    26      1     26 0.10150000    0.297 -0.46859  2.37009
    27      1     27 0.10150000   -0.911 -0.16440  3.59852

Bonds 

     1      1      2      1
     2      2      3      2
     3      3      4      3
     4      4      5      3
     5      5      6      5
     6      6      7      6
     7      7      8      7
     8      8      9      7
     9      9     10      9
    10     10     11      3
    11     11     12      1
    12     12     13      1
    13     13     14      1
    14     14     15      4
    15     15     16      4
    16     16     17      4
    17     17     18      5
    18     18     19      5
    19     19     20      6
    20     20     21      6
    21     21     22      9
    22     22     23     10
    23     23     24     10
    24     24     25     10
    25     25     26     11
    26     26     27     11
    27     27     11      9

Angles 

     1      1      1      2      3
     2      2      2      3      4
     3      3      2      3      5
     4      4      3      5      6
     5      5      5      6      7
     6      6      6      7      8
     7      7      6      7      9
     8      8      7      9     10
     9      9      2      3     11
    10     10      2      1     12
    11     11      2      1     13
    12     12      2      1     14
    13     13      3      4     15
    14     14      3      4     16
    15     15      3      4     17
    16     16      3      5     18
    17     17      3      5     19
    18     18      5      6     20
    19     19      5      6     21
    20     20      7      9     22
    21     21      9     10     23
    22     22      9     10     24
    23     23      9     10     25
    24     24      3     11     26
    25     25      3     11     27
    26     26      4      3     11
    27     27     15      4     16
    28     28     13      1     14
    29     29     20      6     21
    30     30     12      1     13
    31     31     11      9     22
    32     32     24     10     25
    33     33     26     11     27
    34     34      8      7      9
    35     35      6      5     19
    36     36     12      1     14
    37     37      4      3      5
    38     38     23     10     25
    39     39      7      9     11
    40     40     16      4     17
    41     41     10      9     22
    42     42      7      6     21
    43     43      9     11     27
    44     44      3     11      9
    45     45     23     10     24
    46     46     10      9     11
    47     47     18      5     19
    48     48      9     11     26
    49     49      5      3     11
    50     50     15      4     17
    51     51      7      6     20
    52     52      6      5     18

Dihedrals

     1      1      4      3      2      1 
     2      2      6      5      3      2 
     3      3      7      6      5      3 
     4      4      8      7      6      5 
     5      5     10      9      7      6 
     6      6     12      1      2      3 
     7      7     15      4      3      2 
     8      8     23     10      9      7 
     9      9     19      5      3     11 
    10     10     17      4      3     11 
    11     11     15      4      3      5 
    12     12     20      6      5      3 
    13     13     26     11      3      4 
    14     14     17      4      3      2 
    15     15     11      3      2      1 
    16     16     18      5      6      7 
    17     17     27     11      3      5 
    18     18     21      6      5      3 
    19     19     11      9      7      6 
    20     20      5      3      2      1 
    21     21     27     11      9     22 
    22     22     23     10      9     11 
    23     23     14      1      2      3 
    24     24     24     10      9     22 
    25     25     27     11      9      7 
    26     26     19      5      3      2 
    27     27     25     10      9     11 
    28     28     19      5      3      4 
    29     29     16      4      3     11 
    30     30     21      6      5     18 
    31     31     27     11      3      2 
    32     32     21      6      5     19 
    33     33      6      5      3      4 
    34     34     22      9      7      8 
    35     35      9      7      6      5 
    36     36     10      9     11      3 
    37     37     16      4      3      5 
    38     38     19      5      6      7 
    39     39     26     11      3      5 
    40     40     23     10      9     22 
    41     41     18      5      3     11 
    42     42      9     11      3      5 
    43     43     11      9      7      8 
    44     44      7      9     11      3 
    45     45     24     10      9      7 
    46     46     22      9      7      6 
    47     47     15      4      3     11 
    48     48     26     11      9      7 
    49     49     16      4      3      2 
    50     50     27     11      3      4 
    51     51     17      4      3      5 
    52     52     26     11      9     22 
    53     53     18      5      3      4 
    54     54     21      6      7      9 
    55     55      9     11      3      2 
    56     56     20      6      7      8 
    57     57     13      1      2      3 
    58     58     22      9     11      3 
    59     59     25     10      9      7 
    60     60     27     11      9     10 
    61     61     20      6      5     18 
    62     62     26     11      9     10 
    63     63     24     10      9     11 
    64     64     11      3      5      6 
    65     65      9     11      3      4 
    66     66     20      6      7      9 
    67     67     21      6      7      8 
    68     68     10      9      7      8 
    69     69     25     10      9     22 
    70     70     26     11      3      2 
    71     71     18      5      3      2 
    72     72     20      6      5     19 

Impropers

     1      1      3      2      4      5 
     2      2      7      9      6      8 
     3      3      3      2     11      4 
     4      4      1      2     12     13 
     5      5      1      2     12     14 
     6      6      4      3     15     16 
     7      7      4     17      3     15 
     8      8      5     18      3      6 
     9      9      5     19      3      6 
    10     10      6     20      5      7 
    11     11      6      5     21      7 
    12     12      9     10     22      7 
    13     13     10      9     23     24 
    14     14     10     25     23      9 
    15     15     11      9     26      3 
    16     16     11      9     27      3 

