LAMMPS data file Created by LigParGen - (Written by Leela S. Dodda)

      31 atoms
      30 bonds
      57 angles
      75 dihedrals
      19 impropers
 
      31 atom types
      30 bond types
      57 angle types
      75 dihedral types
      19 improper types
 
   -8.244230    41.755770 xlo xhi
   -2.780510    47.219490 ylo yhi
   -1.026030    48.973970 zlo zhi

Masses

       1     12.011  
       2     12.011  
       3     12.011  
       4     12.011  
       5     12.011  
       6     12.011  
       7     12.011  
       8     12.011  
       9     15.999  
      10     12.011  
      11     12.011  
      12      1.008  
      13      1.008  
      14      1.008  
      15      1.008  
      16      1.008  
      17      1.008  
      18      1.008  
      19      1.008  
      20      1.008  
      21      1.008  
      22      1.008  
      23      1.008  
      24      1.008  
      25      1.008  
      26      1.008  
      27      1.008  
      28      1.008  
      29      1.008  
      30      1.008  
      31      1.008  

Pair Coeffs 

       1      0.066  3.5000000 
       2      0.066  3.5000000 
       3      0.066  3.5000000 
       4      0.066  3.5000000 
       5      0.066  3.5000000 
       6      0.066  3.5000000 
       7      0.066  3.5000000 
       8      0.070  3.5500000 
       9      0.210  2.9600000 
      10      0.066  3.5000000 
      11      0.066  3.5000000 
      12      0.030  2.5000000 
      13      0.030  2.5000000 
      14      0.030  2.5000000 
      15      0.030  2.5000000 
      16      0.030  2.5000000 
      17      0.030  2.5000000 
      18      0.030  2.5000000 
      19      0.030  2.5000000 
      20      0.030  2.5000000 
      21      0.030  2.5000000 
      22      0.030  2.5000000 
      23      0.030  2.5000000 
      24      0.030  2.5000000 
      25      0.030  2.5000000 
      26      0.030  2.5000000 
      27      0.030  2.5000000 
      28      0.030  2.5000000 
      29      0.030  2.5000000 
      30      0.030  2.5000000 
      31      0.030  2.5000000 

Bond Coeffs 

       1   268.0000     1.5290 
       2   268.0000     1.5290 
       3   268.0000     1.5290 
       4   268.0000     1.5290 
       5   268.0000     1.5290 
       6   268.0000     1.5290 
       7   317.0000     1.5220 
       8   570.0000     1.2290 
       9   317.0000     1.5220 
      10   268.0000     1.5290 
      11   340.0000     1.0900 
      12   340.0000     1.0900 
      13   340.0000     1.0900 
      14   340.0000     1.0900 
      15   340.0000     1.0900 
      16   340.0000     1.0900 
      17   340.0000     1.0900 
      18   340.0000     1.0900 
      19   340.0000     1.0900 
      20   340.0000     1.0900 
      21   340.0000     1.0900 
      22   340.0000     1.0900 
      23   340.0000     1.0900 
      24   340.0000     1.0900 
      25   340.0000     1.0900 
      26   340.0000     1.0900 
      27   340.0000     1.0900 
      28   340.0000     1.0900 
      29   340.0000     1.0900 
      30   340.0000     1.0900 

Angle Coeffs 

       1     58.350    112.700
       2     58.350    112.700
       3     58.350    112.700
       4     58.350    112.700
       5     58.350    112.700
       6     63.000    111.100
       7     80.000    120.400
       8     70.000    116.000
       9     63.000    111.100
      10     37.500    110.700
      11     37.500    110.700
      12     37.500    110.700
      13     37.500    110.700
      14     37.500    110.700
      15     37.500    110.700
      16     37.500    110.700
      17     37.500    110.700
      18     37.500    110.700
      19     37.500    110.700
      20     37.500    110.700
      21     37.500    110.700
      22     37.500    110.700
      23     37.500    110.700
      24     37.500    110.700
      25     35.000    109.500
      26     35.000    109.500
      27     37.500    110.700
      28     37.500    110.700
      29     37.500    110.700
      30     33.000    107.800
      31     37.500    110.700
      32     37.500    110.700
      33     33.000    107.800
      34     33.000    107.800
      35     33.000    107.800
      36     33.000    107.800
      37     33.000    107.800
      38     80.000    120.400
      39     33.000    107.800
      40     35.000    109.500
      41     37.500    110.700
      42     33.000    107.800
      43     37.500    110.700
      44     37.500    110.700
      45     35.000    109.500
      46     58.350    112.700
      47     33.000    107.800
      48     37.500    110.700
      49     33.000    107.800
      50     37.500    110.700
      51     33.000    107.800
      52     37.500    110.700
      53     37.500    110.700
      54     37.500    110.700
      55     33.000    107.800
      56     33.000    107.800
      57     33.000    107.800

Dihedral Coeffs  

       1      1.300     -0.200      0.200      0.000 
       2      1.300     -0.200      0.200      0.000 
       3      1.300     -0.200      0.200      0.000 
       4     -2.060     -0.313      0.315      0.000 
       5      0.000      0.000      0.000      0.000 
       6      1.454     -0.144     -0.775      0.000 
       7      0.000      0.000      0.300      0.000 
       8      0.000      0.000      0.300      0.000 
       9      0.000      0.000     -0.100      0.000 
      10      0.000      0.000      0.300      0.000 
      11      0.000      0.000     -0.100      0.000 
      12      0.000      0.000      0.275      0.000 
      13      1.454     -0.144     -0.775      0.000 
      14      0.000      0.000      0.300      0.000 
      15      0.000      0.000      0.000      0.000 
      16      0.000      0.000      0.300      0.000 
      17      0.000      0.000      0.300      0.000 
      18      0.000      0.000      0.300      0.000 
      19      0.000      0.000      0.300      0.000 
      20      0.000      0.000      0.300      0.000 
      21      0.000      0.000      0.300      0.000 
      22      0.000      0.000      0.300      0.000 
      23      0.000      0.000      0.000      0.000 
      24      0.000      0.000      0.000      0.000 
      25      0.000      0.000      0.300      0.000 
      26      0.000      0.000      0.300      0.000 
      27      0.000      0.000      0.300      0.000 
      28      0.000      0.000      0.300      0.000 
      29      0.000      0.000      0.300      0.000 
      30      0.000      0.000      0.300      0.000 
      31      0.000      0.000      0.300      0.000 
      32      0.000      0.000      0.300      0.000 
      33      0.000      0.000      0.300      0.000 
      34      0.000      0.000      0.300      0.000 
      35      0.000      0.000      0.000      0.000 
      36      0.000      0.000      0.275      0.000 
      37      0.000      0.000      0.300      0.000 
      38      0.000      0.000      0.275      0.000 
      39     -2.060     -0.313      0.315      0.000 
      40      0.000      0.000      0.300      0.000 
      41      0.000      0.000      0.300      0.000 
      42      0.000      0.000      0.300      0.000 
      43      1.300     -0.200      0.200      0.000 
      44      0.000      0.000      0.300      0.000 
      45      0.000      0.000      0.300      0.000 
      46      0.000      0.000      0.300      0.000 
      47      0.000      0.000      0.300      0.000 
      48      0.000      0.000      0.300      0.000 
      49      0.000      0.000      0.300      0.000 
      50      0.000      0.000      0.300      0.000 
      51      0.000      0.000      0.300      0.000 
      52      0.000      0.000     -0.100      0.000 
      53      0.000      0.000     -0.100      0.000 
      54      0.000      0.000      0.300      0.000 
      55      0.000      0.000      0.300      0.000 
      56      0.000      0.000      0.300      0.000 
      57      0.000      0.000      0.300      0.000 
      58      0.000      0.000      0.300      0.000 
      59      0.000      0.000      0.300      0.000 
      60      0.000      0.000      0.300      0.000 
      61      0.000      0.000      0.300      0.000 
      62      0.000      0.000      0.300      0.000 
      63      0.000      0.000      0.300      0.000 
      64      0.000      0.000      0.300      0.000 
      65      0.000      0.000      0.300      0.000 
      66      0.000      0.000      0.300      0.000 
      67      0.000      0.000      0.275      0.000 
      68      0.000      0.000      0.300      0.000 
      69      0.000      0.000      0.000      0.000 
      70      0.000      0.000      0.300      0.000 
      71      0.000      0.000      0.300      0.000 
      72      0.000      0.000      0.300      0.000 
      73      0.000      0.000      0.300      0.000 
      74      0.000      0.000      0.300      0.000 
      75      0.000      0.000      0.300      0.000 

Improper Coeffs 

       1      0.000      -1       2 
       2     10.500      -1       2 
       3      0.000      -1       2 
       4      0.000      -1       2 
       5      0.000      -1       2 
       6      0.000      -1       2 
       7      0.000      -1       2 
       8      0.000      -1       2 
       9      0.000      -1       2 
      10      0.000      -1       2 
      11      0.000      -1       2 
      12      0.000      -1       2 
      13      0.000      -1       2 
      14      0.000      -1       2 
      15      0.000      -1       2 
      16      0.000      -1       2 
      17      0.000      -1       2 
      18      0.000      -1       2 
      19      0.000      -1       2 

Atoms 

     1      1      1 -0.23860000    1.000  1.00000  0.00000
     2      1      2 -0.17980000   -0.521  1.00000  0.00000
     3      1      3 -0.17550000   -1.070  1.00000  1.42611
     4      1      4 -0.17390000   -2.601  1.00180  1.44091
     5      1      5 -0.10360000   -3.189  0.91011  2.86705
     6      1      6 -0.23840000   -2.799  2.13291  3.70675
     7      1      7 -0.23240000   -4.724  0.78997  2.83442
     8      1      8 0.35960000   -5.234 -0.52337  2.25479
     9      1      9 -0.44390000   -4.485 -1.46234  1.99326
    10      1     10 -0.23570000   -6.741 -0.62044  2.07849
    11      1     11 -0.23160000   -7.157 -1.89634  1.36889
    12      1     12 0.08040000    1.380  1.00130 -1.02603
    13      1     13 0.08040000    1.390  0.11191  0.50753
    14      1     14 0.08040000    1.391  1.88716  0.50861
    15      1     15 0.08890000   -0.882  0.11793 -0.54163
    16      1     16 0.08890000   -0.880  1.88502 -0.53775
    17      1     17 0.09000000   -0.686  1.88336  1.94734
    18      1     18 0.09000000   -0.696  0.11794  1.96019
    19      1     19 0.09350000   -2.949  0.15490  0.83890
    20      1     20 0.09350000   -2.972  1.90847  0.94534
    21      1     21 0.11700000   -2.777  0.01888  3.35819
    22      1     22 0.08230000   -3.088  3.06356  3.20617
    23      1     23 0.08230000   -1.721  2.16350  3.88957
    24      1     24 0.08230000   -3.289  2.10902  4.68579
    25      1     25 0.11720000   -5.153  1.61756  2.25793
    26      1     26 0.11720000   -5.118  0.84561  3.85681
    27      1     27 0.11660000   -7.078  0.24488  1.49854
    28      1     28 0.11660000   -7.200 -0.58125  3.07164
    29      1     29 0.09200000   -6.708 -1.95209  0.37182
    30      1     30 0.09200000   -8.244 -1.93503  1.25809
    31      1     31 0.09200000   -6.838 -2.78051  1.93039

Bonds 

     1      1      2      1
     2      2      3      2
     3      3      4      3
     4      4      5      4
     5      5      6      5
     6      6      7      5
     7      7      8      7
     8      8      9      8
     9      9     10      8
    10     10     11     10
    11     11     12      1
    12     12     13      1
    13     13     14      1
    14     14     15      2
    15     15     16      2
    16     16     17      3
    17     17     18      3
    18     18     19      4
    19     19     20      4
    20     20     21      5
    21     21     22      6
    22     22     23      6
    23     23     24      6
    24     24     25      7
    25     25     26      7
    26     26     27     10
    27     27     28     10
    28     28     29     11
    29     29     30     11
    30     30     31     11

Angles 

     1      1      1      2      3
     2      2      2      3      4
     3      3      3      4      5
     4      4      4      5      6
     5      5      4      5      7
     6      6      5      7      8
     7      7      7      8      9
     8      8      7      8     10
     9      9      8     10     11
    10     10      2      1     12
    11     11      2      1     13
    12     12      2      1     14
    13     13      1      2     15
    14     14      1      2     16
    15     15      2      3     17
    16     16      2      3     18
    17     17      3      4     19
    18     18      3      4     20
    19     19      4      5     21
    20     20      5      6     22
    21     21      5      6     23
    22     22      5      6     24
    23     23      5      7     25
    24     24      5      7     26
    25     25      8     10     27
    26     26      8     10     28
    27     27     10     11     29
    28     28     10     11     30
    29     29     10     11     31
    30     30     27     10     28
    31     31     11     10     27
    32     32      3      2     15
    33     33     13      1     14
    34     34     22      6     24
    35     35     15      2     16
    36     36     12      1     13
    37     37     12      1     14
    38     38      9      8     10
    39     39     19      4     20
    40     40      8      7     26
    41     41      3      2     16
    42     42     30     11     31
    43     43      4      3     18
    44     44      7      5     21
    45     45      8      7     25
    46     46      6      5      7
    47     47     29     11     31
    48     48      5      4     19
    49     49     25      7     26
    50     50     11     10     28
    51     51     23      6     24
    52     52      6      5     21
    53     53      5      4     20
    54     54      4      3     17
    55     55     17      3     18
    56     56     22      6     23
    57     57     29     11     30

Dihedrals

     1      1      4      3      2      1 
     2      2      5      4      3      2 
     3      3      6      5      4      3 
     4      4      8      7      5      4 
     5      5      9      8      7      5 
     6      6     11     10      8      7 
     7      7     12      1      2      3 
     8      8     22      6      5      4 
     9      9     29     11     10      8 
    10     10     16      2      3      4 
    11     11     21      5      7      8 
    12     12     26      7      8     10 
    13     13     10      8      7      5 
    14     14     13      1      2      3 
    15     15     11     10      8      9 
    16     16     18      3      2      1 
    17     17     24      6      5      7 
    18     18     29     11     10     28 
    19     19     15      2      1     12 
    20     20     26      7      5      4 
    21     21     18      3      2     15 
    22     22     23      6      5     21 
    23     23     27     10      8      9 
    24     24     28     10      8      9 
    25     25     19      4      5      7 
    26     26     20      4      5      6 
    27     27     25      7      5      6 
    28     28     15      2      3      4 
    29     29     22      6      5     21 
    30     30     24      6      5     21 
    31     31     18      3      4      5 
    32     32     21      5      4     20 
    33     33     17      3      2     15 
    34     34     31     11     10     28 
    35     35     26      7      8      9 
    36     36     25      7      8     10 
    37     37     25      7      5     21 
    38     38     28     10      8      7 
    39     39      8      7      5      6 
    40     40     30     11     10     27 
    41     41     24      6      5      4 
    42     42     20      4      3     17 
    43     43      7      5      4      3 
    44     44     16      2      1     13 
    45     45     15      2      1     14 
    46     46     20      4      3     18 
    47     47     20      4      5      7 
    48     48     19      4      3     18 
    49     49     19      4      3      2 
    50     50     22      6      5      7 
    51     51     23      6      5      4 
    52     52     31     11     10      8 
    53     53     30     11     10      8 
    54     54     17      3      4      5 
    55     55     20      4      3      2 
    56     56     17      3      2      1 
    57     57     30     11     10     28 
    58     58     31     11     10     27 
    59     59     19      4      5      6 
    60     60     14      1      2      3 
    61     61     19      4      3     17 
    62     62     21      5      4      3 
    63     63     29     11     10     27 
    64     64     25      7      5      4 
    65     65     26      7      5     21 
    66     66     18      3      2     16 
    67     67     27     10      8      7 
    68     68     23      6      5      7 
    69     69     25      7      8      9 
    70     70     17      3      2     16 
    71     71     16      2      1     14 
    72     72     21      5      4     19 
    73     73     26      7      5      6 
    74     74     15      2      1     13 
    75     75     16      2      1     12 

Impropers

     1      1      5      4      6      7 
     2      2      8      9     10      7 
     3      3      1      2     12     13 
     4      4      1      2     12     14 
     5      5      2      1      3     15 
     6      6      2      1      3     16 
     7      7      3     17      2      4 
     8      8      3     18      4      2 
     9      9      4     19      5      3 
    10     10      4      3     20      5 
    11     11      5      4     21      6 
    12     12      6      5     23     22 
    13     13      6     22      5     24 
    14     14      7     25      5      8 
    15     15      7     26      5      8 
    16     16     10     27     11      8 
    17     17     10     11     28      8 
    18     18     11     10     29     30 
    19     19     11     10     29     31 

