LAMMPS data file Created by LigParGen - (Written by Leela S. Dodda)

      24 atoms
      24 bonds
      48 angles
      72 dihedrals
      16 impropers
 
      24 atom types
      24 bond types
      48 angle types
      72 dihedral types
      16 improper types
 
   -4.534250    45.465750 xlo xhi
   -1.961690    48.038310 ylo yhi
   -4.172540    45.827460 zlo zhi

Masses

       1     12.011  
       2     32.060  
       3     15.999  
       4     15.999  
       5     12.011  
       6     12.011  
       7     12.011  
       8     12.011  
       9     12.011  
      10     12.011  
      11      1.008  
      12      1.008  
      13      1.008  
      14      1.008  
      15      1.008  
      16      1.008  
      17      1.008  
      18      1.008  
      19      1.008  
      20      1.008  
      21      1.008  
      22      1.008  
      23      1.008  
      24      1.008  

Pair Coeffs 

       1      0.066  3.5000000 
       2      0.250  3.5500000 
       3      0.170  2.9600000 
       4      0.170  2.9600000 
       5      0.066  3.5000000 
       6      0.066  3.5000000 
       7      0.066  3.5000000 
       8      0.066  3.5000000 
       9      0.066  3.5000000 
      10      0.066  3.5000000 
      11      0.030  2.5000000 
      12      0.030  2.5000000 
      13      0.030  2.5000000 
      14      0.030  2.5000000 
      15      0.030  2.5000000 
      16      0.030  2.5000000 
      17      0.030  2.5000000 
      18      0.030  2.5000000 
      19      0.030  2.5000000 
      20      0.030  2.5000000 
      21      0.030  2.5000000 
      22      0.030  2.5000000 
      23      0.030  2.5000000 
      24      0.030  2.5000000 

Bond Coeffs 

       1   340.0000     1.7700 
       2   700.0000     1.4400 
       3   700.0000     1.4400 
       4   340.0000     1.7700 
       5   268.0000     1.5290 
       6   268.0000     1.5290 
       7   268.0000     1.5290 
       8   268.0000     1.5290 
       9   268.0000     1.5290 
      10   340.0000     1.0900 
      11   340.0000     1.0900 
      12   340.0000     1.0900 
      13   340.0000     1.0900 
      14   340.0000     1.0900 
      15   340.0000     1.0900 
      16   340.0000     1.0900 
      17   340.0000     1.0900 
      18   340.0000     1.0900 
      19   340.0000     1.0900 
      20   340.0000     1.0900 
      21   340.0000     1.0900 
      22   340.0000     1.0900 
      23   340.0000     1.0900 
      24   268.0000     1.5290 

Angle Coeffs 

       1     74.000    108.900
       2     74.000    108.900
       3     62.000    102.000
       4     50.000    108.600
       5     58.350    112.700
       6     58.350    112.700
       7     58.350    112.700
       8     50.000    108.600
       9     35.000    109.500
      10     35.000    109.500
      11     35.000    109.500
      12     35.000    109.500
      13     37.500    110.700
      14     37.500    110.700
      15     37.500    110.700
      16     37.500    110.700
      17     37.500    110.700
      18     37.500    110.700
      19     37.500    110.700
      20     37.500    110.700
      21     37.500    110.700
      22     37.500    110.700
      23     37.500    110.700
      24     37.500    110.700
      25     33.000    107.800
      26     33.000    107.800
      27     37.500    110.700
      28     58.350    112.700
      29     37.500    110.700
      30     58.350    112.700
      31     33.000    107.800
      32     37.500    110.700
      33     37.500    110.700
      34     37.500    110.700
      35     33.000    107.800
      36     33.000    107.800
      37     33.000    107.800
      38    104.000    119.000
      39     74.000    108.900
      40     74.000    108.900
      41     37.500    110.700
      42     33.000    107.800
      43     37.500    110.700
      44     37.500    110.700
      45     37.500    110.700
      46     33.000    107.800
      47     58.350    112.700
      48     37.500    110.700

Dihedral Coeffs  

       1      0.000      0.000      0.000      0.000 
       2      1.262     -0.198      0.465      0.000 
       3      1.300     -0.200      0.200      0.000 
       4      1.300     -0.200      0.200      0.000 
       5      0.000      0.000      0.350      0.000 
       6      0.000      0.000      0.300      0.000 
       7      0.000      0.000      0.300      0.000 
       8      0.000      0.000      0.300      0.000 
       9      0.000      0.000      0.300      0.000 
      10      0.000      0.000      0.300      0.000 
      11      0.000      0.000      0.350      0.000 
      12      0.000      0.000      0.300      0.000 
      13      0.000      0.000      0.000      0.000 
      14      0.000      0.000      0.300      0.000 
      15      0.000      0.000      0.350      0.000 
      16      0.000      0.000      0.350      0.000 
      17      0.000      0.000      0.300      0.000 
      18      0.000      0.000      0.300      0.000 
      19      1.300     -0.200      0.200      0.000 
      20      0.000      0.000      0.000      0.000 
      21      0.000      0.000      0.300      0.000 
      22      0.000      0.000      0.300      0.000 
      23      0.000      0.000      0.300      0.000 
      24      0.000      0.000      0.300      0.000 
      25      0.000      0.000      0.300      0.000 
      26      0.000      0.000      0.300      0.000 
      27      0.000      0.000      0.350      0.000 
      28      0.000      0.000      0.350      0.000 
      29      0.000      0.000      0.300      0.000 
      30      0.000      0.000      0.300      0.000 
      31      1.300     -0.200      0.200      0.000 
      32      0.000      0.000      0.350      0.000 
      33      0.000      0.000      0.300      0.000 
      34      1.300     -0.200      0.200      0.000 
      35      0.000      0.000      0.452      0.000 
      36      0.000      0.000      0.452      0.000 
      37      0.000      0.000      0.300      0.000 
      38      0.000      0.000      0.300      0.000 
      39      0.000      0.000      0.300      0.000 
      40      0.000      0.000      0.300      0.000 
      41      0.000      0.000      0.300      0.000 
      42      0.000      0.000      0.300      0.000 
      43      0.000      0.000      0.300      0.000 
      44      0.000      0.000      0.300      0.000 
      45      0.000      0.000      0.300      0.000 
      46      0.000      0.000      0.000      0.000 
      47      0.000      0.000      0.300      0.000 
      48      0.000      0.000      0.300      0.000 
      49      0.000      0.000      0.300      0.000 
      50      0.000      0.000      0.300      0.000 
      51      0.000      0.000      0.000      0.000 
      52      1.262     -0.198      0.465      0.000 
      53      0.000      0.000      0.350      0.000 
      54      0.000      0.000      0.300      0.000 
      55      0.000      0.000      0.350      0.000 
      56      0.000      0.000      0.350      0.000 
      57      0.000      0.000      0.452      0.000 
      58      0.000      0.000      0.000      0.000 
      59      0.000      0.000      0.300      0.000 
      60      0.000      0.000      0.300      0.000 
      61      0.000      0.000      0.300      0.000 
      62      0.000      0.000      0.452      0.000 
      63      0.000      0.000      0.300      0.000 
      64      0.000      0.000      0.300      0.000 
      65      0.000      0.000      0.300      0.000 
      66      0.000      0.000      0.300      0.000 
      67      0.000      0.000      0.350      0.000 
      68      0.000      0.000      0.300      0.000 
      69      0.000      0.000      0.300      0.000 
      70      0.000      0.000      0.300      0.000 
      71      0.000      0.000      0.350      0.000 
      72      1.300     -0.200      0.200      0.000 

Improper Coeffs 

       1      0.000      -1       2 
       2      0.000      -1       2 
       3      0.000      -1       2 
       4      0.000      -1       2 
       5      0.000      -1       2 
       6      0.000      -1       2 
       7      0.000      -1       2 
       8      0.000      -1       2 
       9      0.000      -1       2 
      10      0.000      -1       2 
      11      0.000      -1       2 
      12      0.000      -1       2 
      13      0.000      -1       2 
      14      0.000      -1       2 
      15      0.000      -1       2 
      16      0.000      -1       2 

Atoms 

     1      1      1 -0.58370000    1.000  1.00000  0.00000
     2      1      2 1.28750000   -0.777  1.00000  0.00000
     3      1      3 -0.57010000   -1.187  1.00000  1.39289
     4      1      4 -0.57010000   -1.199  2.06636 -0.88655
     5      1      5 -0.40240000   -1.249 -0.59893 -0.69839
     6      1      6 -0.14220000   -2.775 -0.77196 -0.70215
     7      1      7 -0.18800000   -3.469 -0.02762 -1.84246
     8      1      8 -0.16710000   -2.858 -0.36693 -3.19674
     9      1      9 -0.18520000   -1.349 -0.14976 -3.21557
    10      1     10 -0.14220000   -0.653 -0.88382 -2.07949
    11      1     11 0.16470000    1.333  1.89296  0.53558
    12      1     12 0.16470000    1.362  1.04157 -1.02761
    13      1     13 0.16470000    1.357  0.10595  0.51241
    14      1     14 0.14780000   -0.830 -1.32336  0.01339
    15      1     15 0.11070000   -3.206 -0.45504  0.25425
    16      1     16 0.11070000   -3.000 -1.84139 -0.80591
    17      1     17 0.10720000   -3.417  1.05299 -1.67399
    18      1     18 0.10720000   -4.534 -0.28718 -1.84871
    19      1     19 0.09130000   -3.327  0.24568 -3.97552
    20      1     20 0.09130000   -3.077 -1.41418 -3.43850
    21      1     21 0.10530000   -1.128  0.92101 -3.16378
    22      1     22 0.10530000   -0.946 -0.50318 -4.17254
    23      1     23 0.09630000    0.419 -0.66677 -2.10547
    24      1     24 0.09630000   -0.746 -1.96169 -2.27036

Bonds 

     1      1      2      1
     2      2      3      2
     3      3      4      2
     4      4      5      2
     5      5      6      5
     6      6      7      6
     7      7      8      7
     8      8      9      8
     9      9     10      5
    10     10     11      1
    11     11     12      1
    12     12     13      1
    13     13     14      5
    14     14     15      6
    15     15     16      6
    16     16     17      7
    17     17     18      7
    18     18     19      8
    19     19     20      8
    20     20     21      9
    21     21     22      9
    22     22     23     10
    23     23     24     10
    24     24     10      9

Angles 

     1      1      1      2      3
     2      2      1      2      4
     3      3      1      2      5
     4      4      2      5      6
     5      5      5      6      7
     6      6      6      7      8
     7      7      7      8      9
     8      8      2      5     10
     9      9      2      1     11
    10     10      2      1     12
    11     11      2      1     13
    12     12      2      5     14
    13     13      5      6     15
    14     14      5      6     16
    15     15      6      7     17
    16     16      6      7     18
    17     17      7      8     19
    18     18      7      8     20
    19     19      8      9     21
    20     20      8      9     22
    21     21      5     10     23
    22     22      5     10     24
    23     23      9     10     24
    24     24      8      7     18
    25     25     11      1     13
    26     26     15      6     16
    27     27      9      8     20
    28     28      6      5     10
    29     29      6      5     14
    30     30      5     10      9
    31     31     19      8     20
    32     32     10      9     21
    33     33      9      8     19
    34     34      7      6     15
    35     35     21      9     22
    36     36     11      1     12
    37     37     12      1     13
    38     38      3      2      4
    39     39      3      2      5
    40     40      4      2      5
    41     41      7      6     16
    42     42     23     10     24
    43     43     10      9     22
    44     44      8      7     17
    45     45      9     10     23
    46     46     17      7     18
    47     47      8      9     10
    48     48     10      5     14

Dihedrals

     1      1      6      5      2      1 
     2      2      7      6      5      2 
     3      3      8      7      6      5 
     4      4      9      8      7      6 
     5      5     11      1      2      3 
     6      6     24     10      9     22 
     7      7     21      9      8      7 
     8      8     17      7      8      9 
     9      9     23     10      9     21 
    10     10     15      6      5     10 
    11     11     12      1      2      4 
    12     12     24     10      9      8 
    13     13     10      5      2      3 
    14     14     19      8      7      6 
    15     15     11      1      2      5 
    16     16     14      5      2      4 
    17     17     21      9      8     19 
    18     18     21      9     10      5 
    19     19      8      9     10      5 
    20     20      6      5      2      4 
    21     21     22      9      8     19 
    22     22     21      9      8     20 
    23     23     20      8      9     10 
    24     24     20      8      7     17 
    25     25     17      7      6      5 
    26     26     16      6      7      8 
    27     27     12      1      2      3 
    28     28     11      1      2      4 
    29     29     24     10      5     14 
    30     30     19      8      7     17 
    31     31     10      5      6      7 
    32     32     14      5      2      1 
    33     33     16      6      5     14 
    34     34     10      9      8      7 
    35     35     23     10      5      2 
    36     36     15      6      5      2 
    37     37     22      9     10      5 
    38     38     17      7      6     15 
    39     39     18      7      8      9 
    40     40     22      9      8      7 
    41     41     19      8      9     10 
    42     42     20      8      7     18 
    43     43     19      8      7     18 
    44     44     15      6      5     14 
    45     45     23     10      5     14 
    46     46     10      5      2      4 
    47     47     18      7      6      5 
    48     48     24     10      5      6 
    49     49     15      6      7      8 
    50     50     14      5      6      7 
    51     51      6      5      2      3 
    52     52      9     10      5      2 
    53     53     12      1      2      5 
    54     54     24     10      9     21 
    55     55     13      1      2      3 
    56     56     13      1      2      4 
    57     57     16      6      5      2 
    58     58     10      5      2      1 
    59     59     23     10      9     22 
    60     60     20      8      7      6 
    61     61     22      9      8     20 
    62     62     24     10      5      2 
    63     63     23     10      5      6 
    64     64     18      7      6     15 
    65     65     16      6      5     10 
    66     66     14      5     10      9 
    67     67     13      1      2      5 
    68     68     18      7      6     16 
    69     69     23     10      9      8 
    70     70     17      7      6     16 
    71     71     14      5      2      3 
    72     72      9     10      5      6 

Impropers

     1      1      2      1      3      4 
     2      2      2      1      3      5 
     3      3      5     10      6      2 
     4      4      1      2     11     12 
     5      5      1      2     11     13 
     6      6      5      2     14      6 
     7      7      6      7      5     15 
     8      8      6      5      7     16 
     9      9      7     17      6      8 
    10     10      7     18      6      8 
    11     11      8      9     19      7 
    12     12      8      9     20      7 
    13     13      9     10     21      8 
    14     14      9     10     22      8 
    15     15     10      9      5     23 
    16     16     10      9      5     24 

