LAMMPS data file Created by LigParGen - (Written by Leela S. Dodda)

      24 atoms
      24 bonds
      46 angles
      63 dihedrals
      15 impropers
 
      24 atom types
      24 bond types
      46 angle types
      63 dihedral types
      15 improper types
 
   -5.186570    44.813430 xlo xhi
    0.075870    50.075870 ylo yhi
   -3.445810    46.554190 zlo zhi

Masses

       1     12.011  
       2     12.011  
       3     18.998  
       4     12.011  
       5     15.999  
       6     12.011  
       7     12.011  
       8     12.011  
       9     12.011  
      10     12.011  
      11     15.999  
      12      1.008  
      13      1.008  
      14      1.008  
      15      1.008  
      16      1.008  
      17      1.008  
      18      1.008  
      19      1.008  
      20      1.008  
      21      1.008  
      22      1.008  
      23      1.008  
      24      1.008  

Pair Coeffs 

       1      0.066  3.5000000 
       2      0.066  3.5000000 
       3      0.060  2.9000000 
       4      0.070  3.5500000 
       5      0.210  2.9600000 
       6      0.066  3.5000000 
       7      0.066  3.5000000 
       8      0.066  3.5000000 
       9      0.066  3.5000000 
      10      0.066  3.5000000 
      11      0.140  2.9000000 
      12      0.030  2.5000000 
      13      0.030  2.5000000 
      14      0.030  2.5000000 
      15      0.030  2.5000000 
      16      0.030  2.5000000 
      17      0.030  2.5000000 
      18      0.030  2.5000000 
      19      0.030  2.5000000 
      20      0.030  2.5000000 
      21      0.030  2.5000000 
      22      0.030  2.5000000 
      23      0.030  2.5000000 
      24      0.030  2.5000000 

Bond Coeffs 

       1   268.0000     1.5290 
       2   367.0000     1.3600 
       3   317.0000     1.5220 
       4   570.0000     1.2290 
       5   317.0000     1.5220 
       6   268.0000     1.5290 
       7   268.0000     1.5290 
       8   268.0000     1.5290 
       9   268.0000     1.5290 
      10   320.0000     1.4100 
      11   340.0000     1.0900 
      12   340.0000     1.0900 
      13   340.0000     1.0900 
      14   340.0000     1.0900 
      15   340.0000     1.0900 
      16   340.0000     1.0900 
      17   340.0000     1.0900 
      18   340.0000     1.0900 
      19   340.0000     1.0900 
      20   340.0000     1.0900 
      21   340.0000     1.0900 
      22   340.0000     1.0900 
      23   340.0000     1.0900 
      24   320.0000     1.4100 

Angle Coeffs 

       1     50.000    109.500
       2     63.000    111.100
       3     80.000    120.400
       4     70.000    116.000
       5     63.000    111.100
       6     63.000    111.100
       7     58.350    112.700
       8     58.350    112.700
       9     50.000    109.500
      10     37.500    110.700
      11     37.500    110.700
      12     37.500    110.700
      13     37.500    110.700
      14     37.500    110.700
      15     37.500    110.700
      16     37.500    110.700
      17     37.500    110.700
      18     37.500    110.700
      19     37.500    110.700
      20     37.500    110.700
      21     37.500    110.700
      22     37.500    110.700
      23     80.000    120.400
      24     50.000    109.500
      25     33.000    107.800
      26     40.000    107.000
      27     37.500    110.700
      28     60.000    109.500
      29     33.000    107.800
      30     33.000    107.800
      31     33.000    107.800
      32     50.000    109.500
      33     37.500    110.700
      34     33.000    107.800
      35     35.000    109.500
      36     50.000    109.500
      37     33.000    107.800
      38     58.350    112.700
      39     33.000    107.800
      40     33.000    107.800
      41     37.500    110.700
      42     37.500    110.700
      43     50.000    109.500
      44     33.000    107.800
      45     35.000    109.500
      46     35.000    109.500

Dihedral Coeffs  

       1      0.000      0.000      0.000      0.000 
       2      1.454     -0.144     -0.775      0.000 
       3     -2.060     -0.313      0.315      0.000 
       4      1.300     -0.200      0.200      0.000 
       5      0.000      0.000      0.400      0.000 
       6      0.000      0.000     -0.100      0.000 
       7      0.000      0.000      0.300      0.000 
       8      0.000      0.000      0.300      0.000 
       9      0.000      0.000      0.400      0.000 
      10      0.650     -0.250      0.670      0.000 
      11      0.000      0.000     -0.100      0.000 
      12      0.000      0.000      0.300      0.000 
      13      0.000      0.000      0.300      0.000 
      14      0.000      0.000      0.300      0.000 
      15      1.300     -0.200      0.200      0.000 
      16      0.000      0.000      0.300      0.000 
      17      0.000      0.000      0.300      0.000 
      18      0.000      0.000      0.468      0.000 
      19      0.000      0.000      0.275      0.000 
      20      0.000      0.000      0.300      0.000 
      21      0.000      0.000      0.000      0.000 
      22      0.000      0.000      0.300      0.000 
      23      0.000      0.000      0.300      0.000 
      24      0.000      0.000      0.760      0.000 
      25      0.000      0.000     -0.100      0.000 
      26      0.650     -0.250      0.670      0.000 
      27      0.000      0.000      0.300      0.000 
      28      0.000      0.000      0.000      0.000 
      29      0.000      0.000     -0.100      0.000 
      30      1.711     -0.500      0.663      0.000 
      31      0.000      0.000      0.000      0.000 
      32      0.000      0.000      0.468      0.000 
      33      0.000      0.000      0.760      0.000 
      34      0.000      0.000      0.300      0.000 
      35      0.650     -0.250      0.670      0.000 
      36      0.000      0.000     -0.100      0.000 
      37      0.000      0.000      0.300      0.000 
      38      0.000      0.000      0.300      0.000 
      39      0.000      0.000      0.300      0.000 
      40      0.000      0.000      0.468      0.000 
      41      0.000      0.000      0.000      0.000 
      42      1.711     -0.500      0.663      0.000 
      43      0.000      0.000      0.468      0.000 
      44      1.454     -0.144     -0.775      0.000 
      45      1.711     -0.500      0.663      0.000 
      46      0.000      0.000      0.468      0.000 
      47      0.650     -0.250      0.670      0.000 
      48      0.000      0.000      0.300      0.000 
      49      0.000      0.000      0.400      0.000 
      50      0.000      0.000     -0.100      0.000 
      51      0.000      0.000      0.468      0.000 
      52      0.300     -0.400      0.400      0.000 
      53      0.000      0.000     -0.100      0.000 
      54      0.000      0.000      0.300      0.000 
      55      1.454     -0.144     -0.775      0.000 
      56      0.000      0.000      0.300      0.000 
      57      0.000      0.000      0.468      0.000 
      58      0.000      0.000      0.300      0.000 
      59      0.000      0.000     -0.100      0.000 
      60      0.000      0.000      0.300      0.000 
      61      0.000      0.000      0.000      0.000 
      62      0.000      0.000      0.300      0.000 
      63      0.000      0.000      0.300      0.000 

Improper Coeffs 

       1      0.000      -1       2 
       2     10.500      -1       2 
       3      0.000      -1       2 
       4      0.000      -1       2 
       5      0.000      -1       2 
       6      0.000      -1       2 
       7      0.000      -1       2 
       8      0.000      -1       2 
       9      0.000      -1       2 
      10      0.000      -1       2 
      11      0.000      -1       2 
      12      0.000      -1       2 
      13      0.000      -1       2 
      14      0.000      -1       2 
      15      0.000      -1       2 

Atoms 

     1      1      1 -0.27880000    1.000  1.00000  0.00000
     2      1      2 0.02700000   -0.519  1.00000  0.00000
     3      1      3 -0.15570000   -0.931  1.00000  1.30202
     4      1      4 0.35060000   -1.094  2.18448 -0.76648
     5      1      5 -0.42060000   -0.370  3.02654 -1.31137
     6      1      6 0.08270000   -2.627  2.28891 -0.83199
     7      1      7 -0.25130000   -3.132  3.04765  0.39672
     8      1      8 -0.20060000   -3.058  2.95946 -2.13845
     9      1      9 -0.22090000   -4.419  2.36625 -2.39409
    10      1     10 0.00290000   -4.257  0.95910 -1.86871
    11      1     11 -0.37260000   -3.252  0.99469 -0.84573
    12      1     12 0.10600000    1.378  0.12975  0.54583
    13      1     13 0.10600000    1.388  1.89129  0.50482
    14      1     14 0.10600000    1.401  0.97604 -1.01829
    15      1     15 0.13590000   -0.874  0.07587 -0.46602
    16      1     16 0.10500000   -2.658  4.03062  0.48528
    17      1     17 0.10500000   -2.925  2.48730  1.31505
    18      1     18 0.10500000   -4.218  3.18836  0.36342
    19      1     19 0.12110000   -2.388  2.67287 -2.96032
    20      1     20 0.12110000   -3.069  4.05278 -2.08557
    21      1     21 0.11130000   -4.718  2.39435 -3.44581
    22      1     22 0.11130000   -5.179  2.90155 -1.81369
    23      1     23 0.10180000   -3.907  0.27955 -2.65304
    24      1     24 0.10180000   -5.187  0.56194 -1.45193

Bonds 

     1      1      2      1
     2      2      3      2
     3      3      4      2
     4      4      5      4
     5      5      6      4
     6      6      7      6
     7      7      8      6
     8      8      9      8
     9      9     10      9
    10     10     11      6
    11     11     12      1
    12     12     13      1
    13     13     14      1
    14     14     15      2
    15     15     16      7
    16     16     17      7
    17     17     18      7
    18     18     19      8
    19     19     20      8
    20     20     21      9
    21     21     22      9
    22     22     23     10
    23     23     24     10
    24     24     11     10

Angles 

     1      1      1      2      3
     2      2      1      2      4
     3      3      2      4      5
     4      4      2      4      6
     5      5      4      6      7
     6      6      4      6      8
     7      7      6      8      9
     8      8      8      9     10
     9      9      4      6     11
    10     10      2      1     12
    11     11      2      1     13
    12     12      2      1     14
    13     13      1      2     15
    14     14      6      7     16
    15     15      6      7     17
    16     16      6      7     18
    17     17      6      8     19
    18     18      6      8     20
    19     19      8      9     21
    20     20      8      9     22
    21     21      9     10     23
    22     22      9     10     24
    23     23      5      4      6
    24     24      8      6     11
    25     25     12      1     13
    26     26      3      2     15
    27     27      9      8     20
    28     28      6     11     10
    29     29     16      7     18
    30     30     19      8     20
    31     31     12      1     14
    32     32      7      6     11
    33     33      9      8     19
    34     34     21      9     22
    35     35      4      2     15
    36     36      3      2      4
    37     37     16      7     17
    38     38      7      6      8
    39     39     13      1     14
    40     40     23     10     24
    41     41     10      9     22
    42     42     10      9     21
    43     43      9     10     11
    44     44     17      7     18
    45     45     11     10     23
    46     46     11     10     24

Dihedrals

     1      1      5      4      2      1 
     2      2      7      6      4      2 
     3      3      9      8      6      4 
     4      4     10      9      8      6 
     5      5     12      1      2      3 
     6      6     16      7      6      4 
     7      7     24     10      9     22 
     8      8     15      2      1     14 
     9      9     13      1      2      3 
    10     10     10     11      6      4 
    11     11     13      1      2      4 
    12     12     24     10      9      8 
    13     13     23     10      9     22 
    14     14     20      8      9     10 
    15     15      9      8      6      7 
    16     16     21      9      8     19 
    17     17     22      9      8     20 
    18     18     20      8      6     11 
    19     19     15      2      4      6 
    20     20     21      9      8     20 
    21     21      5      4      2      3 
    22     22     20      8      6      7 
    23     23     23     10      9     21 
    24     24     23     10     11      6 
    25     25     18      7      6      4 
    26     26      9     10     11      6 
    27     27     16      7      6      8 
    28     28     15      2      4      5 
    29     29     19      8      6      4 
    30     30     11      6      4      2 
    31     31      8      6      4      5 
    32     32     19      8      6     11 
    33     33     24     10     11      6 
    34     34     22      9      8     19 
    35     35     10     11      6      7 
    36     36     20      8      6      4 
    37     37     19      8      9     10 
    38     38     22      9      8      6 
    39     39     19      8      6      7 
    40     40     21      9     10     11 
    41     41     11      6      4      5 
    42     42     11      6      8      9 
    43     43     17      7      6     11 
    44     44      6      4      2      1 
    45     45     11     10      9      8 
    46     46     16      7      6     11 
    47     47     10     11      6      8 
    48     48     24     10      9     21 
    49     49     14      1      2      3 
    50     50     12      1      2      4 
    51     51     22      9     10     11 
    52     52      6      4      2      3 
    53     53     17      7      6      4 
    54     54     15      2      1     12 
    55     55      8      6      4      2 
    56     56     18      7      6      8 
    57     57     18      7      6     11 
    58     58     21      9      8      6 
    59     59     14      1      2      4 
    60     60     23     10      9      8 
    61     61      7      6      4      5 
    62     62     15      2      1     13 
    63     63     17      7      6      8 

Impropers

     1      1      2      1      3      4 
     2      2      4      2      5      6 
     3      3      6      4      7      8 
     4      4      6     11      4      7 
     5      5      1      2     12     13 
     6      6      1      2     12     14 
     7      7      2      1      3     15 
     8      8      7     17      6     16 
     9      9      7     18      6     16 
    10     10      8      9     19      6 
    11     11      8      9     20      6 
    12     12      9     10     21      8 
    13     13      9     10     22      8 
    14     14     10      9     11     23 
    15     15     10      9     11     24 

