LAMMPS data file Created by LigParGen - (Written by Leela S. Dodda)

      15 atoms
      15 bonds
      22 angles
      24 dihedrals
       6 impropers
 
      15 atom types
      15 bond types
      22 angle types
      24 dihedral types
       6 improper types
 
   -5.562310    44.437690 xlo xhi
   -0.056140    49.943860 ylo yhi
   -3.530020    46.469980 zlo zhi

Masses

       1     12.011  
       2     12.011  
       3     12.011  
       4     12.011  
       5     12.011  
       6     15.999  
       7     12.011  
       8     12.011  
       9     32.060  
      10      1.008  
      11      1.008  
      12      1.008  
      13      1.008  
      14      1.008  
      15      1.008  

Pair Coeffs 

       1      0.066  3.3000000 
       2      0.066  3.3000000 
       3      0.070  3.5500000 
       4      0.070  3.5500000 
       5      0.070  3.5500000 
       6      0.140  2.9000000 
       7      0.066  3.5000000 
       8      0.070  3.5500000 
       9      0.355  3.6000000 
      10      0.030  2.5000000 
      11      0.030  2.4200000 
      12      0.030  2.5000000 
      13      0.030  2.5000000 
      14      0.030  2.5000000 
      15      0.030  2.4200000 

Bond Coeffs 

       1  1150.0000     1.2100 
       2   335.5300     1.3100 
       3   546.0000     1.3670 
       4   469.0000     1.4240 
       5   450.0000     1.3640 
       6   320.0000     1.4100 
       7   546.0000     1.3670 
       8   250.0000     1.7400 
       9   420.0000     1.0800 
      10   367.0000     1.0800 
      11   340.0000     1.0900 
      12   340.0000     1.0900 
      13   340.0000     1.0900 
      14   367.0000     1.0800 
      15   250.0000     1.7400 

Angle Coeffs 

       1    110.470    156.000
       2     70.000    111.170
       3     70.000    107.300
       4     70.000    120.000
       5     75.000    111.000
       6     70.000    107.300
       7     70.000    111.170
       8    112.000    180.000
       9     35.000    125.700
      10     35.000    109.500
      11     35.000    109.500
      12     35.000    109.500
      13     35.000    132.100
      14     33.000    107.800
      15     33.000    107.800
      16     70.000    111.170
      17     74.000     97.000
      18     70.000    111.170
      19     35.000    125.000
      20     62.750    119.200
      21     35.000    127.500
      22     33.000    107.800

Dihedral Coeffs  

       1      0.000      0.000      0.000      0.000 
       2      0.000      2.170      0.000      0.000 
       3      0.000      2.170      0.000      0.000 
       4      0.650     -0.250      0.670      0.000 
       5      0.000      0.000      0.000      0.000 
       6      0.000      0.000      0.760      0.000 
       7      0.000      2.100      0.000      0.000 
       8      0.000      7.250      0.000      0.000 
       9      0.000      2.170      0.000      0.000 
      10      0.000      0.000      0.000      0.000 
      11      0.000      0.000      0.000      0.000 
      12      0.000      0.000      0.000      0.000 
      13      0.650     -0.250      0.670      0.000 
      14      0.000      0.000      0.000      0.000 
      15      0.000      7.250      0.000      0.000 
      16      0.000      7.250      0.000      0.000 
      17      0.000      7.250      0.000      0.000 
      18      0.000      7.250      0.000      0.000 
      19      0.000      7.250      0.000      0.000 
      20      0.000      0.000      0.760      0.000 
      21      0.000      2.170      0.000      0.000 
      22      0.000      2.100      0.000      0.000 
      23      0.000      0.000      0.760      0.000 
      24      0.000      2.170      0.000      0.000 

Improper Coeffs 

       1      2.500      -1       2 
       2      2.500      -1       2 
       3      2.500      -1       2 
       4      0.000      -1       2 
       5      0.000      -1       2 
       6      2.500      -1       2 

Atoms 

     1      1      1 -0.20410000    1.000  1.00000  0.00000
     2      1      2 -0.12600000   -0.200  1.00000  0.00000
     3      1      3 -0.03770000   -1.628  1.00000  0.00180
     4      1      4 -0.18590000   -2.428  0.94823 -1.12250
     5      1      5 0.11230000   -3.817  0.96179 -0.78952
     6      1      6 -0.27140000   -4.903  0.92250 -1.60208
     7      1      7 -0.05620000   -4.611  0.85835 -2.99043
     8      1      8 -0.29450000   -4.015  1.02637  0.57032
     9      1      9 0.12650000   -2.545  1.06797  1.44096
    10      1     10 0.26190000    2.065  1.00000  0.00135
    11      1     11 0.18500000   -2.023  0.90213 -2.12523
    12      1     12 0.09440000   -5.562  0.83062 -3.53002
    13      1     13 0.09440000   -4.061 -0.05614 -3.23721
    14      1     14 0.09440000   -4.066  1.74917 -3.32054
    15      1     15 0.20700000   -4.959  1.05228  1.09603

Bonds 

     1      1      2      1
     2      2      3      2
     3      3      4      3
     4      4      5      4
     5      5      6      5
     6      6      7      6
     7      7      8      5
     8      8      9      3
     9      9     10      1
    10     10     11      4
    11     11     12      7
    12     12     13      7
    13     13     14      7
    14     14     15      8
    15     15      9      8

Angles 

     1      1      1      2      3
     2      2      2      3      4
     3      3      3      4      5
     4      4      4      5      6
     5      5      5      6      7
     6      6      4      5      8
     7      7      2      3      9
     8      8      2      1     10
     9      9      3      4     11
    10     10      6      7     12
    11     11      6      7     13
    12     12      6      7     14
    13     13      5      8     15
    14     14     12      7     14
    15     15     13      7     14
    16     16      5      8      9
    17     17      3      9      8
    18     18      4      3      9
    19     19      9      8     15
    20     20      6      5      8
    21     21      5      4     11
    22     22     12      7     13

Dihedrals

     1      1      4      3      2      1 
     2      2      5      4      3      2 
     3      3      6      5      4      3 
     4      4      7      6      5      4 
     5      5     10      1      2      3 
     6      6     12      7      6      5 
     7      7      9      8      5      4 
     8      8     11      4      3      9 
     9      9      9      8      5      6 
    10     10      9      3      2      1 
    11     11      5      8      9      3 
    12     12      8      9      3      2 
    13     13      8      5      6      7 
    14     14      8      9      3      4 
    15     15     15      8      5      4 
    16     16     11      4      3      2 
    17     17     15      8      9      3 
    18     18     11      4      5      8 
    19     19     15      8      5      6 
    20     20     13      7      6      5 
    21     21      8      5      4      3 
    22     22      9      3      4      5 
    23     23     14      7      6      5 
    24     24     11      4      5      6 

Impropers

     1      1      5      4      6      8 
     2      2      3      9      2      4 
     3      3      4     11      5      3 
     4      4      7     12     13      6 
     5      5      7     12     14      6 
     6      6      8      9      5     15 

