LAMMPS data file Created by LigParGen - (Written by Leela S. Dodda)

      28 atoms
      29 bonds
      58 angles
      96 dihedrals
      17 impropers
 
      28 atom types
      29 bond types
      58 angle types
      96 dihedral types
      17 improper types
 
   -4.186550    45.813450 xlo xhi
   -2.403920    47.596080 ylo yhi
   -3.614180    46.385820 zlo zhi

Masses

       1     12.011  
       2     12.011  
       3     12.011  
       4     15.999  
       5     12.011  
       6     12.011  
       7     14.007  
       8     12.011  
       9     12.011  
      10     12.011  
      11     12.011  
      12     12.011  
      13     12.011  
      14      1.008  
      15      1.008  
      16      1.008  
      17      1.008  
      18      1.008  
      19      1.008  
      20      1.008  
      21      1.008  
      22      1.008  
      23      1.008  
      24      1.008  
      25      1.008  
      26      1.008  
      27      1.008  
      28      1.008  

Pair Coeffs 

       1      0.066  3.5000000 
       2      0.066  3.5000000 
       3      0.070  3.5500000 
       4      0.210  2.9600000 
       5      0.066  3.5000000 
       6      0.066  3.3000000 
       7      0.170  3.2000000 
       8      0.066  3.5000000 
       9      0.066  3.5000000 
      10      0.066  3.5000000 
      11      0.066  3.5000000 
      12      0.066  3.5000000 
      13      0.066  3.5000000 
      14      0.030  2.5000000 
      15      0.030  2.5000000 
      16      0.030  2.5000000 
      17      0.030  2.5000000 
      18      0.030  2.5000000 
      19      0.030  2.5000000 
      20      0.030  2.5000000 
      21      0.030  2.5000000 
      22      0.030  2.5000000 
      23      0.030  2.5000000 
      24      0.030  2.5000000 
      25      0.030  2.5000000 
      26      0.030  2.5000000 
      27      0.030  2.5000000 
      28      0.030  2.5000000 

Bond Coeffs 

       1   268.0000     1.5290 
       2   317.0000     1.5220 
       3   570.0000     1.2290 
       4   317.0000     1.5220 
       5   390.0000     1.4700 
       6   650.0000     1.1570 
       7   268.0000     1.5290 
       8   268.0000     1.5290 
       9   268.0000     1.5290 
      10   268.0000     1.5290 
      11   268.0000     1.5290 
      12   268.0000     1.5290 
      13   340.0000     1.0900 
      14   340.0000     1.0900 
      15   340.0000     1.0900 
      16   340.0000     1.0900 
      17   340.0000     1.0900 
      18   340.0000     1.0900 
      19   340.0000     1.0900 
      20   340.0000     1.0900 
      21   340.0000     1.0900 
      22   340.0000     1.0900 
      23   340.0000     1.0900 
      24   340.0000     1.0900 
      25   340.0000     1.0900 
      26   340.0000     1.0900 
      27   340.0000     1.0900 
      28   268.0000     1.5290 
      29   268.0000     1.5290 

Angle Coeffs 

       1     63.000    111.100
       2     80.000    120.400
       3     70.000    116.000
       4     51.650    110.580
       5    150.000    180.000
       6     63.000    111.100
       7     58.350    112.700
       8     58.350    112.700
       9     58.350    112.700
      10     58.350    112.700
      11     58.350    112.700
      12     37.500    110.700
      13     37.500    110.700
      14     37.500    110.700
      15     37.500    110.700
      16     35.000    109.500
      17     37.500    110.700
      18     37.500    110.700
      19     37.500    110.700
      20     37.500    110.700
      21     37.500    110.700
      22     37.500    110.700
      23     37.500    110.700
      24     37.500    110.700
      25     37.500    110.700
      26     37.500    110.700
      27     37.500    110.700
      28     58.350    112.700
      29     37.500    110.700
      30     58.350    112.700
      31     33.000    107.800
      32     37.500    110.700
      33     33.000    107.800
      34     58.350    112.700
      35     37.500    110.700
      36     33.000    107.800
      37     58.350    112.700
      38     33.000    107.800
      39     80.000    120.400
      40     33.000    107.800
      41     37.500    110.700
      42     35.000    109.500
      43     58.350    112.700
      44     33.000    107.800
      45     37.500    110.700
      46     58.350    112.700
      47     63.000    111.100
      48     37.500    110.700
      49     37.500    110.700
      50     37.500    110.700
      51     33.000    107.800
      52     58.350    112.700
      53     37.500    110.700
      54     37.500    110.700
      55     37.500    110.700
      56     37.500    110.700
      57     37.500    110.700
      58     35.000    108.500

Dihedral Coeffs  

       1      0.000      0.000      0.000      0.000 
       2      1.454     -0.144     -0.775      0.000 
       3      0.000      0.000      0.000      0.000 
       4     -2.060     -0.313      0.315      0.000 
       5      1.300     -0.200      0.200      0.000 
       6      1.300     -0.200      0.200      0.000 
       7      1.300     -0.200      0.200      0.000 
       8      0.000      0.000     -0.100      0.000 
       9     -2.060     -0.313      0.315      0.000 
      10      0.000      0.000      0.300      0.000 
      11      1.454     -0.144     -0.775      0.000 
      12      0.000      0.000      0.300      0.000 
      13      0.000      0.000      0.000      0.000 
      14      0.000      0.000      0.300      0.000 
      15      0.000      0.000      0.300      0.000 
      16      0.000      0.000      0.300      0.000 
      17      0.000      0.000      0.300      0.000 
      18      0.000      0.000      0.300      0.000 
      19      0.000      0.000      0.366      0.000 
      20      0.000      0.000      0.300      0.000 
      21      0.000      0.000      0.000      0.000 
      22      0.000      0.000      0.300      0.000 
      23      1.300     -0.200      0.200      0.000 
      24      1.300     -0.200      0.200      0.000 
      25      0.000      0.000      0.300      0.000 
      26      0.000      0.000      0.300      0.000 
      27      1.300     -0.200      0.200      0.000 
      28      0.000      0.000      0.300      0.000 
      29      0.000      0.000      0.300      0.000 
      30      0.000      0.000      0.300      0.000 
      31      0.000      0.000      0.300      0.000 
      32      0.000      0.000      0.300      0.000 
      33      1.300     -0.200      0.200      0.000 
      34      0.000      0.000     -0.100      0.000 
      35      0.000      0.000      0.300      0.000 
      36      0.000      0.000      0.000      0.000 
      37      0.000      0.000     -0.100      0.000 
      38      1.300     -0.200      0.200      0.000 
      39      0.000      0.000      0.300      0.000 
      40      0.000      0.000      0.300      0.000 
      41      0.000      0.000     -0.100      0.000 
      42      0.000      0.000      0.300      0.000 
      43      0.000      0.000      0.300      0.000 
      44      0.000      0.000      0.000      0.000 
      45      0.000      0.000      0.300      0.000 
      46      0.000      0.000      0.300      0.000 
      47      0.000      0.000      0.300      0.000 
      48      0.000     -0.650      0.000      0.000 
      49      0.000      0.000      0.300      0.000 
      50      0.000      0.000      0.300      0.000 
      51      0.000      0.000      0.366      0.000 
      52      0.000      0.000      0.300      0.000 
      53      1.300     -0.200      0.200      0.000 
      54      1.300     -0.200      0.200      0.000 
      55      1.300     -0.200      0.200      0.000 
      56      0.000      0.000      0.300      0.000 
      57      0.000      0.000      0.300      0.000 
      58      0.000      0.000      0.300      0.000 
      59      0.000      0.000      0.300      0.000 
      60      0.000      0.000      0.300      0.000 
      61      0.000      0.000      0.300      0.000 
      62      0.000      0.000      0.300      0.000 
      63      0.000      0.000      0.300      0.000 
      64      0.000      0.000      0.300      0.000 
      65      0.000      0.000      0.000      0.000 
      66      1.300     -0.200      0.200      0.000 
      67      0.000      0.000      0.300      0.000 
      68      0.000      0.000      0.300      0.000 
      69      1.300     -0.200      0.200      0.000 
      70      0.000      0.000     -0.100      0.000 
      71      0.000      0.000      0.300      0.000 
      72      0.000      0.000      0.300      0.000 
      73      0.000      0.000      0.300      0.000 
      74      0.000      0.000      0.300      0.000 
      75      1.300     -0.200      0.200      0.000 
      76      0.000      0.000      0.000      0.000 
      77      1.454     -0.144     -0.775      0.000 
      78      0.000      0.000      0.300      0.000 
      79      0.000      0.000      0.000      0.000 
      80      0.000      0.000      0.300      0.000 
      81      0.000      0.000      0.300      0.000 
      82      0.000      0.000      0.275      0.000 
      83      0.000      0.000      0.300      0.000 
      84      0.000      0.000      0.300      0.000 
      85      0.000      0.000      0.300      0.000 
      86      0.000      0.000      0.300      0.000 
      87      0.000      0.000      0.300      0.000 
      88      1.454     -0.144     -0.775      0.000 
      89      0.000      0.000      0.275      0.000 
      90      0.000      0.000      0.300      0.000 
      91      0.000      0.000      0.300      0.000 
      92      0.000      0.000      0.300      0.000 
      93      0.000      0.000      0.300      0.000 
      94      0.000      0.000     -0.100      0.000 
      95      0.000      0.000      0.300      0.000 
      96     -2.060     -0.313      0.315      0.000 

Improper Coeffs 

       1     10.500      -1       2 
       2      0.000      -1       2 
       3      0.000      -1       2 
       4      0.000      -1       2 
       5      0.000      -1       2 
       6      0.000      -1       2 
       7      0.000      -1       2 
       8      0.000      -1       2 
       9      0.000      -1       2 
      10      0.000      -1       2 
      11      0.000      -1       2 
      12      0.000      -1       2 
      13      0.000      -1       2 
      14      0.000      -1       2 
      15      0.000      -1       2 
      16      0.000      -1       2 
      17      0.000      -1       2 

Atoms 

     1      1      1 -0.22960000    1.000  1.00000  0.00000
     2      1      2 -0.14380000   -0.525  1.00000  0.00000
     3      1      3 0.37190000   -1.099  1.00000  1.43286
     4      1      4 -0.42130000   -0.388  1.06545  2.43490
     5      1      5 -0.02310000   -2.619  0.91529  1.55418
     6      1      6 0.13500000   -3.173  2.12799  0.82418
     7      1      7 -0.37830000   -3.631  3.13468  0.21848
     8      1      8 -0.15970000   -3.093 -0.34897  0.79932
     9      1      9 -0.13770000   -2.611 -0.28618 -0.65466
    10      1     10 -0.17150000   -2.968 -1.43728 -1.57844
    11      1     11 -0.18380000   -1.977 -1.26777 -2.74149
    12      1     12 -0.17410000   -0.858 -0.33853 -2.23393
    13      1     13 -0.11880000   -1.099 -0.21582 -0.73292
    14      1     14 0.09550000    1.388  1.83667  0.59156
    15      1     15 0.09550000    1.389  1.10526 -1.01798
    16      1     16 0.09550000    1.399  0.07588  0.43062
    17      1     17 0.13670000   -0.848  1.92950 -0.48323
    18      1     18 0.17180000   -2.926  0.90408  2.60326
    19      1     19 0.11440000   -4.187 -0.41909  0.82281
    20      1     20 0.11440000   -2.694 -1.24542  1.29006
    21      1     21 0.11540000   -3.015  0.61986 -1.12857
    22      1     22 0.09870000   -4.006 -1.38747 -1.92014
    23      1     23 0.09870000   -2.814 -2.40392 -1.08728
    24      1     24 0.09680000   -2.469 -0.82093 -3.61418
    25      1     25 0.09680000   -1.578 -2.23800 -3.04933
    26      1     26 0.09830000   -0.944  0.64058 -2.71876
    27      1     27 0.09830000    0.136 -0.73748 -2.46018
    28      1     28 0.10810000   -0.684 -1.12861 -0.28429

Bonds 

     1      1      2      1
     2      2      3      2
     3      3      4      3
     4      4      5      3
     5      5      6      5
     6      6      7      6
     7      7      8      5
     8      8      9      8
     9      9     10      9
    10     10     11     10
    11     11     12     11
    12     12     13      2
    13     13     14      1
    14     14     15      1
    15     15     16      1
    16     16     17      2
    17     17     18      5
    18     18     19      8
    19     19     20      8
    20     20     21      9
    21     21     22     10
    22     22     23     10
    23     23     24     11
    24     24     25     11
    25     25     26     12
    26     26     27     12
    27     27     28     13
    28     28     13      9
    29     29     13     12

Angles 

     1      1      1      2      3
     2      2      2      3      4
     3      3      2      3      5
     4      4      3      5      6
     5      5      5      6      7
     6      6      3      5      8
     7      7      5      8      9
     8      8      8      9     10
     9      9      9     10     11
    10     10     10     11     12
    11     11      1      2     13
    12     12      2      1     14
    13     13      2      1     15
    14     14      2      1     16
    15     15      1      2     17
    16     16      3      5     18
    17     17      5      8     19
    18     18      5      8     20
    19     19      8      9     21
    20     20      9     10     22
    21     21      9     10     23
    22     22     10     11     24
    23     23     10     11     25
    24     24     11     12     26
    25     25     11     12     27
    26     26      2     13     28
    27     27      9     13     28
    28     28      2     13     12
    29     29     12     11     24
    30     30      9     13     12
    31     31     26     12     27
    32     32     12     11     25
    33     33     24     11     25
    34     34     10      9     13
    35     35      9      8     20
    36     36     22     10     23
    37     37      8      9     13
    38     38     19      8     20
    39     39      4      3      5
    40     40     14      1     15
    41     41     13      2     17
    42     42      3      2     17
    43     43      2     13      9
    44     44     15      1     16
    45     45     11     10     22
    46     46      6      5      8
    47     47      3      2     13
    48     48     12     13     28
    49     49     13      9     21
    50     50     10      9     21
    51     51     14      1     16
    52     52     11     12     13
    53     53      8      5     18
    54     54      9      8     19
    55     55     11     10     23
    56     56     13     12     26
    57     57     13     12     27
    58     58      6      5     18

Dihedrals

     1      1      4      3      2      1 
     2      2      6      5      3      2 
     3      3      7      6      5      3 
     4      4      9      8      5      3 
     5      5     10      9      8      5 
     6      6     11     10      9      8 
     7      7     12     11     10      9 
     8      8     14      1      2      3 
     9      9     12     13      2      3 
    10     10     21      9      8     19 
    11     11      8      5      3      2 
    12     12     25     11     12     13 
    13     13      8      5      3      4 
    14     14     18      5      8      9 
    15     15     20      8      5     18 
    16     16     26     12     11     25 
    17     17     27     12     11     24 
    18     18     19      8      9     10 
    19     19     20      8      5      6 
    20     20     22     10      9     13 
    21     21     13      2      3      4 
    22     22     20      8      9     13 
    23     23     12     13      9      8 
    24     24     13      9      8      5 
    25     25     24     11     12     13 
    26     26     28     13      2     17 
    27     27      9     13      2      1 
    28     28     27     12     13      2 
    29     29     17      2      1     16 
    30     30     27     12     13      9 
    31     31     28     13     12     27 
    32     32     24     11     10     22 
    33     33      8      9     13      2 
    34     34     28     13      2      3 
    35     35     14      1      2     13 
    36     36      6      5      3      4 
    37     37     19      8      5      3 
    38     38     11     12     13      2 
    39     39     25     11     10     23 
    40     40     17      2      1     15 
    41     41     20      8      5      3 
    42     42     26     12     13      2 
    43     43     23     10     11     12 
    44     44     17      2      3      4 
    45     45     23     10      9      8 
    46     46     26     12     11     24 
    47     47     23     10      9     21 
    48     48      9      8      5      6 
    49     49     26     12     13      9 
    50     50     20      8      9     10 
    51     51     19      8      5      6 
    52     52     21      9      8     20 
    53     53     10      9     13      2 
    54     54     12     13      2      1 
    55     55     11     12     13      9 
    56     56     26     12     11     10 
    57     57     17      2     13     12 
    58     58     19      8      5     18 
    59     59     28     13      9     10 
    60     60     21      9     13     12 
    61     61     21      9     10     11 
    62     62     24     11     10     23 
    63     63     25     11     10     22 
    64     64     24     11     10      9 
    65     65     18      5      3      4 
    66     66     12     13      9     10 
    67     67     27     12     11     10 
    68     68     19      8      9     13 
    69     69     13     12     11     10 
    70     70     15      1      2      3 
    71     71     23     10      9     13 
    72     72     15      1      2     13 
    73     73     28     13      2      1 
    74     74     25     11     10      9 
    75     75     13      9     10     11 
    76     76     18      5      6      7 
    77     77      5      3      2      1 
    78     78     21      9      8      5 
    79     79      8      5      6      7 
    80     80     28     13      9      8 
    81     81     17      2     13      9 
    82     82     18      5      3      2 
    83     83     16      1      2     13 
    84     84     21      9     13      2 
    85     85     28     13     12     26 
    86     86     28     13     12     11 
    87     87     22     10      9      8 
    88     88     13      2      3      5 
    89     89     17      2      3      5 
    90     90     22     10     11     12 
    91     91     28     13      9     21 
    92     92     27     12     11     25 
    93     93     22     10      9     21 
    94     94     16      1      2      3 
    95     95     17      2      1     14 
    96     96      9     13      2      3 

Impropers

     1      1      3      2      4      5 
     2      2      5      3      6      8 
     3      3      2      1      3     13 
     4      4      1      2     14     15 
     5      5      1      2     14     16 
     6      6      2     17      3      1 
     7      7      5     18      3      6 
     8      8      8      9     19      5 
     9      9      8      9     20      5 
    10     10      9     10     21      8 
    11     11     10      9     11     22 
    12     12     10      9     11     23 
    13     13     11     10     12     24 
    14     14     11     25     10     12 
    15     15     12     26     11     13 
    16     16     12     27     13     11 
    17     17     13      9      2     28 

