LAMMPS data file Created by LigParGen - (Written by Leela S. Dodda)

      28 atoms
      27 bonds
      49 angles
      61 dihedrals
      16 impropers
 
      28 atom types
      27 bond types
      49 angle types
      61 dihedral types
      16 improper types
 
   -4.348760    45.651240 xlo xhi
   -1.090530    48.909470 ylo yhi
   -1.027870    48.972130 zlo zhi

Masses

       1     12.011  
       2     12.011  
       3     12.011  
       4     12.011  
       5     12.011  
       6     12.011  
       7     12.011  
       8     15.999  
       9     15.999  
      10     12.011  
      11     12.011  
      12     15.999  
      13      1.008  
      14      1.008  
      15      1.008  
      16      1.008  
      17      1.008  
      18      1.008  
      19      1.008  
      20      1.008  
      21      1.008  
      22      1.008  
      23      1.008  
      24      1.008  
      25      1.008  
      26      1.008  
      27      1.008  
      28      1.008  

Pair Coeffs 

       1      0.066  3.5000000 
       2      0.066  3.5000000 
       3      0.066  3.5000000 
       4      0.066  3.5000000 
       5      0.066  3.5000000 
       6      0.066  3.5000000 
       7      0.070  3.5500000 
       8      0.210  2.9600000 
       9      0.140  2.9000000 
      10      0.070  3.5500000 
      11      0.066  3.5000000 
      12      0.210  2.9600000 
      13      0.030  2.5000000 
      14      0.030  2.5000000 
      15      0.030  2.5000000 
      16      0.030  2.5000000 
      17      0.030  2.5000000 
      18      0.030  2.5000000 
      19      0.030  2.5000000 
      20      0.030  2.5000000 
      21      0.030  2.5000000 
      22      0.030  2.5000000 
      23      0.030  2.5000000 
      24      0.030  2.5000000 
      25      0.030  2.5000000 
      26      0.030  2.5000000 
      27      0.030  2.5000000 
      28      0.030  2.5000000 

Bond Coeffs 

       1   268.0000     1.5290 
       2   268.0000     1.5290 
       3   268.0000     1.5290 
       4   268.0000     1.5290 
       5   268.0000     1.5290 
       6   317.0000     1.5220 
       7   570.0000     1.2290 
       8   214.0000     1.3270 
       9   214.0000     1.3270 
      10   317.0000     1.5220 
      11   570.0000     1.2290 
      12   340.0000     1.0900 
      13   340.0000     1.0900 
      14   340.0000     1.0900 
      15   340.0000     1.0900 
      16   340.0000     1.0900 
      17   340.0000     1.0900 
      18   340.0000     1.0900 
      19   340.0000     1.0900 
      20   340.0000     1.0900 
      21   340.0000     1.0900 
      22   340.0000     1.0900 
      23   340.0000     1.0900 
      24   340.0000     1.0900 
      25   340.0000     1.0900 
      26   340.0000     1.0900 
      27   340.0000     1.0900 

Angle Coeffs 

       1     58.350    112.700
       2     58.350    112.700
       3     58.350    112.700
       4     58.350    112.700
       5     63.000    111.100
       6     80.000    120.400
       7     81.000    111.400
       8     69.510    114.540
       9     81.000    111.400
      10     83.000    123.400
      11     37.500    110.700
      12     37.500    110.700
      13     37.500    110.700
      14     37.500    110.700
      15     37.500    110.700
      16     37.500    110.700
      17     37.500    110.700
      18     37.500    110.700
      19     37.500    110.700
      20     37.500    110.700
      21     37.500    110.700
      22     37.500    110.700
      23     37.500    110.700
      24     35.000    109.500
      25     35.000    109.500
      26     35.000    109.500
      27     80.000    120.400
      28     58.350    112.700
      29     35.000    109.500
      30     33.000    107.800
      31     33.000    107.800
      32     37.500    110.700
      33     33.000    107.800
      34     37.500    110.700
      35     35.000    109.500
      36     37.500    110.700
      37     33.000    107.800
      38     83.000    123.400
      39     37.500    110.700
      40     33.000    107.800
      41     33.000    107.800
      42     37.500    110.700
      43     33.000    107.800
      44     33.000    107.800
      45     33.000    107.800
      46     33.000    107.800
      47     33.000    107.800
      48     33.000    107.800
      49     37.500    110.700

Dihedral Coeffs  

       1      1.300     -0.200      0.200      0.000 
       2      1.300     -0.200      0.200      0.000 
       3     -2.060     -0.313      0.315      0.000 
       4      0.000      0.000      0.000      0.000 
       5      4.669      5.124      0.000      0.000 
       6      4.669      5.124      0.000      0.000 
       7      0.000      0.000      0.300      0.000 
       8      0.000      0.000      0.300      0.000 
       9      0.000      0.000      0.132      0.000 
      10      0.000      0.000      0.300      0.000 
      11      0.000      0.000      0.300      0.000 
      12      0.000      0.000     -0.100      0.000 
      13      0.000      0.000      0.000      0.000 
      14      0.000      0.000      0.300      0.000 
      15      0.000      0.000      0.300      0.000 
      16      0.000      0.000      0.300      0.000 
      17      0.000      0.000      0.300      0.000 
      18      0.000      0.000      0.300      0.000 
      19      0.000      0.000      0.300      0.000 
      20      0.000      0.000      0.000      0.000 
      21      0.000      0.000      0.300      0.000 
      22      0.000      0.000      0.300      0.000 
      23      0.000      0.000      0.300      0.000 
      24      1.300     -0.200      0.200      0.000 
      25      0.000      0.000      0.132      0.000 
      26      0.000      0.000      0.000      0.000 
      27      0.000      0.000      0.300      0.000 
      28      0.000      0.000      0.300      0.000 
      29      0.000      0.000      0.132      0.000 
      30      0.000      0.000      0.300      0.000 
      31      0.000      0.000      0.300      0.000 
      32      0.000      0.000      0.300      0.000 
      33      0.000      0.000      0.300      0.000 
      34      0.000      0.000      0.300      0.000 
      35      0.000      0.000      0.300      0.000 
      36      0.000      0.000      0.300      0.000 
      37      0.000      0.000      0.300      0.000 
      38      0.000      0.000      0.132      0.000 
      39      0.000      5.124      0.000      0.000 
      40      0.000      0.000      0.300      0.000 
      41      0.000      0.000      0.300      0.000 
      42      0.000      0.000      0.300      0.000 
      43      0.000      0.000      0.300      0.000 
      44      0.000      0.000      0.300      0.000 
      45      0.000      0.000      0.300      0.000 
      46      0.000      0.000      0.000      0.000 
      47      0.000      0.000      0.132      0.000 
      48      0.000      0.000      0.300      0.000 
      49      0.000      0.000      0.300      0.000 
      50      0.000      0.000      0.300      0.000 
      51      0.000      0.000      0.300      0.000 
      52      0.000      0.000      0.300      0.000 
      53      0.000      0.000      0.300      0.000 
      54      0.000      0.000      0.300      0.000 
      55      0.000      0.000      0.300      0.000 
      56      0.000      0.000     -0.553      0.000 
      57      0.000      0.000      0.300      0.000 
      58      0.000      5.124      0.000      0.000 
      59      0.000      0.000      0.300      0.000 
      60     -2.060     -0.313      0.315      0.000 
      61      0.000      0.000      0.000      0.000 

Improper Coeffs 

       1      0.000      -1       2 
       2     10.500      -1       2 
       3     10.500      -1       2 
       4      0.000      -1       2 
       5      0.000      -1       2 
       6      0.000      -1       2 
       7      0.000      -1       2 
       8      0.000      -1       2 
       9      0.000      -1       2 
      10      0.000      -1       2 
      11      0.000      -1       2 
      12      0.000      -1       2 
      13      0.000      -1       2 
      14      0.000      -1       2 
      15      0.000      -1       2 
      16      0.000      -1       2 

Atoms 

     1      1      1 -0.24010000    1.000  1.00000  0.00000
     2      1      2 -0.17820000   -0.521  1.00000  0.00000
     3      1      3 -0.17740000   -1.078  1.00000  1.42529
     4      1      4 -0.10810000   -2.619  1.06515  1.47754
     5      1      5 -0.23670000   -3.260 -0.16071  0.81737
     6      1      6 -0.18800000   -3.111  1.17617  2.93165
     7      1      7 0.46570000   -2.677  2.45765  3.60893
     8      1      8 -0.43150000   -1.991  2.48937  4.62109
     9      1      9 -0.35630000   -3.207  3.52690  2.96479
    10      1     10 0.45380000   -2.892  4.73781  3.47762
    11      1     11 -0.29230000   -1.427  5.07092  3.55057
    12      1     12 -0.37670000   -3.759  5.57276  3.71395
    13      1     13 0.08320000    1.376  0.99870 -1.02787
    14      1     14 0.08320000    1.390  0.11082  0.50570
    15      1     15 0.08320000    1.393  1.88738  0.50576
    16      1     16 0.09130000   -0.864  0.11618 -0.54701
    17      1     17 0.09130000   -0.881  1.88414 -0.53863
    18      1     18 0.09190000   -0.659  1.86462  1.95455
    19      1     19 0.09190000   -0.728  0.10552  1.95608
    20      1     20 0.11770000   -2.946  1.95298  0.92123
    21      1     21 0.08810000   -2.883 -1.09053  1.25626
    22      1     22 0.08810000   -3.057 -0.18356 -0.25774
    23      1     23 0.08810000   -4.349 -0.14594  0.93834
    24      1     24 0.13680000   -2.741  0.33141  3.52465
    25      1     25 0.13680000   -4.207  1.13834  2.97990
    26      1     26 0.13130000   -0.803  4.28126  3.12581
    27      1     27 0.13130000   -1.142  5.24059  4.59155
    28      1     28 0.13130000   -1.249  5.97488  2.96002

Bonds 

     1      1      2      1
     2      2      3      2
     3      3      4      3
     4      4      5      4
     5      5      6      4
     6      6      7      6
     7      7      8      7
     8      8      9      7
     9      9     10      9
    10     10     11     10
    11     11     12     10
    12     12     13      1
    13     13     14      1
    14     14     15      1
    15     15     16      2
    16     16     17      2
    17     17     18      3
    18     18     19      3
    19     19     20      4
    20     20     21      5
    21     21     22      5
    22     22     23      5
    23     23     24      6
    24     24     25      6
    25     25     26     11
    26     26     27     11
    27     27     28     11

Angles 

     1      1      1      2      3
     2      2      2      3      4
     3      3      3      4      5
     4      4      3      4      6
     5      5      4      6      7
     6      6      6      7      8
     7      7      6      7      9
     8      8      7      9     10
     9      9      9     10     11
    10     10      9     10     12
    11     11      2      1     13
    12     12      2      1     14
    13     13      2      1     15
    14     14      1      2     16
    15     15      1      2     17
    16     16      2      3     18
    17     17      2      3     19
    18     18      3      4     20
    19     19      4      5     21
    20     20      4      5     22
    21     21      4      5     23
    22     22      4      6     24
    23     23      4      6     25
    24     24     10     11     26
    25     25     10     11     27
    26     26     10     11     28
    27     27     11     10     12
    28     28      5      4      6
    29     29      7      6     24
    30     30     13      1     14
    31     31     22      5     23
    32     32      6      4     20
    33     33     21      5     22
    34     34      3      2     17
    35     35      7      6     25
    36     36      4      3     19
    37     37     26     11     28
    38     38      8      7      9
    39     39      3      2     16
    40     40     16      2     17
    41     41     14      1     15
    42     42      5      4     20
    43     43     27     11     28
    44     44     21      5     23
    45     45     24      6     25
    46     46     26     11     27
    47     47     18      3     19
    48     48     13      1     15
    49     49      4      3     18

Dihedrals

     1      1      4      3      2      1 
     2      2      5      4      3      2 
     3      3      7      6      4      3 
     4      4      8      7      6      4 
     5      5     10      9      7      6 
     6      6     11     10      9      7 
     7      7     13      1      2      3 
     8      8     21      5      4      3 
     9      9     26     11     10      9 
    10     10     16      2      3      4 
    11     11     19      3      4      6 
    12     12     20      4      6      7 
    13     13     27     11     10     12 
    14     14     18      3      2      1 
    15     15     24      6      4      3 
    16     16     19      3      2      1 
    17     17     17      2      3      4 
    18     18     19      3      2     16 
    19     19     23      5      4      3 
    20     20     26     11     10     12 
    21     21     18      3      4      5 
    22     22     21      5      4     20 
    23     23     23      5      4      6 
    24     24      6      4      3      2 
    25     25     27     11     10      9 
    26     26     28     11     10     12 
    27     27     24      6      4     20 
    28     28     23      5      4     20 
    29     29     25      6      7      9 
    30     30     25      6      4      3 
    31     31     24      6      4      5 
    32     32     19      3      2     17 
    33     33     20      4      3     18 
    34     34     17      2      1     15 
    35     35     18      3      4      6 
    36     36     19      3      4      5 
    37     37     20      4      3      2 
    38     38     28     11     10      9 
    39     39     12     10      9      7 
    40     40     22      5      4      3 
    41     41     16      2      1     13 
    42     42     22      5      4      6 
    43     43     25      6      4      5 
    44     44     14      1      2      3 
    45     45     18      3      2     17 
    46     46     25      6      7      8 
    47     47     24      6      7      9 
    48     48     20      4      3     19 
    49     49     18      3      2     16 
    50     50     16      2      1     15 
    51     51     17      2      1     14 
    52     52     17      2      1     13 
    53     53     25      6      4     20 
    54     54     16      2      1     14 
    55     55     22      5      4     20 
    56     56      9      7      6      4 
    57     57     15      1      2      3 
    58     58     10      9      7      8 
    59     59     21      5      4      6 
    60     60      7      6      4      5 
    61     61     24      6      7      8 

Impropers

     1      1      4      3      5      6 
     2      2      7      9      6      8 
     3      3     10      9     11     12 
     4      4      1      2     13     14 
     5      5      1      2     13     15 
     6      6      2      1      3     16 
     7      7      2     17      3      1 
     8      8      3     18      4      2 
     9      9      3      2     19      4 
    10     10      4      3     20      5 
    11     11      5     21      4     22 
    12     12      5     21      4     23 
    13     13      6      4      7     24 
    14     14      6     25      4      7 
    15     15     11     10     27     26 
    16     16     11     10     28     26 

