LAMMPS data file Created by LigParGen - (Written by Leela S. Dodda)

      21 atoms
      21 bonds
      40 angles
      58 dihedrals
      16 impropers
 
      21 atom types
      21 bond types
      40 angle types
      58 dihedral types
      16 improper types
 
   -6.705890    43.294110 xlo xhi
    0.024110    50.024110 ylo yhi
   -1.287860    48.712140 zlo zhi

Masses

       1     12.011  
       2     12.011  
       3     12.011  
       4     12.011  
       5     12.011  
       6     12.011  
       7     15.999  
       8     12.011  
       9     14.007  
      10     12.011  
      11      1.008  
      12      1.008  
      13      1.008  
      14      1.008  
      15      1.008  
      16      1.008  
      17      1.008  
      18      1.008  
      19      1.008  
      20      1.008  
      21      1.008  

Pair Coeffs 

       1      0.066  3.5000000 
       2      0.083  3.4500000 
       3      0.083  3.4500000 
       4      0.083  3.4500000 
       5      0.066  3.5000000 
       6      0.070  3.5500000 
       7      0.210  2.9600000 
       8      0.066  3.3000000 
       9      0.170  3.2000000 
      10      0.083  3.4500000 
      11      0.030  2.5000000 
      12      0.030  2.5000000 
      13      0.030  2.5000000 
      14      0.030  2.5000000 
      15      0.030  2.5000000 
      16      0.030  2.5000000 
      17      0.030  2.5000000 
      18      0.030  2.5000000 
      19      0.030  2.5000000 
      20      0.030  2.5000000 
      21      0.030  2.5000000 

Bond Coeffs 

       1   280.0000     1.5100 
       2   260.0000     1.5200 
       3   260.0000     1.5200 
       4   280.0000     1.5100 
       5   317.0000     1.5220 
       6   570.0000     1.2290 
       7   400.0000     1.4440 
       8   650.0000     1.1570 
       9   260.0000     1.5200 
      10   340.0000     1.0900 
      11   340.0000     1.0900 
      12   340.0000     1.0900 
      13   340.0000     1.0880 
      14   340.0000     1.0880 
      15   340.0000     1.0880 
      16   340.0000     1.0880 
      17   340.0000     1.0900 
      18   340.0000     1.0900 
      19   340.0000     1.0880 
      20   340.0000     1.0880 
      21   260.0000     1.5200 

Angle Coeffs 

       1     37.500    117.200
       2     30.000     83.000
       3     37.500    117.200
       4     63.000    111.100
       5     80.000    120.400
       6     69.900    118.180
       7    110.470    156.000
       8     37.500    117.200
       9     37.500    110.700
      10     37.500    110.700
      11     37.500    110.700
      12     35.000    114.300
      13     37.500    117.200
      14     37.500    117.200
      15     37.500    117.200
      16     37.500    110.700
      17     37.500    110.700
      18     37.500    117.200
      19     37.500    117.200
      20     37.500    117.200
      21     37.500    117.200
      22     33.000    107.800
      23     35.000    109.500
      24     30.000     83.000
      25     37.500    117.200
      26     37.500    117.200
      27     35.000    114.300
      28     35.000    109.500
      29     37.500    117.200
      30     33.000    107.800
      31     33.000    107.800
      32     69.900    118.180
      33     30.000     83.000
      34     33.000    107.800
      35     37.500    117.200
      36     37.500    117.200
      37     35.000    114.300
      38     37.500    117.200
      39     35.000    114.300
      40     30.000     83.000

Dihedral Coeffs  

       1      0.000      0.000      0.000      0.000 
       2      0.000      0.000      0.000      0.000 
       3     -2.060     -0.313      0.315      0.000 
       4      0.000      0.000      0.000      0.000 
       5     -0.500      0.200      0.000      0.000 
       6      0.000      0.000      0.300      0.000 
       7      0.000      0.000      0.000      0.000 
       8      0.000      0.000      0.275      0.000 
       9      0.000      0.000      0.000      0.000 
      10      0.000      0.000      0.000      0.000 
      11      0.000      0.000      0.000      0.000 
      12      0.000      0.000      0.000      0.000 
      13      0.000      0.000      0.300      0.000 
      14      0.000      0.000     -0.100      0.000 
      15      0.000      0.000      0.000      0.000 
      16      0.000      0.000      0.000      0.000 
      17      0.000      0.000      0.300      0.000 
      18      0.000      0.000      0.300      0.000 
      19      0.000      0.000      0.000      0.000 
      20      0.000      0.000      0.000      0.000 
      21      0.000      0.000      0.000      0.000 
      22      0.000      0.000      0.300      0.000 
      23      0.000      0.000      0.000      0.000 
      24      0.000      0.000      0.300      0.000 
      25      0.000      0.000      0.000      0.000 
      26      0.000      0.000      0.000      0.000 
      27      0.000      0.000      0.000      0.000 
      28      0.000      0.000      0.000      0.000 
      29      0.000      0.000      0.000      0.000 
      30      0.000      0.000      0.300      0.000 
      31      0.000      0.000      0.000      0.000 
      32      0.000      0.000      0.000      0.000 
      33      0.000      0.000      0.000      0.000 
      34      0.000      0.000      0.000      0.000 
      35      0.000      0.000      0.000      0.000 
      36      0.000      0.000      0.000      0.000 
      37      0.000      0.000      0.000      0.000 
      38      0.000      0.000      0.000      0.000 
      39      0.000      0.000      0.000      0.000 
      40      0.000      0.000      0.000      0.000 
      41      0.000      0.000      0.300      0.000 
      42      0.000      0.000      0.300      0.000 
      43      0.000      0.000      0.000      0.000 
      44      0.000      0.000      0.300      0.000 
      45      0.000      0.000      0.300      0.000 
      46      0.000      0.000      0.275      0.000 
      47     -2.060     -0.313      0.315      0.000 
      48      0.000      0.000      0.000      0.000 
      49      0.000      0.000      0.000      0.000 
      50      0.000      0.000      0.000      0.000 
      51      0.000      0.000      0.000      0.000 
      52      0.000      0.000      0.000      0.000 
      53      0.000      0.000      0.300      0.000 
      54      0.000      0.000      0.300      0.000 
      55      0.000      0.000      0.300      0.000 
      56      0.000      0.000      0.000      0.000 
      57      0.000      0.000      0.000      0.000 
      58      0.000      0.000      0.300      0.000 

Improper Coeffs 

       1     10.500      -1       2 
       2      0.000      -1       2 
       3      0.000      -1       2 
       4      0.000      -1       2 
       5      0.000      -1       2 
       6      0.000      -1       2 
       7      0.000      -1       2 
       8      0.000      -1       2 
       9      0.000      -1       2 
      10      0.000      -1       2 
      11      0.000      -1       2 
      12      0.000      -1       2 
      13      0.000      -1       2 
      14      0.000      -1       2 
      15      0.000      -1       2 
      16      0.000      -1       2 

Atoms 

     1      1      1 -0.22860000    1.000  1.00000  0.00000
     2      1      2 -0.14170000   -0.515  1.00000  0.00000
     3      1      3 -0.19020000   -1.209  1.00000  1.38399
     4      1      4 -0.13740000   -2.269  1.96555  0.79365
     5      1      5 -0.20050000   -3.546  1.30762  0.26602
     6      1      6 0.48400000   -4.520  2.28385 -0.35525
     7      1      7 -0.37990000   -4.327  3.49193 -0.43998
     8      1      8 0.08120000   -5.744  1.69100 -0.86494
     9      1      9 -0.29220000   -6.706  1.16890 -1.25688
    10      1     10 -0.18310000   -1.208  2.35998 -0.26650
    11      1     11 0.08530000    1.384  0.02411  0.31535
    12      1     12 0.08530000    1.405  1.75802  0.67797
    13      1     13 0.08530000    1.384  1.20247 -1.00551
    14      1     14 0.11130000   -0.897  0.20355 -0.65346
    15      1     15 0.10540000   -0.613  1.45554  2.18497
    16      1     16 0.10540000   -1.574  0.02953  1.73067
    17      1     17 0.12140000   -2.517  2.77888  1.48832
    18      1     18 0.13510000   -4.061  0.81039  1.09693
    19      1     19 0.13510000   -3.305  0.54502 -0.48422
    20      1     20 0.10940000   -0.612  3.23402  0.02362
    21      1     21 0.10940000   -1.570  2.50623 -1.28786

Bonds 

     1      1      2      1
     2      2      3      2
     3      3      4      3
     4      4      5      4
     5      5      6      5
     6      6      7      6
     7      7      8      6
     8      8      9      8
     9      9     10      2
    10     10     11      1
    11     11     12      1
    12     12     13      1
    13     13     14      2
    14     14     15      3
    15     15     16      3
    16     16     17      4
    17     17     18      5
    18     18     19      5
    19     19     20     10
    20     20     21     10
    21     21     10      4

Angles 

     1      1      1      2      3
     2      2      2      3      4
     3      3      3      4      5
     4      4      4      5      6
     5      5      5      6      7
     6      6      5      6      8
     7      7      6      8      9
     8      8      1      2     10
     9      9      2      1     11
    10     10      2      1     12
    11     11      2      1     13
    12     12      1      2     14
    13     13      2      3     15
    14     14      2      3     16
    15     15      3      4     17
    16     16      4      5     18
    17     17      4      5     19
    18     18      2     10     20
    19     19      2     10     21
    20     20     10      2     14
    21     21      3      2     14
    22     22     11      1     13
    23     23      6      5     19
    24     24      3      4     10
    25     25      5      4     10
    26     26      4     10     20
    27     27     15      3     16
    28     28      6      5     18
    29     29     10      4     17
    30     30     11      1     12
    31     31     12      1     13
    32     32      7      6      8
    33     33      2     10      4
    34     34     18      5     19
    35     35      4     10     21
    36     36      4      3     16
    37     37     20     10     21
    38     38      4      3     15
    39     39      5      4     17
    40     40      3      2     10

Dihedrals

     1      1      4      3      2      1 
     2      2      5      4      3      2 
     3      3      6      5      4      3 
     4      4      7      6      5      4 
     5      5      9      8      6      5 
     6      6     11      1      2      3 
     7      7     15      3      4      5 
     8      8     19      5      6      8 
     9      9     15      3      2     10 
    10     10     17      4      3      2 
    11     11     20     10      4      3 
    12     12     18      5      6      7 
    13     13     14      2      1     13 
    14     14     17      4      5      6 
    15     15     15      3      2     14 
    16     16      5      4     10      2 
    17     17     18      5      4     17 
    18     18     19      5      4     17 
    19     19     15      3      4     10 
    20     20     16      3      4     10 
    21     21     17      4      3     15 
    22     22     19      5      4     10 
    23     23     21     10      4      3 
    24     24     12      1      2      3 
    25     25     21     10      2      3 
    26     26     21     10      4     17 
    27     27     16      3      2     10 
    28     28      8      6      5      4 
    29     29     19      5      6      7 
    30     30     19      5      4      3 
    31     31     20     10      4      5 
    32     32     17      4      3     16 
    33     33     20     10      2     14 
    34     34     17      4     10      2 
    35     35     16      3      2      1 
    36     36     14      2      3      4 
    37     37     15      3      2      1 
    38     38     16      3      2     14 
    39     39     20     10      4     17 
    40     40      4     10      2      1 
    41     41     13      1      2     10 
    42     42     13      1      2      3 
    43     43     20     10      2      1 
    44     44     18      5      4     10 
    45     45     12      1      2     10 
    46     46     18      5      6      8 
    47     47     10      4      5      6 
    48     48      9      8      6      7 
    49     49     14      2     10      4 
    50     50     20     10      2      3 
    51     51     16      3      4      5 
    52     52     21     10      2     14 
    53     53     14      2      1     12 
    54     54     14      2      1     11 
    55     55     18      5      4      3 
    56     56     21     10      2      1 
    57     57     21     10      4      5 
    58     58     11      1      2     10 

Impropers

     1      1      6      5      7      8 
     2      2      2      1     10      3 
     3      3      1      2     11     12 
     4      4      1      2     11     13 
     5      5      2      1      3     14 
     6      6      3      2      4     15 
     7      7      3      2      4     16 
     8      8      4     17      3      5 
     9      9      5     18      4      6 
    10     10      5     19      4      6 
    11     11     10      4     20      2 
    12     12     10      4     21      2 
    13     13     10      3      4      2 
    14     14     10      3      4      2 
    15     15     10      3      4      2 
    16     16     10      3      4      2 

