LAMMPS data file Created by LigParGen - (Written by Leela S. Dodda)

      32 atoms
      32 bonds
      63 angles
      93 dihedrals
      20 impropers
 
      32 atom types
      32 bond types
      63 angle types
      93 dihedral types
      20 improper types
 
   -5.977050    44.022950 xlo xhi
   -1.068970    48.931030 ylo yhi
   -4.155250    45.844750 zlo zhi

Masses

       1     12.011  
       2     12.011  
       3     15.999  
       4     12.011  
       5     12.011  
       6     12.011  
       7     12.011  
       8     12.011  
       9     12.011  
      10     12.011  
      11     12.011  
      12     12.011  
      13      1.008  
      14      1.008  
      15      1.008  
      16      1.008  
      17      1.008  
      18      1.008  
      19      1.008  
      20      1.008  
      21      1.008  
      22      1.008  
      23      1.008  
      24      1.008  
      25      1.008  
      26      1.008  
      27      1.008  
      28      1.008  
      29      1.008  
      30      1.008  
      31      1.008  
      32      1.008  

Pair Coeffs 

       1      0.066  3.5000000 
       2      0.070  3.5500000 
       3      0.210  2.9600000 
       4      0.066  3.5000000 
       5      0.066  3.5000000 
       6      0.066  3.5000000 
       7      0.066  3.5000000 
       8      0.066  3.5000000 
       9      0.066  3.5000000 
      10      0.066  3.5000000 
      11      0.066  3.5000000 
      12      0.066  3.5000000 
      13      0.030  2.5000000 
      14      0.030  2.5000000 
      15      0.030  2.5000000 
      16      0.030  2.5000000 
      17      0.030  2.5000000 
      18      0.030  2.5000000 
      19      0.030  2.5000000 
      20      0.030  2.5000000 
      21      0.030  2.5000000 
      22      0.030  2.5000000 
      23      0.030  2.5000000 
      24      0.030  2.5000000 
      25      0.030  2.5000000 
      26      0.030  2.5000000 
      27      0.030  2.5000000 
      28      0.030  2.5000000 
      29      0.030  2.5000000 
      30      0.030  2.5000000 
      31      0.030  2.5000000 
      32      0.030  2.5000000 

Bond Coeffs 

       1   317.0000     1.5220 
       2   570.0000     1.2290 
       3   317.0000     1.5220 
       4   268.0000     1.5290 
       5   268.0000     1.5290 
       6   268.0000     1.5290 
       7   268.0000     1.5290 
       8   268.0000     1.5290 
       9   268.0000     1.5290 
      10   268.0000     1.5290 
      11   268.0000     1.5290 
      12   340.0000     1.0900 
      13   340.0000     1.0900 
      14   340.0000     1.0900 
      15   340.0000     1.0900 
      16   340.0000     1.0900 
      17   340.0000     1.0900 
      18   340.0000     1.0900 
      19   340.0000     1.0900 
      20   340.0000     1.0900 
      21   340.0000     1.0900 
      22   340.0000     1.0900 
      23   340.0000     1.0900 
      24   340.0000     1.0900 
      25   340.0000     1.0900 
      26   340.0000     1.0900 
      27   340.0000     1.0900 
      28   340.0000     1.0900 
      29   340.0000     1.0900 
      30   340.0000     1.0900 
      31   340.0000     1.0900 
      32   268.0000     1.5290 

Angle Coeffs 

       1     80.000    120.400
       2     70.000    116.000
       3     63.000    111.100
       4     63.000    111.100
       5     58.350    112.700
       6     58.350    112.700
       7     58.350    112.700
       8     58.350    112.700
       9     58.350    112.700
      10     58.350    112.700
      11     35.000    109.500
      12     35.000    109.500
      13     35.000    109.500
      14     35.000    109.500
      15     37.500    110.700
      16     37.500    110.700
      17     37.500    110.700
      18     37.500    110.700
      19     37.500    110.700
      20     37.500    110.700
      21     37.500    110.700
      22     37.500    110.700
      23     37.500    110.700
      24     37.500    110.700
      25     37.500    110.700
      26     37.500    110.700
      27     37.500    110.700
      28     37.500    110.700
      29     37.500    110.700
      30     37.500    110.700
      31     58.350    112.700
      32     37.500    110.700
      33     33.000    107.800
      34     37.500    110.700
      35     37.500    110.700
      36     33.000    107.800
      37     58.350    112.700
      38     33.000    107.800
      39     37.500    110.700
      40     33.000    107.800
      41     37.500    110.700
      42     37.500    110.700
      43     33.000    107.800
      44     33.000    107.800
      45     58.350    112.700
      46     33.000    107.800
      47     33.000    107.800
      48     37.500    110.700
      49     33.000    107.800
      50     33.000    107.800
      51     80.000    120.400
      52     37.500    110.700
      53     37.500    110.700
      54     33.000    107.800
      55     37.500    110.700
      56     33.000    107.800
      57     33.000    107.800
      58     58.350    112.700
      59     58.350    112.700
      60     37.500    110.700
      61     33.000    107.800
      62     37.500    110.700
      63     58.350    112.700

Dihedral Coeffs  

       1      1.454     -0.144     -0.775      0.000 
       2     -2.060     -0.313      0.315      0.000 
       3      1.300     -0.200      0.200      0.000 
       4      1.300     -0.200      0.200      0.000 
       5      1.300     -0.200      0.200      0.000 
       6      0.000      0.000      0.000      0.000 
       7      0.000      0.000     -0.100      0.000 
       8      0.000      0.000      0.300      0.000 
       9      0.000      0.000      0.300      0.000 
      10      0.000      0.000      0.300      0.000 
      11      0.000      0.000      0.300      0.000 
      12      0.000      0.000      0.300      0.000 
      13      1.300     -0.200      0.200      0.000 
      14      0.000      0.000      0.300      0.000 
      15      0.000      0.000      0.300      0.000 
      16      0.000      0.000      0.300      0.000 
      17      0.000      0.000      0.300      0.000 
      18      0.000      0.000      0.300      0.000 
      19      1.300     -0.200      0.200      0.000 
      20      0.000      0.000      0.300      0.000 
      21      0.000      0.000      0.300      0.000 
      22      0.000      0.000      0.300      0.000 
      23      1.300     -0.200      0.200      0.000 
      24      0.000      0.000      0.300      0.000 
      25      1.454     -0.144     -0.775      0.000 
      26      0.000      0.000      0.300      0.000 
      27      0.000      0.000      0.300      0.000 
      28      0.000      0.000     -0.100      0.000 
      29      0.000      0.000      0.300      0.000 
      30      0.000      0.000      0.300      0.000 
      31      0.000      0.000      0.300      0.000 
      32      0.000      0.000      0.300      0.000 
      33      0.000      0.000      0.300      0.000 
      34      0.000      0.000      0.300      0.000 
      35      0.000      0.000      0.300      0.000 
      36      0.000      0.000      0.000      0.000 
      37      0.000      0.000      0.300      0.000 
      38      0.000      0.000      0.300      0.000 
      39      0.000      0.000      0.300      0.000 
      40      0.000      0.000      0.300      0.000 
      41      0.000      0.000      0.000      0.000 
      42      0.000      0.000      0.300      0.000 
      43      0.000      0.000      0.300      0.000 
      44      0.000      0.000      0.300      0.000 
      45      0.000      0.000      0.300      0.000 
      46      0.000      0.000      0.300      0.000 
      47      0.000      0.000      0.300      0.000 
      48      0.000      0.000      0.300      0.000 
      49      1.300     -0.200      0.200      0.000 
      50      0.000      0.000      0.300      0.000 
      51      0.000      0.000      0.000      0.000 
      52      0.000      0.000      0.300      0.000 
      53      0.000      0.000      0.300      0.000 
      54      0.000      0.000      0.300      0.000 
      55      0.000      0.000      0.300      0.000 
      56      1.300     -0.200      0.200      0.000 
      57      0.000      0.000      0.300      0.000 
      58      0.000      0.000      0.300      0.000 
      59      0.000      0.000      0.300      0.000 
      60      1.300     -0.200      0.200      0.000 
      61      0.000      0.000      0.300      0.000 
      62      0.000      0.000      0.300      0.000 
      63      1.300     -0.200      0.200      0.000 
      64      0.000      0.000      0.300      0.000 
      65      0.000      0.000      0.300      0.000 
      66      0.000      0.000      0.300      0.000 
      67      0.000      0.000      0.300      0.000 
      68      0.000      0.000      0.300      0.000 
      69      0.000      0.000      0.000      0.000 
      70      0.000      0.000      0.275      0.000 
      71      1.300     -0.200      0.200      0.000 
      72      0.000      0.000      0.300      0.000 
      73      0.000      0.000      0.300      0.000 
      74      0.000      0.000      0.300      0.000 
      75      0.000      0.000      0.300      0.000 
      76      0.000      0.000      0.300      0.000 
      77      0.000      0.000      0.300      0.000 
      78      0.000      0.000      0.300      0.000 
      79      0.000      0.000      0.300      0.000 
      80      0.000      0.000      0.300      0.000 
      81      0.000      0.000      0.275      0.000 
      82      0.000      0.000     -0.100      0.000 
      83      1.300     -0.200      0.200      0.000 
      84      1.300     -0.200      0.200      0.000 
      85      0.000      0.000      0.000      0.000 
      86      0.000      0.000      0.275      0.000 
      87      0.000      0.000      0.275      0.000 
      88      0.000      0.000      0.300      0.000 
      89      0.000      0.000      0.300      0.000 
      90      0.000      0.000     -0.100      0.000 
      91     -2.060     -0.313      0.315      0.000 
      92      0.000      0.000      0.300      0.000 
      93      1.300     -0.200      0.200      0.000 

Improper Coeffs 

       1     10.500      -1       2 
       2      0.000      -1       2 
       3      0.000      -1       2 
       4      0.000      -1       2 
       5      0.000      -1       2 
       6      0.000      -1       2 
       7      0.000      -1       2 
       8      0.000      -1       2 
       9      0.000      -1       2 
      10      0.000      -1       2 
      11      0.000      -1       2 
      12      0.000      -1       2 
      13      0.000      -1       2 
      14      0.000      -1       2 
      15      0.000      -1       2 
      16      0.000      -1       2 
      17      0.000      -1       2 
      18      0.000      -1       2 
      19      0.000      -1       2 
      20      0.000      -1       2 

Atoms 

     1      1      1 -0.30330000    1.000  1.00000  0.00000
     2      1      2 0.36550000   -0.506  1.00000  0.00000
     3      1      3 -0.44810000   -1.135  1.00000  1.05926
     4      1      4 -0.15460000   -1.198  0.93734 -1.36199
     5      1      5 -0.23000000   -1.425 -0.53407 -1.70604
     6      1      6 -0.11330000   -2.503  1.75583 -1.34634
     7      1      7 -0.18020000   -2.268  3.25188 -1.10607
     8      1      8 -0.11210000   -3.569  3.91181 -1.56654
     9      1      9 -0.22840000   -4.632  3.88780 -0.46804
    10      1     10 -0.11540000   -3.920  3.11642 -2.83967
    11      1     11 -0.22730000   -5.398  3.05343 -3.19975
    12      1     12 -0.17390000   -3.291  1.72273 -2.66512
    13      1     13 0.11640000    1.365  1.19999  1.01167
    14      1     14 0.11640000    1.369  1.78847 -0.66198
    15      1     15 0.11640000    1.367  0.02452 -0.32649
    16      1     16 0.11210000   -0.519  1.37240 -2.10621
    17      1     17 0.09110000   -2.036 -1.03024 -0.94370
    18      1     18 0.09110000   -0.470 -1.06897 -1.75851
    19      1     19 0.09110000   -1.922 -0.65300 -2.67350
    20      1     20 0.12490000   -3.156  1.37225 -0.55040
    21      1     21 0.09630000   -1.434  3.61073 -1.72316
    22      1     22 0.09630000   -2.032  3.47351 -0.06053
    23      1     23 0.09770000   -3.380  4.96141 -1.82158
    24      1     24 0.08340000   -4.920  2.86906 -0.19135
    25      1     25 0.08340000   -5.534  4.41950 -0.78779
    26      1     26 0.08340000   -4.259  4.38796  0.43245
    27      1     27 0.09150000   -3.403  3.60347 -3.67921
    28      1     28 0.08250000   -5.977  2.51085 -2.44567
    29      1     29 0.08250000   -5.536  2.53607 -4.15525
    30      1     30 0.08250000   -5.816  4.06026 -3.29759
    31      1     31 0.09090000   -2.631  1.52179 -3.51763
    32      1     32 0.09090000   -4.042  0.92504 -2.63981

Bonds 

     1      1      2      1
     2      2      3      2
     3      3      4      2
     4      4      5      4
     5      5      6      4
     6      6      7      6
     7      7      8      7
     8      8      9      8
     9      9     10      8
    10     10     11     10
    11     11     12      6
    12     12     13      1
    13     13     14      1
    14     14     15      1
    15     15     16      4
    16     16     17      5
    17     17     18      5
    18     18     19      5
    19     19     20      6
    20     20     21      7
    21     21     22      7
    22     22     23      8
    23     23     24      9
    24     24     25      9
    25     25     26      9
    26     26     27     10
    27     27     28     11
    28     28     29     11
    29     29     30     11
    30     30     31     12
    31     31     32     12
    32     32     12     10

Angles 

     1      1      1      2      3
     2      2      1      2      4
     3      3      2      4      5
     4      4      2      4      6
     5      5      4      6      7
     6      6      6      7      8
     7      7      7      8      9
     8      8      7      8     10
     9      9      8     10     11
    10     10      4      6     12
    11     11      2      1     13
    12     12      2      1     14
    13     13      2      1     15
    14     14      2      4     16
    15     15      4      5     17
    16     16      4      5     18
    17     17      4      5     19
    18     18      4      6     20
    19     19      6      7     21
    20     20      6      7     22
    21     21      7      8     23
    22     22      8      9     24
    23     23      8      9     25
    24     24      8      9     26
    25     25      8     10     27
    26     26     10     11     28
    27     27     10     11     29
    28     28     10     11     30
    29     29      6     12     31
    30     30      6     12     32
    31     31      5      4      6
    32     32     11     10     27
    33     33     13      1     14
    34     34     10      8     23
    35     35     10     12     31
    36     36     17      5     19
    37     37     11     10     12
    38     38     25      9     26
    39     39     10     12     32
    40     40     21      7     22
    41     41     12      6     20
    42     42      9      8     23
    43     43     24      9     25
    44     44     28     11     30
    45     45      9      8     10
    46     46     13      1     15
    47     47     17      5     18
    48     48      5      4     16
    49     49     14      1     15
    50     50     24      9     26
    51     51      3      2      4
    52     52      6      4     16
    53     53      8      7     22
    54     54     31     12     32
    55     55      8      7     21
    56     56     18      5     19
    57     57     28     11     29
    58     58      6     12     10
    59     59      8     10     12
    60     60     12     10     27
    61     61     29     11     30
    62     62      7      6     20
    63     63      7      6     12

Dihedrals

     1      1      5      4      2      1 
     2      2      7      6      4      2 
     3      3      8      7      6      4 
     4      4      9      8      7      6 
     5      5     11     10      8      7 
     6      6     13      1      2      3 
     7      7     17      5      4      2 
     8      8     24      9      8      7 
     9      9     28     11     10      8 
    10     10     22      7      6     20 
    11     11     31     12     10     27 
    12     12     27     10      8      9 
    13     13     10     12      6      4 
    14     14     31     12     10      8 
    15     15     23      8     10     11 
    16     16     20      6      4      5 
    17     17     32     12      6      4 
    18     18     32     12      6     20 
    19     19     12      6      4      5 
    20     20     25      9      8     10 
    21     21     30     11     10     27 
    22     22     30     11     10      8 
    23     23     12     10      8      7 
    24     24     26      9      8      7 
    25     25      6      4      2      1 
    26     26     24      9      8     10 
    27     27     21      7      6     12 
    28     28     20      6      4      2 
    29     29     26      9      8     10 
    30     30     23      8      7     22 
    31     31     22      7      6     12 
    32     32     32     12     10     27 
    33     33     27     10      8     23 
    34     34     25      9      8      7 
    35     35     17      5      4      6 
    36     36      5      4      2      3 
    37     37     19      5      4     16 
    38     38     23      8      7      6 
    39     39     21      7      8     10 
    40     40     22      7      8      9 
    41     41     16      4      2      3 
    42     42     32     12     10     11 
    43     43     22      7      6      4 
    44     44     28     11     10     27 
    45     45     29     11     10     12 
    46     46     32     12      6      7 
    47     47     25      9      8     23 
    48     48     19      5      4      6 
    49     49     11     10     12      6 
    50     50     29     11     10     27 
    51     51      6      4      2      3 
    52     52     21      7      6      4 
    53     53     32     12     10      8 
    54     54     16      4      6     12 
    55     55     23      8     10     12 
    56     56      8     10     12      6 
    57     57     17      5      4     16 
    58     58     21      7      6     20 
    59     59     31     12      6     20 
    60     60     12     10      8      9 
    61     61     29     11     10      8 
    62     62     20      6      7      8 
    63     63     10     12      6      7 
    64     64     20      6     12     10 
    65     65     21      7      8      9 
    66     66     31     12      6      7 
    67     67     23      8      7     21 
    68     68     30     11     10     12 
    69     69     15      1      2      3 
    70     70     14      1      2      4 
    71     71     12      6      7      8 
    72     72     28     11     10     12 
    73     73     20      6      4     16 
    74     74     16      4      6      7 
    75     75     26      9      8     23 
    76     76     22      7      8     10 
    77     77     31     12      6      4 
    78     78     18      5      4      6 
    79     79     24      9      8     23 
    80     80     27     10     12      6 
    81     81     16      4      2      1 
    82     82     19      5      4      2 
    83     83     10      8      7      6 
    84     84     11     10      8      9 
    85     85     14      1      2      3 
    86     86     13      1      2      4 
    87     87     15      1      2      4 
    88     88     27     10      8      7 
    89     89     18      5      4     16 
    90     90     18      5      4      2 
    91     91     12      6      4      2 
    92     92     31     12     10     11 
    93     93      7      6      4      5 

Impropers

     1      1      2      1      3      4 
     2      2      4      2      5      6 
     3      3      8      9     10      7 
     4      4      6      4     12      7 
     5      5      1      2     13     14 
     6      6      1      2     13     15 
     7      7      4      2      5     16 
     8      8      5     17     18      4 
     9      9      5     17     19      4 
    10     10      6      4     20      7 
    11     11      7     21      6      8 
    12     12      7      8     22      6 
    13     13      8      9      7     23 
    14     14      9     25     24      8 
    15     15      9     26     24      8 
    16     16     10     27     11      8 
    17     17     11     10     28     29 
    18     18     11     10     28     30 
    19     19     12     10      6     31 
    20     20     12     10      6     32 

