LAMMPS data file Created by LigParGen - (Written by Leela S. Dodda)

      32 atoms
      34 bonds
      70 angles
     115 dihedrals
      25 impropers
 
      32 atom types
      34 bond types
      70 angle types
     115 dihedral types
      25 improper types
 
   -6.355640    43.644360 xlo xhi
   -0.963350    49.036650 ylo yhi
   -1.018640    48.981360 zlo zhi

Masses

       1     12.011  
       2     12.011  
       3     12.011  
       4     12.011  
       5     12.011  
       6     12.011  
       7     12.011  
       8     12.011  
       9     12.011  
      10     12.011  
      11     15.999  
      12     12.011  
      13     15.999  
      14     12.011  
      15      1.008  
      16      1.008  
      17      1.008  
      18      1.008  
      19      1.008  
      20      1.008  
      21      1.008  
      22      1.008  
      23      1.008  
      24      1.008  
      25      1.008  
      26      1.008  
      27      1.008  
      28      1.008  
      29      1.008  
      30      1.008  
      31      1.008  
      32      1.008  

Pair Coeffs 

       1      0.066  3.5000000 
       2      0.066  3.5000000 
       3      0.066  3.5000000 
       4      0.066  3.5000000 
       5      0.066  3.5000000 
       6      0.066  3.5000000 
       7      0.083  3.4500000 
       8      0.083  3.4500000 
       9      0.083  3.4500000 
      10      0.083  3.4500000 
      11      0.140  2.9000000 
      12      0.070  3.5500000 
      13      0.210  2.9600000 
      14      0.066  3.5000000 
      15      0.030  2.5000000 
      16      0.030  2.5000000 
      17      0.030  2.5000000 
      18      0.030  2.5000000 
      19      0.030  2.5000000 
      20      0.030  2.5000000 
      21      0.030  2.5000000 
      22      0.030  2.5000000 
      23      0.030  2.5000000 
      24      0.030  2.5000000 
      25      0.030  2.5000000 
      26      0.030  2.5000000 
      27      0.030  2.5000000 
      28      0.030  2.5000000 
      29      0.030  2.5000000 
      30      0.030  2.5000000 
      31      0.030  2.5000000 
      32      0.030  2.5000000 

Bond Coeffs 

       1   268.0000     1.5290 
       2   268.0000     1.5290 
       3   268.0000     1.5290 
       4   268.0000     1.5290 
       5   268.0000     1.5290 
       6   280.0000     1.5100 
       7   260.0000     1.5200 
       8   260.0000     1.5200 
       9   260.0000     1.5200 
      10   320.0000     1.4100 
      11   214.0000     1.3270 
      12   570.0000     1.2290 
      13   268.0000     1.5290 
      14   340.0000     1.0900 
      15   340.0000     1.0900 
      16   340.0000     1.0900 
      17   340.0000     1.0900 
      18   340.0000     1.0900 
      19   340.0000     1.0900 
      20   340.0000     1.0900 
      21   340.0000     1.0900 
      22   340.0000     1.0900 
      23   340.0000     1.0900 
      24   340.0000     1.0900 
      25   340.0000     1.0880 
      26   340.0000     1.0880 
      27   340.0000     1.0880 
      28   340.0000     1.0880 
      29   340.0000     1.0880 
      30   340.0000     1.0880 
      31   340.0000     1.0900 
      32   268.0000     1.5290 
      33   260.0000     1.5200 
      34   317.0000     1.5220 

Angle Coeffs 

       1     58.350    112.700
       2     58.350    112.700
       3     58.350    112.700
       4     58.350    112.700
       5     58.350    112.700
       6     37.500    117.200
       7     30.000     83.000
       8     37.500    117.200
       9     50.000    109.500
      10     83.000    116.900
      11     83.000    123.400
      12     58.350    112.700
      13     37.500    110.700
      14     37.500    110.700
      15     37.500    110.700
      16     37.500    110.700
      17     37.500    110.700
      18     37.500    110.700
      19     37.500    110.700
      20     37.500    110.700
      21     37.500    110.700
      22     37.500    110.700
      23     37.500    110.700
      24     35.000    114.300
      25     37.500    117.200
      26     37.500    117.200
      27     37.500    117.200
      28     37.500    117.200
      29     37.500    117.200
      30     37.500    110.700
      31     58.350    112.700
      32     37.500    117.200
      33     37.500    110.700
      34     37.500    117.200
      35     37.500    110.700
      36     37.500    117.200
      37     37.500    117.200
      38     37.500    110.700
      39     81.000    111.400
      40     58.350    112.700
      41     33.000    107.800
      42     30.000     83.000
      43     37.500    110.700
      44     33.000    107.800
      45     63.000    111.100
      46     33.000    107.800
      47     33.000    107.800
      48     37.500    117.200
      49     33.000    107.800
      50     35.000    109.500
      51     58.350    112.700
      52     63.000    111.100
      53     37.500    110.700
      54     37.500    110.700
      55     37.500    110.700
      56     80.000    120.400
      57     37.500    110.700
      58     30.000     83.000
      59     33.000    107.800
      60     50.000    109.500
      61     58.350    112.700
      62     37.500    110.700
      63     37.500    117.200
      64     37.500    110.700
      65     37.500    110.700
      66     35.000    114.300
      67     30.000     83.000
      68     35.000    114.300
      69     37.500    117.200
      70     35.000    109.500

Dihedral Coeffs  

       1      1.300     -0.200      0.200      0.000 
       2      1.300     -0.200      0.200      0.000 
       3      1.300     -0.200      0.200      0.000 
       4      1.300     -0.200      0.200      0.000 
       5      0.000      0.000      0.000      0.000 
       6      0.000      0.000      0.000      0.000 
       7     -1.220     -0.126      0.422      0.000 
       8      0.000      5.124      0.000      0.000 
       9      0.000      0.000      0.300      0.000 
      10     -2.060     -0.313      0.315      0.000 
      11      0.000      0.000      0.300      0.000 
      12      0.000      0.000      0.000      0.000 
      13      0.000      0.000      0.198      0.000 
      14      0.000      0.000     -0.553      0.000 
      15      4.669      5.124      0.000      0.000 
      16      0.000      0.000      0.300      0.000 
      17      0.000      0.000      0.000      0.000 
      18      0.000      0.000      0.300      0.000 
      19      0.000      0.000      0.300      0.000 
      20      0.000      0.000      0.000      0.000 
      21     -2.060     -0.313      0.315      0.000 
      22      0.000      0.000      0.300      0.000 
      23      0.000      0.000      0.300      0.000 
      24      0.000      0.000      0.000      0.000 
      25      0.000      0.000     -0.553      0.000 
      26      0.000      0.000      0.300      0.000 
      27      0.000      0.000      0.300      0.000 
      28      0.000      0.000      0.000      0.000 
      29      0.000      0.000      0.300      0.000 
      30      0.000      0.000      0.000      0.000 
      31      0.000      0.000      0.300      0.000 
      32     -2.060     -0.313      0.315      0.000 
      33      0.000      0.000      0.300      0.000 
      34      0.000      0.000      0.000      0.000 
      35      0.000      0.000      0.132      0.000 
      36      1.300     -0.200      0.200      0.000 
      37      0.000      0.000      0.000      0.000 
      38      0.000      0.000      0.300      0.000 
      39      0.000      0.000      0.300      0.000 
      40      0.000      0.000      0.000      0.000 
      41      0.000      0.000      0.000      0.000 
      42      0.000      0.000      0.300      0.000 
      43      0.000      0.000      0.300      0.000 
      44      0.000      0.000      0.300      0.000 
      45      0.000      0.000      0.300      0.000 
      46      0.000      0.000      0.300      0.000 
      47      0.000      0.000      0.000      0.000 
      48      0.000      0.000      0.000      0.000 
      49      0.000      0.000      0.000      0.000 
      50      0.000      0.000      0.000      0.000 
      51      0.000      0.000     -0.100      0.000 
      52      0.000      0.000      0.000      0.000 
      53      0.000      0.000      0.000      0.000 
      54      0.000      0.000      0.000      0.000 
      55      0.000      0.000      0.000      0.000 
      56      0.000      0.000      0.000      0.000 
      57      0.000      0.000      0.300      0.000 
      58     -2.060     -0.313      0.315      0.000 
      59      0.000      0.000      0.300      0.000 
      60      0.000      0.000      0.300      0.000 
      61     -1.220     -0.126      0.422      0.000 
      62      0.000      0.000      0.300      0.000 
      63      0.000      0.000      0.000      0.000 
      64      0.000      0.000      0.300      0.000 
      65      0.000      0.000      0.300      0.000 
      66      0.000      0.000      0.300      0.000 
      67      0.000      0.000      0.300      0.000 
      68      0.000      0.000      0.000      0.000 
      69      0.000      0.000      0.000      0.000 
      70      0.000      0.000      0.300      0.000 
      71      0.000      0.000      0.300      0.000 
      72      1.300     -0.200      0.200      0.000 
      73      1.300     -0.200      0.200      0.000 
      74      0.000      0.000      0.000      0.000 
      75      0.000      0.000      0.000      0.000 
      76      0.000      0.000      0.000      0.000 
      77      0.000      0.000      0.000      0.000 
      78      0.000      0.000      0.000      0.000 
      79      0.000      0.000      0.300      0.000 
      80      0.000      0.000     -0.100      0.000 
      81      0.000      0.000      0.300      0.000 
      82      0.000      0.000      0.300      0.000 
      83      0.000      0.000      0.000      0.000 
      84      0.000      0.000      0.300      0.000 
      85      1.300     -0.200      0.200      0.000 
      86      0.000      0.000      0.300      0.000 
      87      0.000      0.000      0.300      0.000 
      88      0.000      0.000      0.300      0.000 
      89      0.000      0.000      0.000      0.000 
      90      0.000      0.000      0.000      0.000 
      91      0.000      0.000      0.300      0.000 
      92      0.000      0.000      0.000      0.000 
      93      0.000      0.000      0.000      0.000 
      94      0.000      0.000      0.300      0.000 
      95      0.000      0.000      0.300      0.000 
      96      1.300     -0.200      0.200      0.000 
      97      1.300     -0.200      0.200      0.000 
      98      0.000      0.000      0.000      0.000 
      99      0.000      0.000      0.300      0.000 
     100      0.000      0.000      0.000      0.000 
     101      0.000      0.000      0.300      0.000 
     102      0.000      0.000      0.300      0.000 
     103      0.000      0.000      0.300      0.000 
     104      0.000      0.000      0.300      0.000 
     105      0.000      0.000      0.300      0.000 
     106      0.000      0.000      0.300      0.000 
     107      0.000      0.000      0.300      0.000 
     108      1.300     -0.200      0.200      0.000 
     109      0.000      0.000      0.300      0.000 
     110      0.000      0.000      0.000      0.000 
     111      0.000      0.000      0.300      0.000 
     112      0.000      0.000      0.000      0.000 
     113      0.000      0.000      0.000      0.000 
     114      0.000      0.000      0.300      0.000 
     115      0.000      0.000      0.300      0.000 

Improper Coeffs 

       1      0.000      -1       2 
       2      0.000      -1       2 
       3      0.000      -1       2 
       4      0.000      -1       2 
       5      0.000      -1       2 
       6      0.000      -1       2 
       7      0.000      -1       2 
       8      0.000      -1       2 
       9      0.000      -1       2 
      10      0.000      -1       2 
      11      0.000      -1       2 
      12      0.000      -1       2 
      13      0.000      -1       2 
      14      0.000      -1       2 
      15      0.000      -1       2 
      16      0.000      -1       2 
      17      0.000      -1       2 
      18      0.000      -1       2 
      19      0.000      -1       2 
      20      0.000      -1       2 
      21      0.000      -1       2 
      22      0.000      -1       2 
      23      0.000      -1       2 
      24      0.000      -1       2 
      25     10.500      -1       2 

Atoms 

     1      1      1 -0.23630000    1.000  1.00000  0.00000
     2      1      2 -0.17650000   -0.523  1.00000  0.00000
     3      1      3 -0.10020000   -1.127  1.00000  1.40965
     4      1      4 -0.18620000   -0.656  2.16447  2.28793
     5      1      5 -0.18060000   -1.632  2.09860  3.45610
     6      1      6 -0.08990000   -2.961  1.94390  2.73761
     7      1      7 -0.17870000   -4.113  1.39078  3.54094
     8      1      8 -0.17160000   -4.405  0.96183  5.02493
     9      1      9 -0.18210000   -5.422 -0.02722  4.32829
    10      1     10 0.03910000   -4.303 -0.12122  3.26594
    11      1     11 -0.35740000   -4.536 -0.40203  1.88899
    12      1     12 0.46550000   -3.402 -0.17378  1.15174
    13      1     13 -0.39080000   -3.066 -0.96335  0.28293
    14      1     14 -0.17080000   -2.682  1.14968  1.42637
    15      1     15 0.08160000    1.379  0.86115 -1.01864
    16      1     16 0.08160000    1.398  0.19268  0.62280
    17      1     17 0.08160000    1.396  1.94656  0.36969
    18      1     18 0.10130000   -0.860  0.10840 -0.53890
    19      1     19 0.10130000   -0.875  1.86778 -0.56892
    20      1     20 0.11000000   -0.843  0.05889  1.90420
    21      1     21 0.10160000   -0.767  3.11734  1.75052
    22      1     22 0.10160000    0.384  2.07546  2.61093
    23      1     23 0.10030000   -1.602  3.01257  4.05958
    24      1     24 0.10030000   -1.405  1.24727  4.10555
    25      1     25 0.10180000   -3.242  2.96122  2.42331
    26      1     26 0.12300000   -4.965  2.00316  3.19525
    27      1     27 0.11340000   -4.837  1.71201  5.68850
    28      1     28 0.11340000   -3.588  0.44731  5.54863
    29      1     29 0.11910000   -6.356  0.44730  3.99094
    30      1     30 0.11910000   -5.670 -0.94254  4.86758
    31      1     31 0.12650000   -3.491 -0.77220  3.62624
    32      1     32 0.13900000   -2.991  1.80157  0.59488

Bonds 

     1      1      2      1
     2      2      3      2
     3      3      4      3
     4      4      5      4
     5      5      6      5
     6      6      7      6
     7      7      8      7
     8      8      9      8
     9      9     10      7
    10     10     11     10
    11     11     12     11
    12     12     13     12
    13     13     14      3
    14     14     15      1
    15     15     16      1
    16     16     17      1
    17     17     18      2
    18     18     19      2
    19     19     20      3
    20     20     21      4
    21     21     22      4
    22     22     23      5
    23     23     24      5
    24     24     25      6
    25     25     26      7
    26     26     27      8
    27     27     28      8
    28     28     29      9
    29     29     30      9
    30     30     31     10
    31     31     32     14
    32     32     14      6
    33     33     10      9
    34     34     14     12

Angles 

     1      1      1      2      3
     2      2      2      3      4
     3      3      3      4      5
     4      4      4      5      6
     5      5      5      6      7
     6      6      6      7      8
     7      7      7      8      9
     8      8      6      7     10
     9      9      7     10     11
    10     10     10     11     12
    11     11     11     12     13
    12     12      2      3     14
    13     13      2      1     15
    14     14      2      1     16
    15     15      2      1     17
    16     16      1      2     18
    17     17      1      2     19
    18     18      2      3     20
    19     19      3      4     21
    20     20      3      4     22
    21     21      4      5     23
    22     22      4      5     24
    23     23      5      6     25
    24     24      6      7     26
    25     25      7      8     27
    26     26      7      8     28
    27     27      8      9     29
    28     28      8      9     30
    29     29      7     10     31
    30     30      3     14     32
    31     31      7      6     14
    32     32     10      9     30
    33     33     14      6     25
    34     34     10      9     29
    35     35      6      5     24
    36     36      9      8     28
    37     37      8      7     26
    38     38      3      2     18
    39     39     11     12     14
    40     40      5      6     14
    41     41     15      1     17
    42     42      8      9     10
    43     43      7      6     25
    44     44     23      5     24
    45     45      6     14     12
    46     46     18      2     19
    47     47     21      4     22
    48     48     10      7     26
    49     49     15      1     16
    50     50     12     14     32
    51     51      3     14      6
    52     52      3     14     12
    53     53     14      3     20
    54     54      5      4     22
    55     55      3      2     19
    56     56     13     12     14
    57     57      6     14     32
    58     58      7     10      9
    59     59     16      1     17
    60     60      9     10     11
    61     61      4      3     14
    62     62      6      5     23
    63     63      9     10     31
    64     64      5      4     21
    65     65      4      3     20
    66     66     29      9     30
    67     67      8      7     10
    68     68     27      8     28
    69     69      9      8     27
    70     70     11     10     31

Dihedrals

     1      1      4      3      2      1 
     2      2      5      4      3      2 
     3      3      6      5      4      3 
     4      4      7      6      5      4 
     5      5      8      7      6      5 
     6      6      9      8      7      6 
     7      7     12     11     10      7 
     8      8     13     12     11     10 
     9      9     15      1      2      3 
    10     10     12     14      6      7 
    11     11     23      5      4     21 
    12     12     28      8      9     10 
    13     13     31     10     11     12 
    14     14     11     12     14      3 
    15     15     14     12     11     10 
    16     16     26      7      6     14 
    17     17     27      8      7     10 
    18     18     21      4      3     14 
    19     19     32     14      3      4 
    20     20     31     10      7      8 
    21     21     12     14      3      2 
    22     22     19      2      3     14 
    23     23     20      3      2     19 
    24     24     13     12     14      6 
    25     25     11     12     14      6 
    26     26     25      6      7      8 
    27     27     20      3     14      6 
    28     28     29      9      8      7 
    29     29     24      5      6     14 
    30     30     14      6      7      8 
    31     31     23      5      6      7 
    32     32     12     14      6      5 
    33     33     18      2      1     15 
    34     34     27      8      7     26 
    35     35     32     14     12     11 
    36     36     14      3      4      5 
    37     37     11     10      7      8 
    38     38     23      5      6     14 
    39     39     25      6      5     23 
    40     40     11     10      7      6 
    41     41     29      9     10      7 
    42     42     20      3      2      1 
    43     43     20      3      2     18 
    44     44     22      4      3     20 
    45     45     18      2      1     17 
    46     46     18      2      3     14 
    47     47     30      9     10      7 
    48     48     11     10      9      8 
    49     49     27      8      7      6 
    50     50     30      9      8     27 
    51     51     20      3     14     12 
    52     52     13     12     14      3 
    53     53     30      9      8      7 
    54     54     27      8      9     10 
    55     55     29      9     10     11 
    56     56     29      9      8     28 
    57     57     22      4      3      2 
    58     58     12     14      3      4 
    59     59     20      3      4      5 
    60     60     24      5      6      7 
    61     61     12     11     10      9 
    62     62     26      7      6     25 
    63     63     26      7     10      9 
    64     64     23      5      4      3 
    65     65     21      4      3      2 
    66     66     19      2      1     16 
    67     67     32     14      3      2 
    68     68     14      6      7     10 
    69     69     30      9      8     28 
    70     70     32     14      6      7 
    71     71     22      4      3     14 
    72     72      6     14      3      4 
    73     73      7      6     14      3 
    74     74     30      9     10     11 
    75     75     28      8      7     10 
    76     76     31     10      9     30 
    77     77     10      7      6      5 
    78     78     26      7     10     11 
    79     79     24      5      4      3 
    80     80     25      6     14     12 
    81     81     25      6      5     24 
    82     82     24      5      4     22 
    83     83     29      9      8     27 
    84     84     25      6      7     10 
    85     85     14      3      2      1 
    86     86     17      1      2      3 
    87     87     25      6      5      4 
    88     88     32     14      6      5 
    89     89     31     10      7      6 
    90     90     32     14     12     13 
    91     91     32     14      3     20 
    92     92      9     10      7      6 
    93     93     31     10      7     26 
    94     94     21      4      3     20 
    95     95     19      2      3      4 
    96     96      6     14      3      2 
    97     97      5      6     14      3 
    98     98     26      7      8      9 
    99     99     32     14      6     25 
   100    100     31     10      9      8 
   101    101     21      4      5      6 
   102    102     18      2      3      4 
   103    103     19      2      1     17 
   104    104     24      5      4     21 
   105    105     23      5      4     22 
   106    106     26      7      6      5 
   107    107     22      4      5      6 
   108    108     14      6      5      4 
   109    109     25      6     14      3 
   110    110     28      8      7     26 
   111    111     16      1      2      3 
   112    112     28      8      7      6 
   113    113     31     10      9     29 
   114    114     18      2      1     16 
   115    115     19      2      1     15 

Impropers

     1      1      7     10      6      8 
     2      2     10      9     11      7 
     3      3      3      2      4     14 
     4      4      1      2     15     16 
     5      5      1     17     15      2 
     6      6      2      1     18      3 
     7      7      2      1     19      3 
     8      8      3      4      2     20 
     9      9      4      5      3     21 
    10     10      4      3      5     22 
    11     11      5      4      6     23 
    12     12      5      4      6     24 
    13     13      6     25      5      7 
    14     14      7     26      6      8 
    15     15      8      9     27      7 
    16     16      8      9     28      7 
    17     17      9     10     29      8 
    18     18      9     10     30      8 
    19     19     10      9      7     31 
    20     20     14      3      6     32 
    21     21      9     10      7      8 
    22     22      9     10      7      8 
    23     23      9     10      7      8 
    24     24      9     10      7      8 
    25     25     12     11     13     14 

