LAMMPS data file Created by LigParGen - (Written by Leela S. Dodda)

      35 atoms
      35 bonds
      69 angles
     102 dihedrals
      23 impropers
 
      35 atom types
      35 bond types
      69 angle types
     102 dihedral types
      23 improper types
 
   -3.380290    46.619710 xlo xhi
   -0.577790    49.422210 ylo yhi
   -5.419580    44.580420 zlo zhi

Masses

       1     12.011  
       2     12.011  
       3     12.011  
       4     12.011  
       5     12.011  
       6     15.999  
       7     12.011  
       8     12.011  
       9     12.011  
      10     12.011  
      11     12.011  
      12     12.011  
      13     12.011  
      14      1.008  
      15      1.008  
      16      1.008  
      17      1.008  
      18      1.008  
      19      1.008  
      20      1.008  
      21      1.008  
      22      1.008  
      23      1.008  
      24      1.008  
      25      1.008  
      26      1.008  
      27      1.008  
      28      1.008  
      29      1.008  
      30      1.008  
      31      1.008  
      32      1.008  
      33      1.008  
      34      1.008  
      35      1.008  

Pair Coeffs 

       1      0.066  3.5000000 
       2      0.066  3.5000000 
       3      0.066  3.5000000 
       4      0.066  3.5000000 
       5      0.070  3.5500000 
       6      0.210  2.9600000 
       7      0.066  3.5000000 
       8      0.066  3.5000000 
       9      0.066  3.5000000 
      10      0.066  3.5000000 
      11      0.066  3.5000000 
      12      0.066  3.5000000 
      13      0.066  3.5000000 
      14      0.030  2.5000000 
      15      0.030  2.5000000 
      16      0.030  2.5000000 
      17      0.030  2.5000000 
      18      0.030  2.5000000 
      19      0.030  2.5000000 
      20      0.030  2.5000000 
      21      0.030  2.5000000 
      22      0.030  2.5000000 
      23      0.030  2.5000000 
      24      0.030  2.5000000 
      25      0.030  2.5000000 
      26      0.030  2.5000000 
      27      0.030  2.5000000 
      28      0.030  2.5000000 
      29      0.030  2.5000000 
      30      0.030  2.5000000 
      31      0.030  2.5000000 
      32      0.030  2.5000000 
      33      0.030  2.5000000 
      34      0.030  2.5000000 
      35      0.030  2.5000000 

Bond Coeffs 

       1   268.0000     1.5290 
       2   268.0000     1.5290 
       3   268.0000     1.5290 
       4   317.0000     1.5220 
       5   570.0000     1.2290 
       6   268.0000     1.5290 
       7   268.0000     1.5290 
       8   268.0000     1.5290 
       9   268.0000     1.5290 
      10   268.0000     1.5290 
      11   268.0000     1.5290 
      12   268.0000     1.5290 
      13   340.0000     1.0900 
      14   340.0000     1.0900 
      15   340.0000     1.0900 
      16   340.0000     1.0900 
      17   340.0000     1.0900 
      18   340.0000     1.0900 
      19   340.0000     1.0900 
      20   340.0000     1.0900 
      21   340.0000     1.0900 
      22   340.0000     1.0900 
      23   340.0000     1.0900 
      24   340.0000     1.0900 
      25   340.0000     1.0900 
      26   340.0000     1.0900 
      27   340.0000     1.0900 
      28   340.0000     1.0900 
      29   340.0000     1.0900 
      30   340.0000     1.0900 
      31   340.0000     1.0900 
      32   340.0000     1.0900 
      33   340.0000     1.0900 
      34   340.0000     1.0900 
      35   317.0000     1.5220 

Angle Coeffs 

       1     58.350    112.700
       2     58.350    112.700
       3     63.000    111.100
       4     80.000    120.400
       5     58.350    112.700
       6     58.350    112.700
       7     58.350    112.700
       8     58.350    112.700
       9     58.350    112.700
      10     58.350    112.700
      11     58.350    112.700
      12     37.500    110.700
      13     37.500    110.700
      14     37.500    110.700
      15     37.500    110.700
      16     37.500    110.700
      17     37.500    110.700
      18     37.500    110.700
      19     37.500    110.700
      20     37.500    110.700
      21     37.500    110.700
      22     37.500    110.700
      23     37.500    110.700
      24     37.500    110.700
      25     37.500    110.700
      26     37.500    110.700
      27     37.500    110.700
      28     37.500    110.700
      29     37.500    110.700
      30     37.500    110.700
      31     37.500    110.700
      32     37.500    110.700
      33     37.500    110.700
      34     33.000    107.800
      35     33.000    107.800
      36     63.000    111.100
      37     33.000    107.800
      38     58.350    112.700
      39     33.000    107.800
      40     35.000    109.500
      41     37.500    110.700
      42     37.500    110.700
      43     58.350    112.700
      44     37.500    110.700
      45     33.000    107.800
      46     70.000    116.000
      47     33.000    107.800
      48     33.000    107.800
      49     37.500    110.700
      50     33.000    107.800
      51     63.000    111.100
      52     33.000    107.800
      53     80.000    120.400
      54     33.000    107.800
      55     33.000    107.800
      56     37.500    110.700
      57     37.500    110.700
      58     33.000    107.800
      59     35.000    109.500
      60     33.000    107.800
      61     33.000    107.800
      62     58.350    112.700
      63     33.000    107.800
      64     35.000    109.500
      65     58.350    112.700
      66     33.000    107.800
      67     37.500    110.700
      68     58.350    112.700
      69     33.000    107.800

Dihedral Coeffs  

       1      1.300     -0.200      0.200      0.000 
       2     -2.060     -0.313      0.315      0.000 
       3      0.000      0.000      0.000      0.000 
       4      1.300     -0.200      0.200      0.000 
       5      1.300     -0.200      0.200      0.000 
       6      0.000      0.000      0.300      0.000 
       7      0.000      0.000      0.300      0.000 
       8      0.000      0.000      0.300      0.000 
       9      0.000      0.000      0.300      0.000 
      10      0.000      0.000      0.300      0.000 
      11     -2.060     -0.313      0.315      0.000 
      12      0.000      0.000     -0.100      0.000 
      13      0.000      0.000      0.000      0.000 
      14      0.000      0.000      0.300      0.000 
      15      0.000      0.000      0.300      0.000 
      16      0.000      0.000      0.300      0.000 
      17      0.000      0.000      0.300      0.000 
      18      0.000      0.000      0.300      0.000 
      19      0.000      0.000      0.300      0.000 
      20      1.300     -0.200      0.200      0.000 
      21      0.000      0.000      0.300      0.000 
      22      0.000      0.000      0.300      0.000 
      23      0.000      0.000      0.300      0.000 
      24      0.000      0.000      0.300      0.000 
      25      0.000      0.000      0.300      0.000 
      26      0.000      0.000      0.300      0.000 
      27      0.000      0.000      0.300      0.000 
      28      0.000      0.000      0.300      0.000 
      29      0.000      0.000      0.300      0.000 
      30      0.000      0.000      0.300      0.000 
      31      0.000      0.000      0.300      0.000 
      32      0.000      0.000      0.300      0.000 
      33      0.000      0.000      0.300      0.000 
      34     -2.060     -0.313      0.315      0.000 
      35      0.000      0.000      0.300      0.000 
      36      0.000      0.000     -0.100      0.000 
      37      0.000      0.000      0.300      0.000 
      38      0.000      0.000      0.300      0.000 
      39      0.000      0.000      0.300      0.000 
      40      0.000      0.000      0.300      0.000 
      41      0.000      0.000      0.300      0.000 
      42      0.000      0.000      0.300      0.000 
      43      0.000      0.000      0.300      0.000 
      44      0.000      0.000      0.300      0.000 
      45      0.000      0.000      0.300      0.000 
      46      0.000      0.000      0.275      0.000 
      47      1.300     -0.200      0.200      0.000 
      48      0.000      0.000      0.300      0.000 
      49      1.300     -0.200      0.200      0.000 
      50      0.000      0.000      0.300      0.000 
      51      0.000      0.000      0.300      0.000 
      52      0.000      0.000      0.300      0.000 
      53      0.000      0.000      0.300      0.000 
      54      0.000      0.000      0.300      0.000 
      55      0.000      0.000      0.300      0.000 
      56      0.000      0.000      0.000      0.000 
      57      0.000      0.000      0.300      0.000 
      58      0.000      0.000     -0.100      0.000 
      59      0.000      0.000      0.300      0.000 
      60      0.000      0.000      0.300      0.000 
      61      1.300     -0.200      0.200      0.000 
      62      0.000      0.000      0.300      0.000 
      63      0.000      0.000      0.300      0.000 
      64      0.000      0.000      0.300      0.000 
      65      1.300     -0.200      0.200      0.000 
      66      1.454     -0.144     -0.775      0.000 
      67     -2.060     -0.313      0.315      0.000 
      68      0.000      0.000      0.300      0.000 
      69      0.000      0.000      0.300      0.000 
      70      0.000      0.000      0.300      0.000 
      71      0.000      0.000      0.300      0.000 
      72      0.000      0.000      0.300      0.000 
      73      0.000      0.000      0.300      0.000 
      74      0.000      0.000      0.300      0.000 
      75      0.000      0.000      0.300      0.000 
      76      0.000      0.000      0.300      0.000 
      77      1.300     -0.200      0.200      0.000 
      78      0.000      0.000      0.300      0.000 
      79      1.300     -0.200      0.200      0.000 
      80      0.000      0.000      0.300      0.000 
      81      0.000      0.000      0.000      0.000 
      82      1.454     -0.144     -0.775      0.000 
      83      0.000      0.000      0.300      0.000 
      84      0.000      0.000      0.300      0.000 
      85      0.000      0.000      0.300      0.000 
      86      0.000      0.000      0.275      0.000 
      87      0.000      0.000      0.000      0.000 
      88      0.000      0.000      0.300      0.000 
      89      1.300     -0.200      0.200      0.000 
      90      1.300     -0.200      0.200      0.000 
      91      0.000      0.000      0.000      0.000 
      92      0.000      0.000      0.300      0.000 
      93      0.000      0.000      0.300      0.000 
      94      0.000      0.000      0.300      0.000 
      95     -2.060     -0.313      0.315      0.000 
      96      0.000      0.000      0.275      0.000 
      97      0.000      0.000      0.300      0.000 
      98      0.000      0.000     -0.100      0.000 
      99      0.000      0.000      0.300      0.000 
     100      1.454     -0.144     -0.775      0.000 
     101      0.000      0.000      0.300      0.000 
     102      0.000      0.000      0.300      0.000 

Improper Coeffs 

       1      0.000      -1       2 
       2      0.000      -1       2 
       3      0.000      -1       2 
       4      0.000      -1       2 
       5      0.000      -1       2 
       6      0.000      -1       2 
       7      0.000      -1       2 
       8      0.000      -1       2 
       9      0.000      -1       2 
      10      0.000      -1       2 
      11      0.000      -1       2 
      12      0.000      -1       2 
      13      0.000      -1       2 
      14      0.000      -1       2 
      15      0.000      -1       2 
      16      0.000      -1       2 
      17      0.000      -1       2 
      18      0.000      -1       2 
      19      0.000      -1       2 
      20      0.000      -1       2 
      21      0.000      -1       2 
      22      0.000      -1       2 
      23     10.500      -1       2 

Atoms 

     1      1      1 -0.23630000    1.000  1.00000  0.00000
     2      1      2 -0.11950000   -0.530  1.00000  0.00000
     3      1      3 -0.18990000   -0.998  1.00000  1.46431
     4      1      4 -0.24480000   -2.388  1.58469  1.44034
     5      1      5 0.31430000   -2.219  2.62771  0.37578
     6      1      6 -0.39700000   -2.862  3.66927  0.38160
     7      1      7 -0.15390000   -1.162  2.24960 -0.67684
     8      1      8 -0.06850000   -1.805  2.02581 -2.10431
     9      1      9 -0.24950000   -2.549  3.31960 -2.52754
    10      1     10 -0.03800000   -0.840  1.54219 -3.28033
    11      1     11 -0.23740000   -0.331  0.10061 -3.07220
    12      1     12 -0.23380000   -1.590  1.48054 -4.64114
    13      1     13 -0.23050000    0.351  2.50081 -3.46518
    14      1     14 0.08560000    1.374  0.02506  0.33444
    15      1     15 0.08560000    1.404  1.76299  0.67529
    16      1     16 0.08560000    1.427  1.19950 -0.98216
    17      1     17 0.11330000   -0.911  0.08702 -0.47073
    18      1     18 0.10140000   -0.351  1.63414  2.08379
    19      1     19 0.10140000   -0.983 -0.00625  1.89714
    20      1     20 0.13340000   -2.654  2.03368  2.40022
    21      1     21 0.13340000   -3.141  0.85816  1.12798
    22      1     22 0.13730000   -0.440  3.07228 -0.70392
    23      1     23 0.09260000   -2.583  1.25696 -1.99186
    24      1     24 0.09150000   -1.874  4.18125 -2.54260
    25      1     25 0.09150000   -3.380  3.54697 -1.85682
    26      1     26 0.09150000   -3.022  3.23414 -3.50812
    27      1     27 0.08200000   -1.158 -0.57779 -2.83710
    28      1     28 0.08200000    0.415  0.01120 -2.28906
    29      1     29 0.08200000    0.158 -0.28272 -3.97665
    30      1     30 0.08260000   -2.494  0.86692 -4.56348
    31      1     31 0.08260000   -0.957  1.03619 -5.41958
    32      1     32 0.08260000   -1.866  2.47012 -5.01701
    33      1     33 0.08240000    0.963  2.58050 -2.56509
    34      1     34 0.08240000    0.015  3.51098 -3.72302
    35      1     35 0.08240000    1.006  2.16146 -4.27618

Bonds 

     1      1      2      1
     2      2      3      2
     3      3      4      3
     4      4      5      4
     5      5      6      5
     6      6      7      2
     7      7      8      7
     8      8      9      8
     9      9     10      8
    10     10     11     10
    11     11     12     10
    12     12     13     10
    13     13     14      1
    14     14     15      1
    15     15     16      1
    16     16     17      2
    17     17     18      3
    18     18     19      3
    19     19     20      4
    20     20     21      4
    21     21     22      7
    22     22     23      8
    23     23     24      9
    24     24     25      9
    25     25     26      9
    26     26     27     11
    27     27     28     11
    28     28     29     11
    29     29     30     12
    30     30     31     12
    31     31     32     12
    32     32     33     13
    33     33     34     13
    34     34     35     13
    35     35      7      5

Angles 

     1      1      1      2      3
     2      2      2      3      4
     3      3      3      4      5
     4      4      4      5      6
     5      5      1      2      7
     6      6      2      7      8
     7      7      7      8      9
     8      8      7      8     10
     9      9      8     10     11
    10     10      8     10     12
    11     11      8     10     13
    12     12      2      1     14
    13     13      2      1     15
    14     14      2      1     16
    15     15      1      2     17
    16     16      2      3     18
    17     17      2      3     19
    18     18      3      4     20
    19     19      3      4     21
    20     20      2      7     22
    21     21      7      8     23
    22     22      8      9     24
    23     23      8      9     25
    24     24      8      9     26
    25     25     10     11     27
    26     26     10     11     28
    27     27     10     11     29
    28     28     10     12     30
    29     29     10     12     31
    30     30     10     12     32
    31     31     10     13     33
    32     32     10     13     34
    33     33     10     13     35
    34     34     33     13     34
    35     35     24      9     25
    36     36      5      7      8
    37     37     14      1     16
    38     38     11     10     12
    39     39     25      9     26
    40     40      5      7     22
    41     41      3      2     17
    42     42      9      8     23
    43     43     12     10     13
    44     44      4      3     19
    45     45     34     13     35
    46     46      4      5      7
    47     47     30     12     32
    48     48     18      3     19
    49     49      4      3     18
    50     50     24      9     26
    51     51      2      7      5
    52     52     30     12     31
    53     53      6      5      7
    54     54     14      1     15
    55     55     33     13     35
    56     56      7      2     17
    57     57      8      7     22
    58     58     31     12     32
    59     59      5      4     20
    60     60     27     11     28
    61     61     15      1     16
    62     62     11     10     13
    63     63     28     11     29
    64     64      5      4     21
    65     65      3      2      7
    66     66     27     11     29
    67     67     10      8     23
    68     68      9      8     10
    69     69     20      4     21

Dihedrals

     1      1      4      3      2      1 
     2      2      5      4      3      2 
     3      3      6      5      4      3 
     4      4      9      8      7      2 
     5      5     11     10      8      7 
     6      6     14      1      2      3 
     7      7     24      9      8      7 
     8      8     27     11     10      8 
     9      9     30     12     10      8 
    10     10     33     13     10      8 
    11     11     10      8      7      5 
    12     12     17      2      7      5 
    13     13      6      5      7      2 
    14     14     31     12     10      8 
    15     15     23      8     10     11 
    16     16     34     13     10     11 
    17     17     20      4      3     18 
    18     18     34     13     10     12 
    19     19     35     13     10     11 
    20     20     12     10      8      7 
    21     21     26      9      8      7 
    22     22     23      8     10     13 
    23     23     24      9      8     10 
    24     24     18      3      2     17 
    25     25     26      9      8     10 
    26     26     23      8      7     22 
    27     27     32     12     10     13 
    28     28     17      2      1     16 
    29     29     29     11     10     12 
    30     30     17      2      3      4 
    31     31     33     13     10     11 
    32     32     27     11     10     12 
    33     33     35     13     10     12 
    34     34      9      8      7      5 
    35     35     19      3      2      1 
    36     36     19      3      4      5 
    37     37     23      8      7      2 
    38     38     22      7      8      9 
    39     39     32     12     10     11 
    40     40     21      4      3     19 
    41     41     17      2      1     15 
    42     42     30     12     10     13 
    43     43     22      7      2      3 
    44     44     17      2      7      8 
    45     45     25      9      8     23 
    46     46     22      7      5      4 
    47     47     13     10      8      9 
    48     48     22      7      2      1 
    49     49      7      2      3      4 
    50     50     28     11     10     13 
    51     51     14      1      2      7 
    52     52     18      3      2      1 
    53     53     33     13     10     12 
    54     54     23      8     10     12 
    55     55     25      9      8      7 
    56     56     20      4      5      6 
    57     57     21      4      3      2 
    58     58     18      3      4      5 
    59     59     34     13     10      8 
    60     60     32     12     10      8 
    61     61      8      7      2      3 
    62     62     25      9      8     10 
    63     63     29     11     10      8 
    64     64     20      4      3      2 
    65     65     10      8      7      2 
    66     66      4      5      7      2 
    67     67      5      7      2      3 
    68     68     31     12     10     13 
    69     69     29     11     10     13 
    70     70     15      1      2      3 
    71     71     28     11     10     12 
    72     72     18      3      2      7 
    73     73     27     11     10     13 
    74     74     26      9      8     23 
    75     75     22      7      2     17 
    76     76     22      7      8     10 
    77     77      8      7      2      1 
    78     78     16      1      2      7 
    79     79     12     10      8      9 
    80     80     31     12     10     11 
    81     81      8      7      5      6 
    82     82      7      5      4      3 
    83     83     19      3      2     17 
    84     84     20      4      3     19 
    85     85     21      4      3     18 
    86     86     20      4      5      7 
    87     87     21      4      5      6 
    88     88     19      3      2      7 
    89     89     11     10      8      9 
    90     90     13     10      8      7 
    91     91     22      7      5      6 
    92     92     15      1      2      7 
    93     93     30     12     10     11 
    94     94     28     11     10      8 
    95     95      5      7      2      1 
    96     96     21      4      5      7 
    97     97     16      1      2      3 
    98     98     23      8      7      5 
    99     99     17      2      1     14 
   100    100      8      7      5      4 
   101    101     35     13     10      8 
   102    102     24      9      8     23 

Impropers

     1      1      2      1      3      7 
     2      2      7      2      5      8 
     3      3      8      9     10      7 
     4      4     10     11     12      8 
     5      5     10     11     13      8 
     6      6      1      2     14     15 
     7      7      1      2     14     16 
     8      8      2     17      3      1 
     9      9      3     18      4      2 
    10     10      3      2     19      4 
    11     11      4      3     20      5 
    12     12      4      5      3     21 
    13     13      7      2      5     22 
    14     14      8      9      7     23 
    15     15      9     25     24      8 
    16     16      9     26     24      8 
    17     17     11     10     28     27 
    18     18     11     10     29     27 
    19     19     12     10     30     31 
    20     20     12     10     30     32 
    21     21     13     33     34     10 
    22     22     13     33     10     35 
    23     23      5      4      6      7 

