LAMMPS data file Created by LigParGen - (Written by Leela S. Dodda)

      38 atoms
      39 bonds
      79 angles
     118 dihedrals
      24 impropers
 
      38 atom types
      39 bond types
      79 angle types
     118 dihedral types
      24 improper types
 
   -7.939070    42.060930 xlo xhi
   -0.529500    49.470500 ylo yhi
   -1.025980    48.974020 zlo zhi

Masses

       1     12.011  
       2     12.011  
       3     12.011  
       4     12.011  
       5     12.011  
       6     12.011  
       7     12.011  
       8     12.011  
       9     12.011  
      10     12.011  
      11     12.011  
      12     12.011  
      13     15.999  
      14     12.011  
      15      1.008  
      16      1.008  
      17      1.008  
      18      1.008  
      19      1.008  
      20      1.008  
      21      1.008  
      22      1.008  
      23      1.008  
      24      1.008  
      25      1.008  
      26      1.008  
      27      1.008  
      28      1.008  
      29      1.008  
      30      1.008  
      31      1.008  
      32      1.008  
      33      1.008  
      34      1.008  
      35      1.008  
      36      1.008  
      37      1.008  
      38      1.008  

Pair Coeffs 

       1      0.066  3.5000000 
       2      0.066  3.5000000 
       3      0.066  3.5000000 
       4      0.083  3.4500000 
       5      0.083  3.4500000 
       6      0.066  3.5000000 
       7      0.066  3.5000000 
       8      0.066  3.5000000 
       9      0.066  3.5000000 
      10      0.066  3.5000000 
      11      0.066  3.5000000 
      12      0.083  3.4500000 
      13      0.140  2.9000000 
      14      0.066  3.5000000 
      15      0.030  2.5000000 
      16      0.030  2.5000000 
      17      0.030  2.5000000 
      18      0.030  2.5000000 
      19      0.030  2.5000000 
      20      0.030  2.5000000 
      21      0.030  2.5000000 
      22      0.030  2.5000000 
      23      0.030  2.5000000 
      24      0.030  2.5000000 
      25      0.030  2.5000000 
      26      0.030  2.5000000 
      27      0.030  2.5000000 
      28      0.030  2.5000000 
      29      0.030  2.5000000 
      30      0.030  2.5000000 
      31      0.030  2.5000000 
      32      0.030  2.5000000 
      33      0.030  2.5000000 
      34      0.030  2.5000000 
      35      0.030  2.5000000 
      36      0.030  2.5000000 
      37      0.030  2.5000000 
      38      0.030  2.5000000 

Bond Coeffs 

       1   268.0000     1.5290 
       2   268.0000     1.5290 
       3   280.0000     1.5100 
       4   260.0000     1.5200 
       5   280.0000     1.5100 
       6   268.0000     1.5290 
       7   268.0000     1.5290 
       8   268.0000     1.5290 
       9   268.0000     1.5290 
      10   268.0000     1.5290 
      11   260.0000     1.5200 
      12   320.0000     1.4100 
      13   320.0000     1.4100 
      14   340.0000     1.0900 
      15   340.0000     1.0900 
      16   340.0000     1.0900 
      17   340.0000     1.0900 
      18   340.0000     1.0900 
      19   340.0000     1.0900 
      20   340.0000     1.0900 
      21   340.0000     1.0880 
      22   340.0000     1.0880 
      23   340.0000     1.0900 
      24   340.0000     1.0900 
      25   340.0000     1.0900 
      26   340.0000     1.0900 
      27   340.0000     1.0900 
      28   340.0000     1.0900 
      29   340.0000     1.0900 
      30   340.0000     1.0900 
      31   340.0000     1.0900 
      32   340.0000     1.0900 
      33   340.0000     1.0900 
      34   340.0000     1.0900 
      35   340.0000     1.0900 
      36   340.0000     1.0900 
      37   340.0000     1.0900 
      38   260.0000     1.5200 
      39   280.0000     1.5100 

Angle Coeffs 

       1     58.350    112.700
       2     58.350    112.700
       3     37.500    117.200
       4     37.500    117.200
       5     58.350    112.700
       6     58.350    112.700
       7     58.350    112.700
       8     58.350    112.700
       9     58.350    112.700
      10     37.500    117.200
      11     50.000    109.500
      12     60.000    109.500
      13     37.500    110.700
      14     37.500    110.700
      15     37.500    110.700
      16     37.500    110.700
      17     37.500    110.700
      18     37.500    110.700
      19     37.500    110.700
      20     35.000    114.300
      21     37.500    117.200
      22     37.500    110.700
      23     37.500    110.700
      24     37.500    110.700
      25     37.500    110.700
      26     37.500    110.700
      27     37.500    110.700
      28     37.500    110.700
      29     37.500    110.700
      30     37.500    110.700
      31     37.500    110.700
      32     37.500    110.700
      33     37.500    110.700
      34     35.000    109.500
      35     35.000    109.500
      36     35.000    109.500
      37     37.500    117.200
      38     33.000    107.800
      39     37.500    110.700
      40     33.000    107.800
      41     30.000     83.000
      42     37.500    110.700
      43     37.500    110.700
      44     58.350    112.700
      45     30.000     83.000
      46     37.500    110.700
      47     33.000    107.800
      48     37.500    110.700
      49     50.000    109.500
      50     33.000    107.800
      51     33.000    107.800
      52     37.500    110.700
      53     33.000    107.800
      54     37.500    117.200
      55     37.500    110.700
      56     33.000    107.800
      57     33.000    107.800
      58     37.500    110.700
      59     33.000    107.800
      60     37.500    117.200
      61     37.500    117.200
      62     33.000    107.800
      63     37.500    110.700
      64     33.000    107.800
      65     33.000    107.800
      66     30.000     83.000
      67     33.000    107.800
      68     33.000    107.800
      69     35.000    114.300
      70     58.350    112.700
      71     37.500    110.700
      72     37.500    110.700
      73     33.000    107.800
      74     50.000    109.500
      75     58.350    112.700
      76     37.500    117.200
      77     37.500    117.200
      78     33.000    107.800
      79     37.500    110.700

Dihedral Coeffs  

       1      1.300     -0.200      0.200      0.000 
       2      0.000      0.000      0.000      0.000 
       3      0.000      0.000      0.000      0.000 
       4      0.000      0.000      0.000      0.000 
       5      1.300     -0.200      0.200      0.000 
       6      1.300     -0.200      0.200      0.000 
       7      1.300     -0.200      0.200      0.000 
       8      0.000      0.000      0.000      0.000 
       9      0.000      0.000      0.000      0.000 
      10      0.650     -0.250      0.670      0.000 
      11      0.000      0.000      0.300      0.000 
      12      0.000      0.000      0.300      0.000 
      13      0.000      0.000      0.300      0.000 
      14      0.000      0.000      0.760      0.000 
      15      0.000      0.000      0.300      0.000 
      16      0.000      0.000      0.000      0.000 
      17      0.000      0.000      0.000      0.000 
      18      0.000      0.000      0.000      0.000 
      19      0.000      0.000      0.000      0.000 
      20      0.000      0.000     -0.553      0.000 
      21      0.000      0.000      0.300      0.000 
      22      0.000      0.000      0.300      0.000 
      23      0.000      0.000      0.300      0.000 
      24      0.000      0.000      0.300      0.000 
      25      0.000      0.000      0.300      0.000 
      26      1.300     -0.200      0.200      0.000 
      27      0.000      0.000      0.300      0.000 
      28      0.000      0.000      0.300      0.000 
      29      0.000      0.000     -0.553      0.000 
      30      0.000      0.000      0.300      0.000 
      31      0.000      0.000      0.300      0.000 
      32      0.000      0.000      0.300      0.000 
      33      0.000      0.000      0.300      0.000 
      34      0.000      0.000      0.468      0.000 
      35      0.000      0.000      0.300      0.000 
      36      0.000      0.000      0.000      0.000 
      37      0.000      0.000      0.300      0.000 
      38      0.000      0.000      0.300      0.000 
      39      0.000      0.000      0.300      0.000 
      40      0.000      0.000      0.300      0.000 
      41      0.000      0.000      0.300      0.000 
      42      0.000      0.000      0.300      0.000 
      43      0.650     -0.250      0.670      0.000 
      44      0.000      0.000      0.300      0.000 
      45      0.000      0.000      0.300      0.000 
      46      0.000      0.000      0.300      0.000 
      47      0.000      0.000      0.300      0.000 
      48      0.000      0.000      0.000      0.000 
      49      0.000      0.000      0.000      0.000 
      50      0.000      0.000      0.000      0.000 
      51      0.000      0.000      0.300      0.000 
      52      0.000      0.000      0.300      0.000 
      53      0.000      0.000      0.300      0.000 
      54      0.000      0.000      0.300      0.000 
      55      0.000      0.000      0.300      0.000 
      56      0.000      0.000      0.300      0.000 
      57      0.000      0.000      0.300      0.000 
      58      0.000      0.000      0.300      0.000 
      59      0.000      0.000      0.760      0.000 
      60      0.000      0.000      0.300      0.000 
      61      0.000      0.000      0.000      0.000 
      62      0.000      0.000      0.000      0.000 
      63      0.000      0.000      0.000      0.000 
      64      0.000      0.000      0.300      0.000 
      65      0.000      0.000      0.300      0.000 
      66      0.000      0.000      0.300      0.000 
      67      0.000      0.000      0.300      0.000 
      68      0.000      0.000      0.300      0.000 
      69      0.000      0.000      0.300      0.000 
      70      0.000      0.000      0.300      0.000 
      71      0.000      0.000      0.300      0.000 
      72      0.000      0.000      0.300      0.000 
      73      0.000      0.000      0.300      0.000 
      74      1.300     -0.200      0.200      0.000 
      75      0.000      0.000      0.000      0.000 
      76      0.000      0.000      0.300      0.000 
      77      0.000      0.000      0.000      0.000 
      78      0.000      0.000      0.300      0.000 
      79      0.650     -0.250      0.670      0.000 
      80      0.000      0.000      0.300      0.000 
      81      0.000      0.000      0.300      0.000 
      82      0.000      0.000      0.000      0.000 
      83      0.000      0.000      0.300      0.000 
      84      0.000      0.000      0.300      0.000 
      85      0.000      0.000      0.300      0.000 
      86      0.000      0.000      0.000      0.000 
      87      0.000      0.000      0.300      0.000 
      88      0.000      0.000      0.300      0.000 
      89      0.000      0.000      0.300      0.000 
      90      0.000      0.000      0.000      0.000 
      91      0.000      0.000      0.300      0.000 
      92      0.000      0.000      0.000      0.000 
      93      0.000      0.000      0.300      0.000 
      94      0.000      0.000      0.300      0.000 
      95      0.000      0.000      0.760      0.000 
      96      0.000      0.000      0.300      0.000 
      97      0.000      0.000      0.000      0.000 
      98      0.000      0.000      0.300      0.000 
      99      0.000      0.000      0.300      0.000 
     100      0.000      0.000      0.000      0.000 
     101      1.300     -0.200      0.200      0.000 
     102      1.300     -0.200      0.200      0.000 
     103      0.000      0.000      0.300      0.000 
     104      0.000      0.000      0.300      0.000 
     105      0.000      0.000      0.000      0.000 
     106      0.000      0.000      0.300      0.000 
     107      0.000      0.000      0.300      0.000 
     108      0.000      0.000      0.300      0.000 
     109      0.000      0.000      0.000      0.000 
     110      0.000      0.000      0.000      0.000 
     111      0.000      0.000      0.300      0.000 
     112      0.000      0.000      0.300      0.000 
     113      0.000      0.000      0.000      0.000 
     114      0.000      0.000      0.000      0.000 
     115      0.000      0.000      0.000      0.000 
     116      0.000      0.000      0.300      0.000 
     117      0.000      0.000      0.300      0.000 
     118      0.000      0.000      0.300      0.000 

Improper Coeffs 

       1      0.000      -1       2 
       2      0.000      -1       2 
       3      0.000      -1       2 
       4      0.000      -1       2 
       5      0.000      -1       2 
       6      0.000      -1       2 
       7      0.000      -1       2 
       8      0.000      -1       2 
       9      0.000      -1       2 
      10      0.000      -1       2 
      11      0.000      -1       2 
      12      0.000      -1       2 
      13      0.000      -1       2 
      14      0.000      -1       2 
      15      0.000      -1       2 
      16      0.000      -1       2 
      17      0.000      -1       2 
      18      0.000      -1       2 
      19      0.000      -1       2 
      20      0.000      -1       2 
      21      0.000      -1       2 
      22      0.000      -1       2 
      23      0.000      -1       2 
      24      0.000      -1       2 

Atoms 

     1      1      1 -0.23920000    1.000  1.00000  0.00000
     2      1      2 -0.17680000   -0.522  1.00000  0.00000
     3      1      3 -0.15070000   -1.075  1.00000  1.42426
     4      1      4 -0.15770000   -2.577  1.00176  1.45336
     5      1      5 -0.18070000   -3.220  1.00359  2.81240
     6      1      6 -0.14450000   -4.444  0.21425  3.13389
     7      1      7 -0.16960000   -5.507  1.17477  3.65074
     8      1      8 -0.10270000   -5.821  2.33889  2.67837
     9      1      9 -0.23360000   -7.296  2.30167  2.26997
    10      1     10 -0.07500000   -4.844  2.47988  1.46983
    11      1     11 -0.23070000   -5.244  1.70665  0.20773
    12      1     12 0.05050000   -3.402  2.20820  1.91067
    13      1     13 -0.35010000   -2.684  3.36618  2.40296
    14      1     14 -0.05050000   -2.436  4.36967  1.42922
    15      1     15 0.08130000    1.381  0.99870 -1.02598
    16      1     16 0.08130000    1.392  0.11291  0.50858
    17      1     17 0.08130000    1.391  1.88789  0.50741
    18      1     18 0.08690000   -0.879  0.11277 -0.53767
    19      1     19 0.08690000   -0.887  1.87580 -0.54777
    20      1     20 0.10210000   -0.671  1.85677  1.97454
    21      1     21 0.10210000   -0.721  0.09874  1.94053
    22      1     22 0.13710000   -2.990  0.31482  0.72309
    23      1     23 0.14740000   -2.593  1.14057  3.68789
    24      1     24 0.09360000   -4.210 -0.52950  3.90421
    25      1     25 0.09360000   -4.819 -0.33929  2.26734
    26      1     26 0.09010000   -5.135  1.61770  4.58600
    27      1     27 0.09010000   -6.411  0.62025  3.92317
    28      1     28 0.09860000   -5.700  3.25835  3.27003
    29      1     29 0.08180000   -7.547  1.36459  1.76186
    30      1     30 0.08180000   -7.541  3.13680  1.60621
    31      1     31 0.08180000   -7.939  2.38051  3.15394
    32      1     32 0.09910000   -4.907  3.53230  1.16389
    33      1     33 0.08410000   -5.321  0.63036  0.37757
    34      1     34 0.08410000   -4.509  1.86799 -0.58835
    35      1     35 0.08410000   -6.210  2.05074 -0.17719
    36      1     36 0.08090000   -1.524  4.90251  1.70656
    37      1     37 0.08090000   -3.264  5.08506  1.42723
    38      1     38 0.08090000   -2.307  3.94171  0.43000

Bonds 

     1      1      2      1
     2      2      3      2
     3      3      4      3
     4      4      5      4
     5      5      6      5
     6      6      7      6
     7      7      8      7
     8      8      9      8
     9      9     10      8
    10     10     11     10
    11     11     12      4
    12     12     13     12
    13     13     14     13
    14     14     15      1
    15     15     16      1
    16     16     17      1
    17     17     18      2
    18     18     19      2
    19     19     20      3
    20     20     21      3
    21     21     22      4
    22     22     23      5
    23     23     24      6
    24     24     25      6
    25     25     26      7
    26     26     27      7
    27     27     28      8
    28     28     29      9
    29     29     30      9
    30     30     31      9
    31     31     32     10
    32     32     33     11
    33     33     34     11
    34     34     35     11
    35     35     36     14
    36     36     37     14
    37     37     38     14
    38     38     12      5
    39     39     12     10

Angles 

     1      1      1      2      3
     2      2      2      3      4
     3      3      3      4      5
     4      4      4      5      6
     5      5      5      6      7
     6      6      6      7      8
     7      7      7      8      9
     8      8      7      8     10
     9      9      8     10     11
    10     10      3      4     12
    11     11      4     12     13
    12     12     12     13     14
    13     13      2      1     15
    14     14      2      1     16
    15     15      2      1     17
    16     16      1      2     18
    17     17      1      2     19
    18     18      2      3     20
    19     19      2      3     21
    20     20      3      4     22
    21     21      4      5     23
    22     22      5      6     24
    23     23      5      6     25
    24     24      6      7     26
    25     25      6      7     27
    26     26      7      8     28
    27     27      8      9     29
    28     28      8      9     30
    29     29      8      9     31
    30     30      8     10     32
    31     31     10     11     33
    32     32     10     11     34
    33     33     10     11     35
    34     34     13     14     36
    35     35     13     14     37
    36     36     13     14     38
    37     37      5     12     10
    38     38     30      9     31
    39     39      8      7     27
    40     40     29      9     30
    41     41      5      4     12
    42     42      8      7     26
    43     43      3      2     18
    44     44     11     10     12
    45     45      4     12      5
    46     46      9      8     28
    47     47     24      6     25
    48     48      7      6     25
    49     49     10     12     13
    50     50     29      9     31
    51     51     33     11     34
    52     52     10      8     28
    53     53     34     11     35
    54     54      5      4     22
    55     55      7      6     24
    56     56     33     11     35
    57     57     18      2     19
    58     58      3      2     19
    59     59     15      1     16
    60     60     12      4     22
    61     61      6      5     12
    62     62     37     14     38
    63     63      4      3     21
    64     64     26      7     27
    65     65     36     14     38
    66     66      4      5     12
    67     67     15      1     17
    68     68     16      1     17
    69     69      6      5     23
    70     70      8     10     12
    71     71     11     10     32
    72     72      4      3     20
    73     73     36     14     37
    74     74      5     12     13
    75     75      9      8     10
    76     76     12      5     23
    77     77      4     12     10
    78     78     20      3     21
    79     79     12     10     32

Dihedrals

     1      1      4      3      2      1 
     2      2      5      4      3      2 
     3      3      6      5      4      3 
     4      4      7      6      5      4 
     5      5      8      7      6      5 
     6      6      9      8      7      6 
     7      7     11     10      8      7 
     8      8     12      4      3      5 
     9      9     13     12      4      5 
    10     10     14     13     12      4 
    11     11     15      1      2      3 
    12     12     29      9      8      7 
    13     13     33     11     10      8 
    14     14     36     14     13     12 
    15     15     35     11     10     12 
    16     16     23      5     12     13 
    17     17     22      4     12     13 
    18     18     13     12      5      6 
    19     19     10     12      5      4 
    20     20     13     12     10      8 
    21     21     26      7      6     25 
    22     22     27      7      6     24 
    23     23     20      3      2     19 
    24     24     21      3      2     18 
    25     25     34     11     10     12 
    26     26     12     10      8      7 
    27     27     34     11     10     32 
    28     28     20      3      4     12 
    29     29     13     12     10     11 
    30     30     30      9      8     10 
    31     31     35     11     10     32 
    32     32     25      6      7      8 
    33     33     23      5      6      7 
    34     34     32     10     12     13 
    35     35     18      2      1     15 
    36     36     10     12      4      3 
    37     37     31      9      8      7 
    38     38     26      7      8     10 
    39     39     27      7      8      9 
    40     40     27      7      8     10 
    41     41     25      6      5     23 
    42     42     32     10      8     28 
    43     43     14     13     12      5 
    44     44     28      8      7     26 
    45     45     20      3      2      1 
    46     46     20      3      2     18 
    47     47     22      4      3     20 
    48     48     10     12      5      6 
    49     49     10     12      4      5 
    50     50     23      5      4     12 
    51     51     29      9      8     28 
    52     52     26      7      6     24 
    53     53     26      7      6      5 
    54     54     30      9      8      7 
    55     55     32     10      8      7 
    56     56     31      9      8     28 
    57     57     22      4      3      2 
    58     58     28      8      7     27 
    59     59     37     14     13     12 
    60     60     20      3      4      5 
    61     61     23      5     12      4 
    62     62     23      5      4      3 
    63     63      8     10     12      4 
    64     64     18      2      1     17 
    65     65     19      2      1     16 
    66     66     30      9      8     28 
    67     67     29      9      8     10 
    68     68     32     10      8      9 
    69     69     24      6      5      4 
    70     70     21      3      2     19 
    71     71     28      8     10     12 
    72     72     21      3      4      5 
    73     73     31      9      8     10 
    74     74     12     10      8      9 
    75     75     13     12      5      4 
    76     76     24      6      5     12 
    77     77      8     10     12      5 
    78     78     32     10     12      4 
    79     79     14     13     12     10 
    80     80     25      6      5     12 
    81     81     27      7      6     25 
    82     82     22      4     12     10 
    83     83     28      8      7      6 
    84     84     34     11     10      8 
    85     85     27      7      6      5 
    86     86     12      4      3      2 
    87     87     17      1      2      3 
    88     88     24      6      7      8 
    89     89     25      6      5      4 
    90     90     11     10     12      4 
    91     91     33     11     10     12 
    92     92     13     12      4      3 
    93     93     35     11     10      8 
    94     94     19      2      3      4 
    95     95     38     14     13     12 
    96     96     26      7      8      9 
    97     97      6      5     12      4 
    98     98     21      3      4     12 
    99     99     22      4      3     21 
   100    100     12      5      6      7 
   101    101     10      8      7      6 
   102    102     11     10      8      9 
   103    103     18      2      3      4 
   104    104     19      2      1     17 
   105    105     23      5      4     22 
   106    106     21      3      2      1 
   107    107     28      8     10     11 
   108    108     33     11     10     32 
   109    109     22      4      5      6 
   110    110     22      4     12      5 
   111    111     32     10     12      5 
   112    112     16      1      2      3 
   113    113     22      4      5     12 
   114    114     11     10     12      5 
   115    115     23      5     12     10 
   116    116     18      2      1     16 
   117    117     24      6      5     23 
   118    118     19      2      1     15 

Impropers

     1      1      8      9     10      7 
     2      2      1      2     15     16 
     3      3      1     17     15      2 
     4      4      2      1     18      3 
     5      5      2      1     19      3 
     6      6      3      4      2     20 
     7      7      3      2      4     21 
     8      8      4      3      5     22 
     9      9      5      4      6     23 
    10     10      6      5      7     24 
    11     11      6     25      5      7 
    12     12      7     26      6      8 
    13     13      7     27      6      8 
    14     14      8      9     28      7 
    15     15      9     29     30      8 
    16     16      9     29     31      8 
    17     17     10     11      8     32 
    18     18     11     33     34     10 
    19     19     11     33     10     35 
    20     20     14     13     36     37 
    21     21     14     36     13     38 
    22     22      4     12      5      3 
    23     23      4     12      5      3 
    24     24      5      4     12      6 

