LAMMPS data file Created by LigParGen - (Written by Leela S. Dodda)

      29 atoms
      30 bonds
      60 angles
      89 dihedrals
      20 impropers
 
      29 atom types
      30 bond types
      60 angle types
      89 dihedral types
      20 improper types
 
   -4.958370    45.041630 xlo xhi
   -0.063070    49.936930 ylo yhi
   -4.400450    45.599550 zlo zhi

Masses

       1     12.011  
       2     12.011  
       3     15.999  
       4     12.011  
       5     12.011  
       6     12.011  
       7     12.011  
       8     12.011  
       9     15.999  
      10     12.011  
      11     12.011  
      12     12.011  
      13     12.011  
      14      1.008  
      15      1.008  
      16      1.008  
      17      1.008  
      18      1.008  
      19      1.008  
      20      1.008  
      21      1.008  
      22      1.008  
      23      1.008  
      24      1.008  
      25      1.008  
      26      1.008  
      27      1.008  
      28      1.008  
      29      1.008  

Pair Coeffs 

       1      0.066  3.5000000 
       2      0.070  3.5500000 
       3      0.210  2.9600000 
       4      0.066  3.5000000 
       5      0.066  3.5000000 
       6      0.083  3.4500000 
       7      0.070  3.5500000 
       8      0.066  3.5000000 
       9      0.210  2.9600000 
      10      0.083  3.4500000 
      11      0.083  3.4500000 
      12      0.066  3.5000000 
      13      0.066  3.5000000 
      14      0.030  2.5000000 
      15      0.030  2.5000000 
      16      0.030  2.5000000 
      17      0.030  2.5000000 
      18      0.030  2.5000000 
      19      0.030  2.5000000 
      20      0.030  2.5000000 
      21      0.030  2.5000000 
      22      0.030  2.5000000 
      23      0.030  2.5000000 
      24      0.030  2.5000000 
      25      0.030  2.5000000 
      26      0.030  2.5000000 
      27      0.030  2.5000000 
      28      0.030  2.5000000 
      29      0.030  2.5000000 

Bond Coeffs 

       1   317.0000     1.5220 
       2   570.0000     1.2290 
       3   317.0000     1.5220 
       4   268.0000     1.5290 
       5   280.0000     1.5100 
       6   317.0000     1.5220 
       7   317.0000     1.5220 
       8   570.0000     1.2290 
       9   260.0000     1.5200 
      10   260.0000     1.5200 
      11   268.0000     1.5290 
      12   268.0000     1.5290 
      13   340.0000     1.0900 
      14   340.0000     1.0900 
      15   340.0000     1.0900 
      16   340.0000     1.0900 
      17   340.0000     1.0900 
      18   340.0000     1.0900 
      19   340.0000     1.0900 
      20   340.0000     1.0900 
      21   340.0000     1.0900 
      22   340.0000     1.0880 
      23   340.0000     1.0880 
      24   340.0000     1.0880 
      25   340.0000     1.0900 
      26   340.0000     1.0900 
      27   340.0000     1.0900 
      28   340.0000     1.0900 
      29   260.0000     1.5200 
      30   280.0000     1.5100 

Angle Coeffs 

       1     80.000    120.400
       2     70.000    116.000
       3     63.000    111.100
       4     58.350    112.700
       5     63.000    111.100
       6     70.000    116.000
       7     80.000    120.400
       8     37.500    117.200
       9     37.500    117.200
      10     63.000    111.100
      11     58.350    112.700
      12     35.000    109.500
      13     35.000    109.500
      14     35.000    109.500
      15     35.000    109.500
      16     37.500    110.700
      17     37.500    110.700
      18     35.000    109.500
      19     35.000    109.500
      20     35.000    109.500
      21     37.500    117.200
      22     37.500    117.200
      23     37.500    117.200
      24     37.500    110.700
      25     37.500    110.700
      26     37.500    110.700
      27     37.500    110.700
      28     33.000    107.800
      29     37.500    110.700
      30     58.350    112.700
      31     37.500    117.200
      32     33.000    107.800
      33     30.000     83.000
      34     37.500    110.700
      35     33.000    107.800
      36     80.000    120.400
      37     30.000     83.000
      38     37.500    117.200
      39     63.000    111.100
      40     30.000     83.000
      41     33.000    107.800
      42     58.350    112.700
      43     37.500    117.200
      44     33.000    107.800
      45     33.000    107.800
      46     80.000    120.400
      47     33.000    107.800
      48     35.000    114.300
      49     33.000    107.800
      50     33.000    107.800
      51     33.000    107.800
      52     35.000    114.300
      53     58.350    112.700
      54     37.500    110.700
      55     37.500    117.200
      56     37.500    110.700
      57     63.000    111.100
      58     37.500    110.700
      59     37.500    117.200
      60     37.500    110.700

Dihedral Coeffs  

       1      1.454     -0.144     -0.775      0.000 
       2     -2.060     -0.313      0.315      0.000 
       3     -2.060     -0.313      0.315      0.000 
       4      1.454     -0.144     -0.775      0.000 
       5      0.000      0.000      0.000      0.000 
       6      0.000      0.000      0.275      0.000 
       7      0.000      0.000      0.000      0.000 
       8      0.000      0.000      0.000      0.000 
       9      0.000      0.000      0.000      0.000 
      10      0.000      0.000      0.300      0.000 
      11      0.000      0.000      0.300      0.000 
      12      0.000      0.000      0.300      0.000 
      13      0.000      0.000      0.000      0.000 
      14      0.000      0.000      0.000      0.000 
      15      0.000      0.000      0.300      0.000 
      16      0.000      0.000      0.300      0.000 
      17      0.000      0.000      0.300      0.000 
      18      0.000      0.000      0.000      0.000 
      19      0.000      0.000      0.300      0.000 
      20      0.000      0.000      0.000      0.000 
      21      0.000      0.000      0.000      0.000 
      22      0.000      0.000      0.000      0.000 
      23      0.000      0.000      0.300      0.000 
      24      0.000      0.000      0.300      0.000 
      25     -2.060     -0.313      0.315      0.000 
      26      0.000      0.000      0.000      0.000 
      27      0.000      0.000      0.300      0.000 
      28      0.000      0.000      0.300      0.000 
      29      0.000      0.000      0.000      0.000 
      30      0.000      0.000      0.000      0.000 
      31      0.000      0.000      0.000      0.000 
      32      1.300     -0.200      0.200      0.000 
      33      0.000      0.000      0.000      0.000 
      34      0.000      0.000      0.000      0.000 
      35      0.000      0.000      0.300      0.000 
      36      0.000      0.000      0.000      0.000 
      37     -2.060     -0.313      0.315      0.000 
      38      0.000      0.000      0.300      0.000 
      39      1.300     -0.200      0.200      0.000 
      40      0.000      0.000      0.000      0.000 
      41      0.000      0.000      0.000      0.000 
      42      0.000      0.000      0.300      0.000 
      43      0.000      0.000      0.300      0.000 
      44      0.000      0.000      0.000      0.000 
      45      0.000      0.000      0.000      0.000 
      46      0.000      0.000      0.275      0.000 
      47      1.454     -0.144     -0.775      0.000 
      48      0.000      0.000      0.000      0.000 
      49      0.000      0.000      0.300      0.000 
      50      0.000      0.000      0.300      0.000 
      51      0.000      0.000      0.000      0.000 
      52      0.000      0.000      0.000      0.000 
      53      0.000      0.000      0.300      0.000 
      54      0.000      0.000      0.300      0.000 
      55      0.000      0.000      0.300      0.000 
      56      0.000      0.000      0.000      0.000 
      57      0.000      0.000      0.000      0.000 
      58      0.000      0.000      0.000      0.000 
      59      0.000      0.000      0.000      0.000 
      60      0.000      0.000      0.275      0.000 
      61      0.000      0.000      0.300      0.000 
      62      0.000      0.000      0.275      0.000 
      63      0.000      0.000      0.000      0.000 
      64      0.000      0.000      0.000      0.000 
      65      0.000      0.000      0.300      0.000 
      66      0.000      0.000      0.300      0.000 
      67      0.000      0.000      0.000      0.000 
      68      0.000      0.000      0.000      0.000 
      69      0.000      0.000     -0.100      0.000 
      70      1.300     -0.200      0.200      0.000 
      71      0.000      0.000      0.000      0.000 
      72      0.000      0.000      0.300      0.000 
      73      0.000      0.000      0.000      0.000 
      74      0.000      0.000      0.000      0.000 
      75      0.000      0.000      0.300      0.000 
      76      0.000      0.000      0.300      0.000 
      77      0.000      0.000      0.275      0.000 
      78      0.000      0.000      0.300      0.000 
      79      0.000      0.000     -0.100      0.000 
      80      0.000      0.000      0.300      0.000 
      81      0.000      0.000      0.000      0.000 
      82      0.000      0.000      0.000      0.000 
      83      0.000      0.000      0.275      0.000 
      84      0.000      0.000      0.000      0.000 
      85      0.000      0.000      0.300      0.000 
      86      0.000      0.000      0.275      0.000 
      87      0.000      0.000     -0.100      0.000 
      88      0.000      0.000      0.000      0.000 
      89      0.000      0.000      0.000      0.000 

Improper Coeffs 

       1     10.500      -1       2 
       2     10.500      -1       2 
       3      0.000      -1       2 
       4      0.000      -1       2 
       5      0.000      -1       2 
       6      0.000      -1       2 
       7      0.000      -1       2 
       8      0.000      -1       2 
       9      0.000      -1       2 
      10      0.000      -1       2 
      11      0.000      -1       2 
      12      0.000      -1       2 
      13      0.000      -1       2 
      14      0.000      -1       2 
      15      0.000      -1       2 
      16      0.000      -1       2 
      17      0.000      -1       2 
      18      0.000      -1       2 
      19      0.000      -1       2 
      20      0.000      -1       2 

Atoms 

     1      1      1 -0.30350000    1.000  1.00000  0.00000
     2      1      2 0.36810000   -0.510  1.00000  0.00000
     3      1      3 -0.45070000   -1.118  1.00000  1.06992
     4      1      4 -0.17010000   -1.235  0.91279 -1.35035
     5      1      5 -0.11480000   -2.766  1.05419 -1.18318
     6      1      6 -0.21710000   -3.001  2.55531 -1.12032
     7      1      7 0.42370000   -3.735  3.10420  0.06293
     8      1      8 -0.29180000   -2.945  3.50221  1.26902
     9      1      9 -0.44530000   -4.958  3.16504  0.02735
    10      1     10 -0.18240000   -3.184  3.37982 -2.39190
    11      1     11 -0.17250000   -1.815  3.19328 -1.81288
    12      1     12 -0.07690000   -0.875  2.09492 -2.27476
    13      1     13 -0.23360000   -1.046  1.70807 -3.74777
    14      1     14 0.11740000    1.358  1.04620  1.03261
    15      1     15 0.11740000    1.393  1.87508 -0.52047
    16      1     16 0.11740000    1.369  0.08042 -0.45917
    17      1     17 0.13490000   -0.976 -0.06307 -1.77801
    18      1     18 0.11830000   -3.138  0.54081 -0.29112
    19      1     19 0.11830000   -3.288  0.63097 -2.05038
    20      1     20 0.12050000   -1.881  3.56003  1.04940
    21      1     21 0.12050000   -3.115  2.76454  2.06044
    22      1     22 0.12050000   -3.285  4.48524  1.60327
    23      1     23 0.13460000   -3.624  4.37052 -2.30147
    24      1     24 0.13460000   -3.503  2.87036 -3.29045
    25      1     25 0.13880000   -1.314  4.02164 -1.32867
    26      1     26 0.10940000    0.157  2.42795 -2.14247
    27      1     27 0.08810000   -2.074  1.42846 -3.99644
    28      1     28 0.08810000   -0.416  0.84746 -3.99533
    29      1     29 0.08810000   -0.764  2.54009 -4.40045

Bonds 

     1      1      2      1
     2      2      3      2
     3      3      4      2
     4      4      5      4
     5      5      6      5
     6      6      7      6
     7      7      8      7
     8      8      9      7
     9      9     10      6
    10     10     11      6
    11     11     12      4
    12     12     13     12
    13     13     14      1
    14     14     15      1
    15     15     16      1
    16     16     17      4
    17     17     18      5
    18     18     19      5
    19     19     20      8
    20     20     21      8
    21     21     22      8
    22     22     23     10
    23     23     24     10
    24     24     25     11
    25     25     26     12
    26     26     27     13
    27     27     28     13
    28     28     29     13
    29     29     11     10
    30     30     12     11

Angles 

     1      1      1      2      3
     2      2      1      2      4
     3      3      2      4      5
     4      4      4      5      6
     5      5      5      6      7
     6      6      6      7      8
     7      7      6      7      9
     8      8      5      6     10
     9      9      5      6     11
    10     10      2      4     12
    11     11      4     12     13
    12     12      2      1     14
    13     13      2      1     15
    14     14      2      1     16
    15     15      2      4     17
    16     16      4      5     18
    17     17      4      5     19
    18     18      7      8     20
    19     19      7      8     21
    20     20      7      8     22
    21     21      6     10     23
    22     22      6     10     24
    23     23      6     11     25
    24     24      4     12     26
    25     25     12     13     27
    26     26     12     13     28
    27     27     12     13     29
    28     28     20      8     22
    29     29     12      4     17
    30     30      5      4     12
    31     31      6     11     12
    32     32     21      8     22
    33     33      6     11     10
    34     34      6      5     19
    35     35     14      1     16
    36     36      8      7      9
    37     37     10      6     11
    38     38     10     11     25
    39     39      7      6     11
    40     40      6     10     11
    41     41     14      1     15
    42     42      4     12     11
    43     43     10     11     12
    44     44     27     13     29
    45     45     15      1     16
    46     46      3      2      4
    47     47     28     13     29
    48     48     23     10     24
    49     49     18      5     19
    50     50     27     13     28
    51     51     20      8     21
    52     52     12     11     25
    53     53     11     12     13
    54     54     11     12     26
    55     55     11     10     23
    56     56     13     12     26
    57     57      7      6     10
    58     58      6      5     18
    59     59     11     10     24
    60     60      5      4     17

Dihedrals

     1      1      5      4      2      1 
     2      2      6      5      4      2 
     3      3      7      6      5      4 
     4      4      8      7      6      5 
     5      5     14      1      2      3 
     6      6     20      8      7      6 
     7      7     23     10      6     11 
     8      8     24     10      6     11 
     9      9     25     11      6     10 
    10     10     27     13     12      4 
    11     11     26     12     11      6 
    12     12     25     11     12     13 
    13     13     17      4      2      3 
    14     14      9      7      6      5 
    15     15     19      5      6      7 
    16     16     26     12     11     25 
    17     17     29     13     12      4 
    18     18     12     11      6      5 
    19     19     19      5      6     11 
    20     20     10      6      7      8 
    21     21     12     11      6      7 
    22     22     12      4      2      3 
    23     23     27     13     12     26 
    24     24     29     13     12     26 
    25     25     11     12      4      2 
    26     26     25     11      6      7 
    27     27     17      4      5      6 
    28     28     19      5      4     12 
    29     29      5      4      2      3 
    30     30      6     11     12      4 
    31     31     22      8      7      9 
    32     32     13     12      4      5 
    33     33     20      8      7      9 
    34     34     23     10      6      7 
    35     35     26     12      4     17 
    36     36     25     11     10     23 
    37     37     13     12      4      2 
    38     38     29     13     12     11 
    39     39     12      4      5      6 
    40     40     25     11     10      6 
    41     41     23     10     11     12 
    42     42     25     11     12      4 
    43     43     18      5      6     10 
    44     44     11      6      5      4 
    45     45     23     10      6      5 
    46     46     17      4      2      1 
    47     47     12      4      2      1 
    48     48     10     11     12      4 
    49     49     26     12      4      5 
    50     50     26     12     11     10 
    51     51     25     11      6      5 
    52     52     24     10     11      6 
    53     53     19      5      6     10 
    54     54     18      5      6     11 
    55     55     17      4     12     11 
    56     56     21      8      7      9 
    57     57     13     12     11      6 
    58     58     13     12     11     10 
    59     59     15      1      2      3 
    60     60     14      1      2      4 
    61     61     18      5      4     12 
    62     62     16      1      2      4 
    63     63     11      6      7      9 
    64     64     25     11     10     24 
    65     65     27     13     12     11 
    66     66     18      5      6      7 
    67     67     10      6      5      4 
    68     68     12     11     10      6 
    69     69     26     12      4      2 
    70     70     11     12      4      5 
    71     71     24     10      6      7 
    72     72     19      5      4     17 
    73     73     12     11      6     10 
    74     74     23     10     11      6 
    75     75     18      5      4     17 
    76     76     28     13     12      4 
    77     77     21      8      7      6 
    78     78     28     13     12     26 
    79     79     19      5      4      2 
    80     80     28     13     12     11 
    81     81     24     10      6      5 
    82     82     24     10     11     12 
    83     83     15      1      2      4 
    84     84     16      1      2      3 
    85     85     17      4     12     13 
    86     86     22      8      7      6 
    87     87     18      5      4      2 
    88     88     10      6      7      9 
    89     89     11      6      7      8 

Impropers

     1      1      2      1      3      4 
     2      2      7      9      6      8 
     3      3      6     10      5      7 
     4      4      6     11      5      7 
     5      5      4      2     12      5 
     6      6     12      4     11     13 
     7      7      1      2     14     15 
     8      8      1      2     14     16 
     9      9      4     17      2      5 
    10     10      5     18      4      6 
    11     11      5     19      4      6 
    12     12      8     20     21      7 
    13     13      8     20     22      7 
    14     14     12      4     26     11 
    15     15     13     12     27     28 
    16     16     13     27     12     29 
    17     17      6     10     11      7 
    18     18      6     10     11      7 
    19     19      6     10     11      5 
    20     20      6     10     11      5 

