LAMMPS data file Created by LigParGen - (Written by Leela S. Dodda)

      30 atoms
      30 bonds
      60 angles
      90 dihedrals
      19 impropers
 
      30 atom types
      30 bond types
      60 angle types
      90 dihedral types
      19 improper types
 
   -5.057760    44.942240 xlo xhi
   -2.159840    47.840160 ylo yhi
   -2.374950    47.625050 zlo zhi

Masses

       1     12.011  
       2     12.011  
       3     12.011  
       4     12.011  
       5     12.011  
       6     12.011  
       7     12.011  
       8     12.011  
       9     32.060  
      10     15.999  
      11     15.999  
      12     12.011  
      13      1.008  
      14      1.008  
      15      1.008  
      16      1.008  
      17      1.008  
      18      1.008  
      19      1.008  
      20      1.008  
      21      1.008  
      22      1.008  
      23      1.008  
      24      1.008  
      25      1.008  
      26      1.008  
      27      1.008  
      28      1.008  
      29      1.008  
      30      1.008  

Pair Coeffs 

       1      0.066  3.5000000 
       2      0.066  3.5000000 
       3      0.066  3.5000000 
       4      0.066  3.5000000 
       5      0.066  3.5000000 
       6      0.066  3.5000000 
       7      0.066  3.5000000 
       8      0.066  3.5000000 
       9      0.250  3.5500000 
      10      0.170  2.9600000 
      11      0.170  2.9600000 
      12      0.066  3.5000000 
      13      0.030  2.5000000 
      14      0.030  2.5000000 
      15      0.030  2.5000000 
      16      0.030  2.5000000 
      17      0.030  2.5000000 
      18      0.030  2.5000000 
      19      0.030  2.5000000 
      20      0.030  2.5000000 
      21      0.030  2.5000000 
      22      0.030  2.5000000 
      23      0.030  2.5000000 
      24      0.030  2.5000000 
      25      0.030  2.5000000 
      26      0.030  2.5000000 
      27      0.030  2.5000000 
      28      0.030  2.5000000 
      29      0.030  2.5000000 
      30      0.030  2.5000000 

Bond Coeffs 

       1   268.0000     1.5290 
       2   268.0000     1.5290 
       3   268.0000     1.5290 
       4   268.0000     1.5290 
       5   268.0000     1.5290 
       6   268.0000     1.5290 
       7   268.0000     1.5290 
       8   340.0000     1.7700 
       9   700.0000     1.4400 
      10   700.0000     1.4400 
      11   268.0000     1.5290 
      12   340.0000     1.0900 
      13   340.0000     1.0900 
      14   340.0000     1.0900 
      15   340.0000     1.0900 
      16   340.0000     1.0900 
      17   340.0000     1.0900 
      18   340.0000     1.0900 
      19   340.0000     1.0900 
      20   340.0000     1.0900 
      21   340.0000     1.0900 
      22   340.0000     1.0900 
      23   340.0000     1.0900 
      24   340.0000     1.0900 
      25   340.0000     1.0900 
      26   340.0000     1.0900 
      27   340.0000     1.0900 
      28   340.0000     1.0900 
      29   340.0000     1.0900 
      30   340.0000     1.7700 

Angle Coeffs 

       1     58.350    112.700
       2     58.350    112.700
       3     58.350    112.700
       4     58.350    112.700
       5     58.350    112.700
       6     58.350    112.700
       7     50.000    108.600
       8     74.000    108.900
       9     74.000    108.900
      10     58.350    112.700
      11     37.500    110.700
      12     37.500    110.700
      13     37.500    110.700
      14     37.500    110.700
      15     37.500    110.700
      16     37.500    110.700
      17     37.500    110.700
      18     37.500    110.700
      19     37.500    110.700
      20     37.500    110.700
      21     37.500    110.700
      22     37.500    110.700
      23     37.500    110.700
      24     37.500    110.700
      25     37.500    110.700
      26     37.500    110.700
      27     37.500    110.700
      28     37.500    110.700
      29     33.000    107.800
      30     37.500    110.700
      31     33.000    107.800
      32     35.000    109.500
      33     35.000    109.500
      34     33.000    107.800
      35     33.000    107.800
      36     37.500    110.700
      37     58.350    112.700
      38     62.000    102.000
      39     74.000    108.900
      40     37.500    110.700
      41     50.000    108.600
      42     33.000    107.800
      43     37.500    110.700
      44     33.000    107.800
      45     33.000    107.800
      46     33.000    107.800
      47     37.500    110.700
      48     58.350    112.700
      49     37.500    110.700
      50     33.000    107.800
      51     58.350    112.700
      52     33.000    107.800
      53     37.500    110.700
      54     37.500    110.700
      55    104.000    119.000
      56     35.000    109.500
      57     33.000    107.800
      58     33.000    107.800
      59     74.000    108.900
      60     35.000    109.500

Dihedral Coeffs  

       1      1.300     -0.200      0.200      0.000 
       2      1.300     -0.200      0.200      0.000 
       3      1.300     -0.200      0.200      0.000 
       4      1.300     -0.200      0.200      0.000 
       5      1.262     -0.198      0.465      0.000 
       6      0.000      0.000      0.000      0.000 
       7      0.000      0.000      0.300      0.000 
       8      0.000      0.000      0.300      0.000 
       9      0.000      0.000      0.300      0.000 
      10      0.000      0.000      0.350      0.000 
      11      0.000      0.000      0.300      0.000 
      12      0.000      0.000      0.300      0.000 
      13      0.000      0.000      0.300      0.000 
      14      0.000      0.000      0.350      0.000 
      15      0.000      0.000      0.300      0.000 
      16      0.000      0.000      0.300      0.000 
      17      0.000      0.000      0.350      0.000 
      18      0.000      0.000      0.300      0.000 
      19      0.000      0.000      0.350      0.000 
      20      0.000      0.000      0.300      0.000 
      21      0.000      0.000      0.300      0.000 
      22      0.000      0.000      0.000      0.000 
      23      0.000      0.000      0.300      0.000 
      24      0.000      0.000      0.300      0.000 
      25      0.000      0.000      0.300      0.000 
      26      0.000      0.000      0.350      0.000 
      27      0.000      0.000      0.300      0.000 
      28      0.000      0.000      0.350      0.000 
      29      0.000      0.000      0.300      0.000 
      30      0.000      0.000      0.300      0.000 
      31      0.000      0.000      0.300      0.000 
      32      0.000      0.000      0.300      0.000 
      33      0.000      0.000      0.000      0.000 
      34      1.300     -0.200      0.200      0.000 
      35      0.000      0.000      0.300      0.000 
      36      0.000      0.000      0.300      0.000 
      37      0.000      0.000      0.300      0.000 
      38      1.262     -0.198      0.465      0.000 
      39      0.000      0.000      0.300      0.000 
      40      0.000      0.000      0.300      0.000 
      41      0.000      0.000      0.300      0.000 
      42      0.000      0.000      0.350      0.000 
      43      0.000      0.000      0.300      0.000 
      44      0.000      0.000      0.300      0.000 
      45      0.000      0.000      0.300      0.000 
      46      0.000      0.000      0.300      0.000 
      47      0.000      0.000      0.300      0.000 
      48      0.000      0.000      0.350      0.000 
      49      0.000      0.000      0.300      0.000 
      50      0.000      0.000      0.300      0.000 
      51      1.262     -0.198      0.465      0.000 
      52      0.000      0.000      0.300      0.000 
      53      0.000      0.000      0.300      0.000 
      54      0.000      0.000      0.350      0.000 
      55      0.000      0.000      0.300      0.000 
      56      0.000      0.000      0.300      0.000 
      57      0.000      0.000      0.300      0.000 
      58      0.000      0.000      0.000      0.000 
      59      0.000      0.000      0.300      0.000 
      60      0.000      0.000      0.300      0.000 
      61      0.000      0.000      0.300      0.000 
      62      0.000      0.000      0.350      0.000 
      63      0.000      0.000      0.350      0.000 
      64      0.000      0.000      0.300      0.000 
      65      0.000      0.000      0.300      0.000 
      66      0.000      0.000      0.300      0.000 
      67      0.000      0.000      0.300      0.000 
      68      0.000      0.000      0.300      0.000 
      69      0.000      0.000      0.300      0.000 
      70      0.000      0.000      0.300      0.000 
      71      0.000      0.000      0.300      0.000 
      72      0.000      0.000      0.300      0.000 
      73      0.000      0.000      0.300      0.000 
      74      1.262     -0.198      0.465      0.000 
      75      0.000      0.000      0.452      0.000 
      76      0.000      0.000      0.300      0.000 
      77      0.000      0.000      0.350      0.000 
      78      1.300     -0.200      0.200      0.000 
      79      0.000      0.000      0.300      0.000 
      80      0.000      0.000      0.300      0.000 
      81      0.000      0.000      0.300      0.000 
      82      0.000      0.000      0.300      0.000 
      83      0.000      0.000      0.300      0.000 
      84      0.000      0.000      0.300      0.000 
      85      0.000      0.000      0.000      0.000 
      86      0.000      0.000      0.000      0.000 
      87      0.000      0.000      0.300      0.000 
      88      0.000      0.000      0.300      0.000 
      89      0.000      0.000      0.452      0.000 
      90      0.000      0.000      0.300      0.000 

Improper Coeffs 

       1      0.000      -1       2 
       2      0.000      -1       2 
       3      0.000      -1       2 
       4      0.000      -1       2 
       5      0.000      -1       2 
       6      0.000      -1       2 
       7      0.000      -1       2 
       8      0.000      -1       2 
       9      0.000      -1       2 
      10      0.000      -1       2 
      11      0.000      -1       2 
      12      0.000      -1       2 
      13      0.000      -1       2 
      14      0.000      -1       2 
      15      0.000      -1       2 
      16      0.000      -1       2 
      17      0.000      -1       2 
      18      0.000      -1       2 
      19      0.000      -1       2 

Atoms 

     1      1      1 -0.23840000    1.000  1.00000  0.00000
     2      1      2 0.00850000   -0.566  1.00000  0.00000
     3      1      3 -0.24280000   -0.916  1.00000  1.49983
     4      1      4 -0.16930000   -0.975  2.30496 -0.72425
     5      1      5 -0.20060000   -2.431  2.66797 -1.02047
     6      1      6 -0.17470000   -3.457  2.49150  0.08867
     7      1      7 -0.13050000   -4.321  1.23010  0.02156
     8      1      8 -0.50150000   -3.699 -0.15395  0.16144
     9      1      9 1.30300000   -2.629 -0.70588 -1.14600
    10      1     10 -0.57580000   -2.994 -0.03336 -2.37495
    11      1     11 -0.57580000   -2.688 -2.15984 -1.10715
    12      1     12 -0.50230000   -0.962 -0.29885 -0.72670
    13      1     13 0.08610000    1.397  1.88701  0.50853
    14      1     14 0.08610000    1.403  0.99306 -1.01840
    15      1     15 0.08610000    1.394  0.11959  0.52242
    16      1     16 0.08890000   -0.462  1.86049  2.00578
    17      1     17 0.08890000   -0.539  0.09533  1.99094
    18      1     18 0.08890000   -1.975  1.05301  1.71879
    19      1     19 0.09420000   -0.455  2.33060 -1.69406
    20      1     20 0.09420000   -0.550  3.14672 -0.15770
    21      1     21 0.11160000   -2.770  2.20417 -1.94791
    22      1     22 0.11160000   -2.415  3.74017 -1.26888
    23      1     23 0.09300000   -4.165  3.32773 -0.01450
    24      1     24 0.09300000   -3.016  2.64732  1.07599
    25      1     25 0.10520000   -4.900  1.26222 -0.90897
    26      1     26 0.10520000   -5.058  1.31979  0.83008
    27      1     27 0.16350000   -4.536 -0.86603  0.12818
    28      1     28 0.16350000   -3.223 -0.34552  1.12137
    29      1     29 0.17040000   -0.433 -0.35101 -1.68875
    30      1     30 0.17040000   -0.604 -1.15248 -0.13689

Bonds 

     1      1      2      1
     2      2      3      2
     3      3      4      2
     4      4      5      4
     5      5      6      5
     6      6      7      6
     7      7      8      7
     8      8      9      8
     9      9     10      9
    10     10     11      9
    11     11     12      2
    12     12     13      1
    13     13     14      1
    14     14     15      1
    15     15     16      3
    16     16     17      3
    17     17     18      3
    18     18     19      4
    19     19     20      4
    20     20     21      5
    21     21     22      5
    22     22     23      6
    23     23     24      6
    24     24     25      7
    25     25     26      7
    26     26     27      8
    27     27     28      8
    28     28     29     12
    29     29     30     12
    30     30     12      9

Angles 

     1      1      1      2      3
     2      2      1      2      4
     3      3      2      4      5
     4      4      4      5      6
     5      5      5      6      7
     6      6      6      7      8
     7      7      7      8      9
     8      8      8      9     10
     9      9      8      9     11
    10     10      1      2     12
    11     11      2      1     13
    12     12      2      1     14
    13     13      2      1     15
    14     14      2      3     16
    15     15      2      3     17
    16     16      2      3     18
    17     17      2      4     19
    18     18      2      4     20
    19     19      4      5     21
    20     20      4      5     22
    21     21      5      6     23
    22     22      5      6     24
    23     23      6      7     25
    24     24      6      7     26
    25     25      7      8     27
    26     26      7      8     28
    27     27      2     12     29
    28     28      2     12     30
    29     29     21      5     22
    30     30      7      6     24
    31     31     13      1     14
    32     32      9      8     28
    33     33      9     12     30
    34     34     29     12     30
    35     35     17      3     18
    36     36      6      5     22
    37     37      4      2     12
    38     38      8      9     12
    39     39     11      9     12
    40     40      7      6     23
    41     41      2     12      9
    42     42     19      4     20
    43     43      8      7     26
    44     44     16      3     18
    45     45     27      8     28
    46     46     14      1     15
    47     47      8      7     25
    48     48      3      2      4
    49     49      5      4     19
    50     50     25      7     26
    51     51      3      2     12
    52     52     23      6     24
    53     53      6      5     21
    54     54      5      4     20
    55     55     10      9     11
    56     56      9     12     29
    57     57     16      3     17
    58     58     13      1     15
    59     59     10      9     12
    60     60      9      8     27

Dihedrals

     1      1      5      4      2      1 
     2      2      6      5      4      2 
     3      3      7      6      5      4 
     4      4      8      7      6      5 
     5      5      9      8      7      6 
     6      6     10      9      8      7 
     7      7     13      1      2      3 
     8      8     16      3      2      1 
     9      9     23      6      7      8 
    10     10     27      8      9     11 
    11     11     23      6      5      4 
    12     12     30     12      2      1 
    13     13     24      6      5     22 
    14     14     28      8      9     12 
    15     15     19      4      2      1 
    16     16     20      4      2      1 
    17     17     28      8      9     10 
    18     18     18      3      2     12 
    19     19     30     12      9     11 
    20     20     22      5      4      2 
    21     21     29     12      2      3 
    22     22     11      9      8      7 
    23     23     25      7      6     23 
    24     24     21      5      4     20 
    25     25     20      4      2     12 
    26     26     29     12      9      8 
    27     27     29     12      2      1 
    28     28     29     12      9     10 
    29     29     17      3      2      4 
    30     30     30     12      2      3 
    31     31     16      3      2      4 
    32     32     15      1      2     12 
    33     33     10      9     12      2 
    34     34      5      4      2      3 
    35     35     23      6      5     21 
    36     36     22      5      4     19 
    37     37     28      8      7     26 
    38     38      9     12      2      1 
    39     39     27      8      7      6 
    40     40     16      3      2     12 
    41     41     19      4      5      6 
    42     42     27      8      9     10 
    43     43     27      8      7     26 
    44     44     26      7      6     24 
    45     45     28      8      7     25 
    46     46     13      1      2     12 
    47     47     21      5      6      7 
    48     48     28      8      9     11 
    49     49     20      4      2      3 
    50     50     18      3      2      1 
    51     51      9     12      2      3 
    52     52     25      7      6      5 
    53     53     20      4      5      6 
    54     54     27      8      9     12 
    55     55     26      7      6     23 
    56     56     25      7      6     24 
    57     57     24      6      5      4 
    58     58      8      9     12      2 
    59     59     19      4      2     12 
    60     60     22      5      6      7 
    61     61     19      4      2      3 
    62     62     29     12      9     11 
    63     63     30     12      9      8 
    64     64     29     12      2      4 
    65     65     15      1      2      3 
    66     66     14      1      2      4 
    67     67     24      6      7      8 
    68     68     21      5      4     19 
    69     69     30     12      2      4 
    70     70     22      5      4     20 
    71     71     17      3      2     12 
    72     72     24      6      5     21 
    73     73     23      6      5     22 
    74     74      9     12      2      4 
    75     75     26      7      8      9 
    76     76     21      5      4      2 
    77     77     30     12      9     10 
    78     78     12      2      4      5 
    79     79     27      8      7     25 
    80     80     18      3      2      4 
    81     81     17      3      2      1 
    82     82     26      7      6      5 
    83     83     14      1      2      3 
    84     84     13      1      2      4 
    85     85     12      9      8      7 
    86     86     11      9     12      2 
    87     87     15      1      2      4 
    88     88     28      8      7      6 
    89     89     25      7      8      9 
    90     90     14      1      2     12 

Impropers

     1      1      2      1      3      4 
     2      2      9     10     11      8 
     3      3      2      1      3     12 
     4      4      1      2     13     14 
     5      5      1      2     13     15 
     6      6      3     17      2     16 
     7      7      3     18     16      2 
     8      8      4      2     19      5 
     9      9      4      2     20      5 
    10     10      5      4     21      6 
    11     11      5      4     22      6 
    12     12      6      7      5     23 
    13     13      6      5      7     24 
    14     14      7     25      6      8 
    15     15      7     26      6      8 
    16     16      8      9     27      7 
    17     17      8      9     28      7 
    18     18     12      9      2     29 
    19     19     12      9      2     30 

