LAMMPS data file Created by LigParGen - (Written by Leela S. Dodda)

      37 atoms
      37 bonds
      73 angles
     101 dihedrals
      27 impropers
 
      37 atom types
      37 bond types
      73 angle types
     101 dihedral types
      27 improper types
 
   -3.592450    46.407550 xlo xhi
   -5.661700    44.338300 ylo yhi
   -1.024140    48.975860 zlo zhi

Masses

       1     12.011  
       2     12.011  
       3     12.011  
       4     12.011  
       5     12.011  
       6     12.011  
       7     12.011  
       8     12.011  
       9     12.011  
      10     12.011  
      11     12.011  
      12     15.999  
      13     12.011  
      14      1.008  
      15      1.008  
      16      1.008  
      17      1.008  
      18      1.008  
      19      1.008  
      20      1.008  
      21      1.008  
      22      1.008  
      23      1.008  
      24      1.008  
      25      1.008  
      26      1.008  
      27      1.008  
      28      1.008  
      29      1.008  
      30      1.008  
      31      1.008  
      32      1.008  
      33      1.008  
      34      1.008  
      35      1.008  
      36      1.008  
      37      1.008  

Pair Coeffs 

       1      0.066  3.5000000 
       2      0.066  3.5000000 
       3      0.083  3.4500000 
       4      0.083  3.4500000 
       5      0.083  3.4500000 
       6      0.066  3.5000000 
       7      0.083  3.4500000 
       8      0.066  3.5000000 
       9      0.066  3.5000000 
      10      0.066  3.5000000 
      11      0.066  3.5000000 
      12      0.140  2.9000000 
      13      0.066  3.5000000 
      14      0.030  2.5000000 
      15      0.030  2.5000000 
      16      0.030  2.5000000 
      17      0.030  2.5000000 
      18      0.030  2.5000000 
      19      0.030  2.5000000 
      20      0.030  2.5000000 
      21      0.030  2.5000000 
      22      0.030  2.5000000 
      23      0.030  2.5000000 
      24      0.030  2.5000000 
      25      0.030  2.5000000 
      26      0.030  2.5000000 
      27      0.030  2.5000000 
      28      0.030  2.5000000 
      29      0.030  2.5000000 
      30      0.030  2.5000000 
      31      0.030  2.5000000 
      32      0.030  2.5000000 
      33      0.030  2.5000000 
      34      0.030  2.5000000 
      35      0.030  2.5000000 
      36      0.030  2.5000000 
      37      0.030  2.5000000 

Bond Coeffs 

       1   268.0000     1.5290 
       2   280.0000     1.5100 
       3   260.0000     1.5200 
       4   260.0000     1.5200 
       5   280.0000     1.5100 
       6   260.0000     1.5200 
       7   280.0000     1.5100 
       8   268.0000     1.5290 
       9   268.0000     1.5290 
      10   268.0000     1.5290 
      11   320.0000     1.4100 
      12   320.0000     1.4100 
      13   340.0000     1.0900 
      14   340.0000     1.0900 
      15   340.0000     1.0900 
      16   340.0000     1.0900 
      17   340.0000     1.0900 
      18   340.0000     1.0880 
      19   340.0000     1.0880 
      20   340.0000     1.0880 
      21   340.0000     1.0880 
      22   340.0000     1.0900 
      23   340.0000     1.0900 
      24   340.0000     1.0900 
      25   340.0000     1.0880 
      26   340.0000     1.0900 
      27   340.0000     1.0900 
      28   340.0000     1.0900 
      29   340.0000     1.0900 
      30   340.0000     1.0900 
      31   340.0000     1.0900 
      32   340.0000     1.0900 
      33   340.0000     1.0900 
      34   340.0000     1.0900 
      35   340.0000     1.0900 
      36   340.0000     1.0900 
      37   260.0000     1.5200 

Angle Coeffs 

       1     58.350    112.700
       2     37.500    117.200
       3     30.000     83.000
       4     37.500    117.200
       5     37.500    117.200
       6     37.500    117.200
       7     58.350    112.700
       8     58.350    112.700
       9     58.350    112.700
      10     50.000    109.500
      11     60.000    109.500
      12     37.500    110.700
      13     37.500    110.700
      14     37.500    110.700
      15     37.500    110.700
      16     37.500    110.700
      17     35.000    114.300
      18     37.500    117.200
      19     37.500    117.200
      20     37.500    117.200
      21     37.500    110.700
      22     37.500    110.700
      23     37.500    110.700
      24     37.500    117.200
      25     37.500    110.700
      26     37.500    110.700
      27     37.500    110.700
      28     37.500    110.700
      29     37.500    110.700
      30     37.500    110.700
      31     37.500    110.700
      32     37.500    110.700
      33     35.000    109.500
      34     35.000    109.500
      35     35.000    109.500
      36     37.500    117.200
      37     33.000    107.800
      38     33.000    107.800
      39     35.000    114.300
      40     37.500    110.700
      41     37.500    117.200
      42     30.000     83.000
      43     35.000    114.300
      44     37.500    110.700
      45     37.500    117.200
      46     33.000    107.800
      47     37.500    110.700
      48     30.000     83.000
      49     33.000    107.800
      50     33.000    107.800
      51     35.000    109.500
      52     33.000    107.800
      53     37.500    110.700
      54     37.500    117.200
      55     33.000    107.800
      56     33.000    107.800
      57     35.000    109.500
      58     33.000    107.800
      59     30.000     83.000
      60     37.500    110.700
      61     33.000    107.800
      62     37.500    117.200
      63     37.500    117.200
      64     33.000    107.800
      65     33.000    107.800
      66     33.000    107.800
      67     37.500    117.200
      68     33.000    107.800
      69     37.500    117.200
      70     58.350    112.700
      71     35.000    114.300
      72     37.500    110.700
      73     33.000    107.800

Dihedral Coeffs  

       1      0.000      0.000      0.000      0.000 
       2      0.000      0.000      0.000      0.000 
       3      0.000      0.000      0.000      0.000 
       4      0.000      0.000      0.000      0.000 
       5      1.300     -0.200      0.200      0.000 
       6      1.711     -0.500      0.663      0.000 
       7      0.650     -0.250      0.670      0.000 
       8      0.000      0.000      0.300      0.000 
       9      0.000      0.000      0.300      0.000 
      10      0.000      0.000      0.300      0.000 
      11      0.000      0.000      0.760      0.000 
      12      0.000      0.000      0.000      0.000 
      13      0.000      0.000      0.300      0.000 
      14      0.000      0.000      0.468      0.000 
      15      0.000      0.000      0.300      0.000 
      16      0.000      0.000      0.000      0.000 
      17      0.000      0.000      0.300      0.000 
      18      0.000      0.000      0.000      0.000 
      19      0.000      0.000      0.000      0.000 
      20      0.000      0.000      0.300      0.000 
      21      0.000      0.000      0.300      0.000 
      22      0.000      0.000      0.300      0.000 
      23      0.000      0.000      0.300      0.000 
      24      0.000      0.000      0.000      0.000 
      25      0.000      0.000      0.000      0.000 
      26      0.000      0.000      0.300      0.000 
      27      0.000      0.000      0.000      0.000 
      28      0.000      0.000      0.300      0.000 
      29      0.000      0.000      0.760      0.000 
      30      0.000      0.000      0.300      0.000 
      31      0.000      0.000      0.300      0.000 
      32      0.000      0.000      0.300      0.000 
      33      0.000      0.000      0.000      0.000 
      34      0.000      0.000      0.300      0.000 
      35      0.000      0.000      0.000      0.000 
      36      0.000      0.000      0.300      0.000 
      37      0.000      0.000      0.000      0.000 
      38      0.000      0.000      0.468      0.000 
      39      0.000      0.000      0.300      0.000 
      40      0.000      0.000      0.300      0.000 
      41      0.000      0.000      0.000      0.000 
      42      0.000      0.000      0.760      0.000 
      43      0.000      0.000      0.300      0.000 
      44      0.000      0.000      0.000      0.000 
      45      0.000      0.000      0.300      0.000 
      46      0.000      0.000      0.300      0.000 
      47      0.000      0.000      0.300      0.000 
      48      0.000      0.000      0.000      0.000 
      49      0.000      0.000      0.300      0.000 
      50      0.000      0.000      0.000      0.000 
      51      0.000      0.000      0.000      0.000 
      52      0.000      0.000      0.300      0.000 
      53      0.000      0.000      0.300      0.000 
      54      0.000      0.000      0.760      0.000 
      55      0.000      0.000      0.300      0.000 
      56      0.000      0.000      0.300      0.000 
      57      0.000      0.000      0.000      0.000 
      58      0.000      0.000      0.000      0.000 
      59      0.000      0.000      0.000      0.000 
      60      0.000      0.000      0.300      0.000 
      61      0.000      0.000      0.300      0.000 
      62      0.000      0.000      0.300      0.000 
      63      0.000      0.000      0.000      0.000 
      64      0.000      0.000      0.000      0.000 
      65      0.000      0.000      0.300      0.000 
      66      0.000      0.000      0.300      0.000 
      67      0.000      0.000      0.000      0.000 
      68      0.000      0.000      0.300      0.000 
      69      0.000      0.000      0.300      0.000 
      70      0.000      0.000      0.300      0.000 
      71      0.000      0.000      0.300      0.000 
      72      0.000      0.000      0.300      0.000 
      73      0.000      0.000      0.000      0.000 
      74      0.000      0.000      0.000      0.000 
      75      0.000      0.000      0.300      0.000 
      76      0.000      0.000      0.000      0.000 
      77      0.000      0.000      0.000      0.000 
      78      0.000      0.000      0.300      0.000 
      79      0.000      0.000      0.300      0.000 
      80      0.000      0.000      0.300      0.000 
      81      0.000      0.000      0.000      0.000 
      82      0.000      0.000      0.300      0.000 
      83      0.000      0.000      0.300      0.000 
      84      0.000      0.000      0.000      0.000 
      85      0.000      0.000      0.000      0.000 
      86      0.000      0.000      0.000      0.000 
      87      1.300     -0.200      0.200      0.000 
      88      0.000      0.000      0.000      0.000 
      89      0.000      0.000      0.300      0.000 
      90      0.000      0.000      0.300      0.000 
      91      0.000      0.000      0.300      0.000 
      92      0.000      0.000      0.760      0.000 
      93      0.000      0.000      0.000      0.000 
      94      0.000      0.000      0.300      0.000 
      95      0.000      0.000      0.000      0.000 
      96      0.000      0.000      0.300      0.000 
      97      0.000      0.000      0.000      0.000 
      98      0.000      0.000      0.000      0.000 
      99      0.000      0.000      0.300      0.000 
     100      0.000      0.000      0.300      0.000 
     101      0.000      0.000      0.300      0.000 

Improper Coeffs 

       1      0.000      -1       2 
       2      0.000      -1       2 
       3      0.000      -1       2 
       4      0.000      -1       2 
       5      0.000      -1       2 
       6      0.000      -1       2 
       7      0.000      -1       2 
       8      0.000      -1       2 
       9      0.000      -1       2 
      10      0.000      -1       2 
      11      0.000      -1       2 
      12      0.000      -1       2 
      13      0.000      -1       2 
      14      0.000      -1       2 
      15      0.000      -1       2 
      16      0.000      -1       2 
      17      0.000      -1       2 
      18      0.000      -1       2 
      19      0.000      -1       2 
      20      0.000      -1       2 
      21      0.000      -1       2 
      22      0.000      -1       2 
      23      0.000      -1       2 
      24      0.000      -1       2 
      25      0.000      -1       2 
      26      0.000      -1       2 
      27      0.000      -1       2 

Atoms 

     1      1      1 -0.23910000    1.000  1.00000  0.00000
     2      1      2 -0.16790000   -0.519  1.00000  0.00000
     3      1      3 -0.12840000   -1.065  1.00000  1.42275
     4      1      4 -0.20590000   -2.616  0.93476  1.50744
     5      1      5 -0.13110000   -2.457  0.12519  2.81985
     6      1      6 -0.21650000   -2.567  0.98057  4.07309
     7      1      7 -0.11470000   -1.062 -0.33421  2.25684
     8      1      8 -0.09200000    0.116 -0.74594  3.15640
     9      1      9 -0.23670000    0.699  0.41623  3.96104
    10      1     10 -0.17130000   -0.284 -1.88934  4.11460
    11      1     11 0.00560000   -0.690 -3.19153  3.42803
    12      1     12 -0.38010000    0.389 -3.66214  2.62614
    13      1     13 -0.05270000    0.060 -4.87466  1.96257
    14      1     14 0.08110000    1.378  1.08078 -1.02414
    15      1     15 0.08110000    1.394  0.07720  0.43509
    16      1     16 0.08110000    1.394  1.84277  0.57696
    17      1     17 0.08930000   -0.885  0.13415 -0.56322
    18      1     18 0.08930000   -0.869  1.89864 -0.52198
    19      1     19 0.11650000   -0.684  1.87051  1.97382
    20      1     20 0.09860000   -3.090  0.35937  0.70119
    21      1     21 0.09860000   -3.123  1.90163  1.58573
    22      1     22 0.09410000   -3.167 -0.70903  2.89513
    23      1     23 0.08250000   -1.909  1.85380  4.03656
    24      1     24 0.08250000   -2.319  0.39969  4.96586
    25      1     25 0.08250000   -3.592  1.34535  4.19364
    26      1     26 0.10650000   -1.214 -1.18134  1.56367
    27      1     27 0.11730000    0.923 -1.10496  2.50455
    28      1     28 0.08040000    0.019  0.76152  4.74284
    29      1     29 0.08040000    0.950  1.26892  3.32491
    30      1     30 0.08040000    1.623  0.10225  4.46009
    31      1     31 0.09950000   -1.106 -1.56989  4.76589
    32      1     32 0.09950000    0.573 -2.10560  4.76387
    33      1     33 0.07410000   -1.582 -3.04714  2.80864
    34      1     34 0.07410000   -0.924 -3.94181  4.19327
    35      1     35 0.08040000    0.923 -5.18550  1.36720
    36      1     36 0.08040000   -0.791 -4.72447  1.29202
    37      1     37 0.08040000   -0.162 -5.66170  2.69005

Bonds 

     1      1      2      1
     2      2      3      2
     3      3      4      3
     4      4      5      4
     5      5      6      5
     6      6      7      3
     7      7      8      7
     8      8      9      8
     9      9     10      8
    10     10     11     10
    11     11     12     11
    12     12     13     12
    13     13     14      1
    14     14     15      1
    15     15     16      1
    16     16     17      2
    17     17     18      2
    18     18     19      3
    19     19     20      4
    20     20     21      4
    21     21     22      5
    22     22     23      6
    23     23     24      6
    24     24     25      6
    25     25     26      7
    26     26     27      8
    27     27     28      9
    28     28     29      9
    29     29     30      9
    30     30     31     10
    31     31     32     10
    32     32     33     11
    33     33     34     11
    34     34     35     13
    35     35     36     13
    36     36     37     13
    37     37      7      5

Angles 

     1      1      1      2      3
     2      2      2      3      4
     3      3      3      4      5
     4      4      4      5      6
     5      5      2      3      7
     6      6      3      7      8
     7      7      7      8      9
     8      8      7      8     10
     9      9      8     10     11
    10     10     10     11     12
    11     11     11     12     13
    12     12      2      1     14
    13     13      2      1     15
    14     14      2      1     16
    15     15      1      2     17
    16     16      1      2     18
    17     17      2      3     19
    18     18      3      4     20
    19     19      3      4     21
    20     20      4      5     22
    21     21      5      6     23
    22     22      5      6     24
    23     23      5      6     25
    24     24      3      7     26
    25     25      7      8     27
    26     26      8      9     28
    27     27      8      9     29
    28     28      8      9     30
    29     29      8     10     31
    30     30      8     10     32
    31     31     10     11     33
    32     32     10     11     34
    33     33     12     13     35
    34     34     12     13     36
    35     35     12     13     37
    36     36      5      7      8
    37     37     29      9     30
    38     38     33     11     34
    39     39      8      7     26
    40     40      3      2     18
    41     41      7      3     19
    42     42      4      3      7
    43     43      6      5     22
    44     44      3      2     17
    45     45      4      3     19
    46     46     35     13     36
    47     47     11     10     32
    48     48      4      5      7
    49     49     28      9     30
    50     50     35     13     37
    51     51     12     11     33
    52     52     36     13     37
    53     53     10      8     27
    54     54      6      5      7
    55     55     15      1     16
    56     56     14      1     15
    57     57     12     11     34
    58     58     17      2     18
    59     59      3      7      5
    60     60     11     10     31
    61     61     23      6     24
    62     62      5      4     20
    63     63      5      7     26
    64     64     31     10     32
    65     65     24      6     25
    66     66     14      1     16
    67     67      5      4     21
    68     68     23      6     25
    69     69      7      5     22
    70     70      9      8     10
    71     71     20      4     21
    72     72      9      8     27
    73     73     28      9     29

Dihedrals

     1      1      4      3      2      1 
     2      2      5      4      3      2 
     3      3      6      5      4      3 
     4      4      9      8      7      3 
     5      5     11     10      8      7 
     6      6     12     11     10      8 
     7      7     13     12     11     10 
     8      8     14      1      2      3 
     9      9     23      6      5      4 
    10     10     28      9      8      7 
    11     11     35     13     12     11 
    12     12     10      8      7      5 
    13     13     28      9      8     10 
    14     14     31     10     11     12 
    15     15     32     10      8     27 
    16     16      8      7      3      2 
    17     17     24      6      5     22 
    18     18      7      3      2      1 
    19     19     20      4      3      7 
    20     20     25      6      5      7 
    21     21     34     11     10     32 
    22     22     17      2      3      7 
    23     23     30      9      8     10 
    24     24     22      5      7      8 
    25     25     21      4      3      7 
    26     26     27      8     10     11 
    27     27     26      7      5      6 
    28     28     29      9      8      7 
    29     29     36     13     12     11 
    30     30     23      6      5      7 
    31     31     17      2      1     16 
    32     32     18      2      1     15 
    33     33     26      7      3      2 
    34     34     17      2      3      4 
    35     35     26      7      5     22 
    36     36     26      7      8     10 
    37     37      9      8      7      5 
    38     38     32     10     11     12 
    39     39     19      3      2      1 
    40     40     31     10      8      7 
    41     41     26      7      5      4 
    42     42     34     11     12     13 
    43     43     28      9      8     27 
    44     44     21      4      3     19 
    45     45     33     11     10      8 
    46     46     18      2      1     14 
    47     47     17      2      1     15 
    48     48     10      8      7      3 
    49     49     30      9      8     27 
    50     50     22      5      4      3 
    51     51      5      7      3      2 
    52     52     30      9      8      7 
    53     53     32     10      8      7 
    54     54     37     13     12     11 
    55     55     27      8      7     26 
    56     56     24      6      5      7 
    57     57     20      4      5      6 
    58     58     21      4      3      2 
    59     59      6      5      7      3 
    60     60     29      9      8     10 
    61     61     32     10      8      9 
    62     62     24      6      5      4 
    63     63     22      5      4     21 
    64     64     20      4      3      2 
    65     65     33     11     10     31 
    66     66     29      9      8     27 
    67     67     26      7      3     19 
    68     68     15      1      2      3 
    69     69     34     11     10      8 
    70     70     25      6      5      4 
    71     71     31     10      8     27 
    72     72     18      2      3      7 
    73     73     26      7      3      4 
    74     74     19      3      7      8 
    75     75     27      8      7      5 
    76     76     22      5      4     20 
    77     77     22      5      7      3 
    78     78     27      8      7      3 
    79     79     23      6      5     22 
    80     80     26      7      8      9 
    81     81      8      7      5      6 
    82     82     19      3      2     18 
    83     83     19      3      2     17 
    84     84     20      4      3     19 
    85     85     20      4      5      7 
    86     86     21      4      5      6 
    87     87     11     10      8      9 
    88     88     19      3      4      5 
    89     89     18      2      3      4 
    90     90     34     11     10     31 
    91     91     33     11     10     32 
    92     92     33     11     12     13 
    93     93     21      4      5      7 
    94     94     16      1      2      3 
    95     95     19      3      7      5 
    96     96     17      2      1     14 
    97     97      8      7      5      4 
    98     98      8      7      3      4 
    99     99     18      2      1     16 
   100    100     31     10      8      9 
   101    101     25      6      5     22 

Impropers

     1      1      3      2      4      7 
     2      2      7      3      5      8 
     3      3      8      9     10      7 
     4      4      1      2     14     15 
     5      5      1      2     14     16 
     6      6      2     17      3      1 
     7      7      2      1     18      3 
     8      8      3      2     19      4 
     9      9      4      3     20      5 
    10     10      4      5      3     21 
    11     11      5      4     22      6 
    12     12      6      5     23     24 
    13     13      6     25      5     23 
    14     14      7     26      3      5 
    15     15      8      9     27      7 
    16     16      9     28     29      8 
    17     17      9     28     30      8 
    18     18     10     11     31      8 
    19     19     10     11      8     32 
    20     20     11     33     10     12 
    21     21     11     34     12     10 
    22     22     13     12     35     36 
    23     23     13     35     12     37 
    24     24      3      4      5      7 
    25     25      3      4      5      7 
    26     26      3      4      5      7 
    27     27      3      4      5      7 

