LAMMPS data file Created by LigParGen - (Written by Leela S. Dodda)

      31 atoms
      30 bonds
      56 angles
      70 dihedrals
      18 impropers
 
      31 atom types
      30 bond types
      56 angle types
      70 dihedral types
      18 improper types
 
   -6.611480    43.388520 xlo xhi
   -3.861350    46.138650 ylo yhi
   -1.026470    48.973530 zlo zhi

Masses

       1     12.011  
       2     12.011  
       3     12.011  
       4     12.011  
       5     12.011  
       6     12.011  
       7     12.011  
       8     12.011  
       9     32.060  
      10     15.999  
      11     12.011  
      12      1.008  
      13      1.008  
      14      1.008  
      15      1.008  
      16      1.008  
      17      1.008  
      18      1.008  
      19      1.008  
      20      1.008  
      21      1.008  
      22      1.008  
      23      1.008  
      24      1.008  
      25      1.008  
      26      1.008  
      27      1.008  
      28      1.008  
      29      1.008  
      30      1.008  
      31      1.008  

Pair Coeffs 

       1      0.066  3.5000000 
       2      0.066  3.5000000 
       3      0.066  3.5000000 
       4      0.066  3.5000000 
       5      0.066  3.5000000 
       6      0.066  3.5000000 
       7      0.066  3.5000000 
       8      0.066  3.5000000 
       9      0.355  3.6000000 
      10      0.140  2.9000000 
      11      0.066  3.5000000 
      12      0.030  2.5000000 
      13      0.030  2.5000000 
      14      0.030  2.5000000 
      15      0.030  2.5000000 
      16      0.030  2.5000000 
      17      0.030  2.5000000 
      18      0.030  2.5000000 
      19      0.030  2.5000000 
      20      0.030  2.5000000 
      21      0.030  2.5000000 
      22      0.030  2.5000000 
      23      0.030  2.5000000 
      24      0.030  2.5000000 
      25      0.030  2.5000000 
      26      0.030  2.5000000 
      27      0.030  2.5000000 
      28      0.030  2.5000000 
      29      0.030  2.5000000 
      30      0.030  2.5000000 
      31      0.030  2.5000000 

Bond Coeffs 

       1   268.0000     1.5290 
       2   268.0000     1.5290 
       3   268.0000     1.5290 
       4   268.0000     1.5290 
       5   268.0000     1.5290 
       6   268.0000     1.5290 
       7   268.0000     1.5290 
       8   222.0000     1.8100 
       9   287.4500     1.6850 
      10   320.0000     1.4100 
      11   340.0000     1.0900 
      12   340.0000     1.0900 
      13   340.0000     1.0900 
      14   340.0000     1.0900 
      15   340.0000     1.0900 
      16   340.0000     1.0900 
      17   340.0000     1.0900 
      18   340.0000     1.0900 
      19   340.0000     1.0900 
      20   340.0000     1.0900 
      21   340.0000     1.0900 
      22   340.0000     1.0900 
      23   340.0000     1.0900 
      24   340.0000     1.0900 
      25   340.0000     1.0900 
      26   340.0000     1.0900 
      27   340.0000     1.0900 
      28   340.0000     1.0900 
      29   340.0000     1.0900 
      30   340.0000     1.0900 

Angle Coeffs 

       1     58.350    112.700
       2     58.350    112.700
       3     58.350    112.700
       4     58.350    112.700
       5     58.350    112.700
       6     58.350    112.700
       7     50.000    114.700
       8     67.120    105.500
       9     69.510    114.540
      10     37.500    110.700
      11     37.500    110.700
      12     37.500    110.700
      13     37.500    110.700
      14     37.500    110.700
      15     37.500    110.700
      16     37.500    110.700
      17     37.500    110.700
      18     37.500    110.700
      19     37.500    110.700
      20     37.500    110.700
      21     37.500    110.700
      22     37.500    110.700
      23     37.500    110.700
      24     37.500    110.700
      25     37.500    110.700
      26     37.500    110.700
      27     35.000    109.500
      28     35.000    109.500
      29     35.000    109.500
      30     33.000    107.800
      31     37.500    110.700
      32     33.000    107.800
      33     33.000    107.800
      34     35.000    109.500
      35     50.000    114.700
      36     33.000    107.800
      37     33.000    107.800
      38     33.000    107.800
      39     33.000    107.800
      40     37.500    110.700
      41     33.000    107.800
      42     37.500    110.700
      43     37.500    110.700
      44     37.500    110.700
      45     58.350    112.700
      46     33.000    107.800
      47     33.000    107.800
      48     37.500    110.700
      49     33.000    107.800
      50     37.500    110.700
      51     37.500    110.700
      52     33.000    107.800
      53     37.500    110.700
      54     33.000    107.800
      55     33.000    107.800
      56     33.000    107.800

Dihedral Coeffs  

       1      1.300     -0.200      0.200      0.000 
       2      1.300     -0.200      0.200      0.000 
       3      1.300     -0.200      0.200      0.000 
       4      1.300     -0.200      0.200      0.000 
       5      1.941     -0.836      0.935      0.000 
       6      3.500     -3.300      1.500      0.000 
       7      0.000      0.000      0.300      0.000 
       8      0.000      0.000      0.300      0.000 
       9      0.000      0.000      0.300      0.000 
      10      0.000      0.000      0.300      0.000 
      11      0.000      0.000      0.300      0.000 
      12      0.000      0.000      0.300      0.000 
      13      0.000      0.000      0.300      0.000 
      14      0.000      0.000      0.300      0.000 
      15      0.000      0.000      0.300      0.000 
      16      0.000      0.000      0.300      0.000 
      17      0.000      0.000      0.300      0.000 
      18      0.000      0.000      0.452      0.000 
      19      0.000      0.000      0.300      0.000 
      20      0.000      0.000      0.300      0.000 
      21      0.000      0.000      0.452      0.000 
      22      0.000      0.000      0.300      0.000 
      23      0.000      0.000      0.300      0.000 
      24      0.000      0.000      0.300      0.000 
      25      0.000      0.000      0.300      0.000 
      26      0.000      0.000      0.300      0.000 
      27      0.000      0.000      0.300      0.000 
      28      0.000      0.000      0.300      0.000 
      29      0.000      0.000      0.300      0.000 
      30      0.000      0.000      0.300      0.000 
      31      0.000      0.000      0.300      0.000 
      32      0.000      0.000      0.452      0.000 
      33      0.000      0.000      0.300      0.000 
      34      1.300     -0.200      0.200      0.000 
      35      0.000      0.000      0.300      0.000 
      36      0.000      0.000      0.300      0.000 
      37      1.300     -0.200      0.200      0.000 
      38      0.000      0.000      0.300      0.000 
      39      0.000      0.000      0.300      0.000 
      40      0.000      0.000      0.300      0.000 
      41      0.000      0.000      0.300      0.000 
      42      0.000      0.000      0.300      0.000 
      43      0.000      0.000      0.300      0.000 
      44      0.000      0.000      0.300      0.000 
      45      0.000      0.000      0.300      0.000 
      46      0.000      0.000      0.300      0.000 
      47      0.000      0.000      0.300      0.000 
      48      0.000      0.000      0.300      0.000 
      49      0.000      0.000      0.300      0.000 
      50      0.000      0.000      0.300      0.000 
      51      0.000      0.000      0.300      0.000 
      52      0.000      0.000      0.452      0.000 
      53      0.000      0.000      0.300      0.000 
      54      0.000      0.000      0.300      0.000 
      55      0.000      0.000      0.300      0.000 
      56      0.000      0.000      0.300      0.000 
      57      0.000      0.000      0.300      0.000 
      58      0.000      0.000      0.300      0.000 
      59      0.000      0.000      0.000      0.000 
      60      0.000      0.000      0.300      0.000 
      61      0.000      0.000      0.300      0.000 
      62      0.000      0.000      0.300      0.000 
      63      0.000      0.000      0.300      0.000 
      64      2.619     -0.620      0.258      0.000 
      65      2.619     -0.620      0.258      0.000 
      66      0.000      0.000      0.300      0.000 
      67      1.941     -0.836      0.935      0.000 
      68      0.000      0.000      0.300      0.000 
      69      0.000      0.000      0.300      0.000 
      70      0.000      0.000      0.300      0.000 

Improper Coeffs 

       1      0.000      -1       2 
       2      0.000      -1       2 
       3      0.000      -1       2 
       4      0.000      -1       2 
       5      0.000      -1       2 
       6      0.000      -1       2 
       7      0.000      -1       2 
       8      0.000      -1       2 
       9      0.000      -1       2 
      10      0.000      -1       2 
      11      0.000      -1       2 
      12      0.000      -1       2 
      13      0.000      -1       2 
      14      0.000      -1       2 
      15      0.000      -1       2 
      16      0.000      -1       2 
      17      0.000      -1       2 
      18      0.000      -1       2 

Atoms 

     1      1      1 -0.23810000    1.000  1.00000  0.00000
     2      1      2 -0.18020000   -0.518  1.00000  0.00000
     3      1      3 -0.17710000   -1.078  1.00000  1.42259
     4      1      4 -0.17440000   -2.612  1.00181  1.41765
     5      1      5 -0.10440000   -3.229  0.93661  2.83430
     6      1      6 -0.23530000   -2.821  2.16171  3.67070
     7      1      7 0.00210000   -4.778  0.77936  2.84073
     8      1      8 -0.22680000   -5.526  1.93754  2.17721
     9      1      9 -0.09790000   -5.347 -0.77397  2.03891
    10      1     10 -0.45680000   -4.637 -1.87791  3.06584
    11      1     11 0.02510000   -4.693 -3.21614  2.58910
    12      1     12 0.08070000    1.379  1.00130 -1.02647
    13      1     13 0.08070000    1.390  0.11272  0.50707
    14      1     14 0.08070000    1.390  1.88908  0.50700
    15      1     15 0.08820000   -0.880  0.11946 -0.54498
    16      1     16 0.08820000   -0.878  1.88436 -0.54019
    17      1     17 0.08930000   -0.700  1.88496  1.94498
    18      1     18 0.08930000   -0.713  0.11672  1.95906
    19      1     19 0.09650000   -2.946  0.14176  0.82562
    20      1     20 0.09650000   -2.962  1.90109  0.89810
    21      1     21 0.11160000   -2.804  0.06174  3.34433
    22      1     22 0.08290000   -3.055  3.09860  3.15472
    23      1     23 0.08290000   -1.747  2.15852  3.87992
    24      1     24 0.08290000   -3.335  2.16457  4.63746
    25      1     25 0.12850000   -5.113  0.72084  3.88363
    26      1     26 0.09640000   -5.269  2.04477  1.11862
    27      1     27 0.09640000   -5.302  2.88662  2.67407
    28      1     28 0.09640000   -6.611  1.79652  2.24643
    29      1     29 0.09860000   -4.204 -3.86135  3.32481
    30      1     30 0.09860000   -4.162 -3.31803  1.63626
    31      1     31 0.09860000   -5.733 -3.54338  2.48485

Bonds 

     1      1      2      1
     2      2      3      2
     3      3      4      3
     4      4      5      4
     5      5      6      5
     6      6      7      5
     7      7      8      7
     8      8      9      7
     9      9     10      9
    10     10     11     10
    11     11     12      1
    12     12     13      1
    13     13     14      1
    14     14     15      2
    15     15     16      2
    16     16     17      3
    17     17     18      3
    18     18     19      4
    19     19     20      4
    20     20     21      5
    21     21     22      6
    22     22     23      6
    23     23     24      6
    24     24     25      7
    25     25     26      8
    26     26     27      8
    27     27     28      8
    28     28     29     11
    29     29     30     11
    30     30     31     11

Angles 

     1      1      1      2      3
     2      2      2      3      4
     3      3      3      4      5
     4      4      4      5      6
     5      5      4      5      7
     6      6      5      7      8
     7      7      5      7      9
     8      8      7      9     10
     9      9      9     10     11
    10     10      2      1     12
    11     11      2      1     13
    12     12      2      1     14
    13     13      1      2     15
    14     14      1      2     16
    15     15      2      3     17
    16     16      2      3     18
    17     17      3      4     19
    18     18      3      4     20
    19     19      4      5     21
    20     20      5      6     22
    21     21      5      6     23
    22     22      5      6     24
    23     23      5      7     25
    24     24      7      8     26
    25     25      7      8     27
    26     26      7      8     28
    27     27     10     11     29
    28     28     10     11     30
    29     29     10     11     31
    30     30     26      8     28
    31     31      3      2     15
    32     32     13      1     14
    33     33     22      6     24
    34     34      9      7     25
    35     35      8      7      9
    36     36     12      1     14
    37     37     29     11     30
    38     38     19      4     20
    39     39     27      8     28
    40     40      3      2     16
    41     41     30     11     31
    42     42      4      3     18
    43     43      7      5     21
    44     44      8      7     25
    45     45      6      5      7
    46     46     12      1     13
    47     47     29     11     31
    48     48      5      4     19
    49     49     23      6     24
    50     50      6      5     21
    51     51      5      4     20
    52     52     15      2     16
    53     53      4      3     17
    54     54     17      3     18
    55     55     22      6     23
    56     56     26      8     27

Dihedrals

     1      1      4      3      2      1 
     2      2      5      4      3      2 
     3      3      6      5      4      3 
     4      4      8      7      5      4 
     5      5     10      9      7      5 
     6      6     11     10      9      7 
     7      7     12      1      2      3 
     8      8     22      6      5      4 
     9      9     26      8      7      5 
    10     10     29     11     10      9 
    11     11     16      2      3      4 
    12     12     21      5      7      8 
    13     13     21      5      4     19 
    14     14     13      1      2      3 
    15     15     18      3      2      1 
    16     16     24      6      5      7 
    17     17     27      8      7      5 
    18     18     28      8      7      9 
    19     19     17      3      2     16 
    20     20     18      3      2     15 
    21     21     27      8      7      9 
    22     22     23      6      5     21 
    23     23     19      4      5      7 
    24     24     20      4      5      6 
    25     25     25      7      5      6 
    26     26     15      2      3      4 
    27     27     22      6      5     21 
    28     28     24      6      5     21 
    29     29     18      3      4      5 
    30     30     21      5      4     20 
    31     31     17      3      2     15 
    32     32     26      8      7      9 
    33     33     25      7      5     21 
    34     34      8      7      5      6 
    35     35     24      6      5      4 
    36     36     20      4      3     17 
    37     37      7      5      4      3 
    38     38     16      2      1     13 
    39     39     15      2      1     14 
    40     40     20      4      3     18 
    41     41     31     11     10      9 
    42     42     20      4      5      7 
    43     43     19      4      3     18 
    44     44     19      4      3      2 
    45     45     22      6      5      7 
    46     46     23      6      5      4 
    47     47     30     11     10      9 
    48     48     17      3      4      5 
    49     49     20      4      3      2 
    50     50     17      3      2      1 
    51     51     28      8      7      5 
    52     52     21      5      7      9 
    53     53     19      4      5      6 
    54     54     14      1      2      3 
    55     55     19      4      3     17 
    56     56     21      5      4      3 
    57     57     25      7      5      4 
    58     58     28      8      7     25 
    59     59     25      7      9     10 
    60     60     18      3      2     16 
    61     61     15      2      1     12 
    62     62     23      6      5      7 
    63     63     16      2      1     14 
    64     64      9      7      5      4 
    65     65      9      7      5      6 
    66     66     27      8      7     25 
    67     67     10      9      7      8 
    68     68     26      8      7     25 
    69     69     15      2      1     13 
    70     70     16      2      1     12 

Impropers

     1      1      5      4      6      7 
     2      2      7      9      5      8 
     3      3      1      2     12     13 
     4      4      1      2     12     14 
     5      5      2      1      3     15 
     6      6      2      1      3     16 
     7      7      3     17      2      4 
     8      8      3     18      4      2 
     9      9      4     19      5      3 
    10     10      4      3     20      5 
    11     11      5      4     21      6 
    12     12      6      5     23     22 
    13     13      6     22      5     24 
    14     14      7     25      5      8 
    15     15      8     26     27      7 
    16     16      8     26     28      7 
    17     17     11     10     29     30 
    18     18     11     10     29     31 

