LAMMPS data file Created by LigParGen - (Written by Leela S. Dodda)

      33 atoms
      33 bonds
      64 angles
      92 dihedrals
      20 impropers
 
      33 atom types
      33 bond types
      64 angle types
      92 dihedral types
      20 improper types
 
   -2.527380    47.472620 xlo xhi
    0.106170    50.106170 ylo yhi
   -1.027030    48.972970 zlo zhi

Masses

       1     12.011  
       2     12.011  
       3     12.011  
       4     12.011  
       5     15.999  
       6     15.999  
       7     12.011  
       8     12.011  
       9     12.011  
      10     12.011  
      11     12.011  
      12     12.011  
      13     12.011  
      14      1.008  
      15      1.008  
      16      1.008  
      17      1.008  
      18      1.008  
      19      1.008  
      20      1.008  
      21      1.008  
      22      1.008  
      23      1.008  
      24      1.008  
      25      1.008  
      26      1.008  
      27      1.008  
      28      1.008  
      29      1.008  
      30      1.008  
      31      1.008  
      32      1.008  
      33      1.008  

Pair Coeffs 

       1      0.066  3.5000000 
       2      0.066  3.5000000 
       3      0.066  3.5000000 
       4      0.070  3.5500000 
       5      0.210  2.9600000 
       6      0.140  2.9000000 
       7      0.066  3.5000000 
       8      0.066  3.5000000 
       9      0.066  3.5000000 
      10      0.066  3.5000000 
      11      0.066  3.5000000 
      12      0.066  3.5000000 
      13      0.066  3.5000000 
      14      0.030  2.5000000 
      15      0.030  2.5000000 
      16      0.030  2.5000000 
      17      0.030  2.5000000 
      18      0.030  2.5000000 
      19      0.030  2.5000000 
      20      0.030  2.5000000 
      21      0.030  2.5000000 
      22      0.030  2.5000000 
      23      0.030  2.5000000 
      24      0.030  2.5000000 
      25      0.030  2.5000000 
      26      0.030  2.5000000 
      27      0.030  2.5000000 
      28      0.030  2.5000000 
      29      0.030  2.5000000 
      30      0.030  2.5000000 
      31      0.030  2.5000000 
      32      0.030  2.5000000 
      33      0.030  2.5000000 

Bond Coeffs 

       1   268.0000     1.5290 
       2   268.0000     1.5290 
       3   317.0000     1.5220 
       4   570.0000     1.2290 
       5   214.0000     1.3270 
       6   320.0000     1.4100 
       7   268.0000     1.5290 
       8   268.0000     1.5290 
       9   268.0000     1.5290 
      10   268.0000     1.5290 
      11   268.0000     1.5290 
      12   268.0000     1.5290 
      13   340.0000     1.0900 
      14   340.0000     1.0900 
      15   340.0000     1.0900 
      16   340.0000     1.0900 
      17   340.0000     1.0900 
      18   340.0000     1.0900 
      19   340.0000     1.0900 
      20   340.0000     1.0900 
      21   340.0000     1.0900 
      22   340.0000     1.0900 
      23   340.0000     1.0900 
      24   340.0000     1.0900 
      25   340.0000     1.0900 
      26   340.0000     1.0900 
      27   340.0000     1.0900 
      28   340.0000     1.0900 
      29   340.0000     1.0900 
      30   340.0000     1.0900 
      31   340.0000     1.0900 
      32   340.0000     1.0900 
      33   268.0000     1.5290 

Angle Coeffs 

       1     58.350    112.700
       2     63.000    111.100
       3     80.000    120.400
       4     81.000    111.400
       5     83.000    116.900
       6     50.000    109.500
       7     58.350    112.700
       8     58.350    112.700
       9     58.350    112.700
      10     58.350    112.700
      11     50.000    109.500
      12     37.500    110.700
      13     37.500    110.700
      14     37.500    110.700
      15     37.500    110.700
      16     37.500    110.700
      17     37.500    110.700
      18     37.500    110.700
      19     35.000    109.500
      20     37.500    110.700
      21     37.500    110.700
      22     37.500    110.700
      23     37.500    110.700
      24     37.500    110.700
      25     37.500    110.700
      26     37.500    110.700
      27     37.500    110.700
      28     37.500    110.700
      29     37.500    110.700
      30     37.500    110.700
      31     37.500    110.700
      32     83.000    123.400
      33     37.500    110.700
      34     37.500    110.700
      35     37.500    110.700
      36     33.000    107.800
      37     37.500    110.700
      38     58.350    112.700
      39     58.350    112.700
      40     37.500    110.700
      41     58.350    112.700
      42     37.500    110.700
      43     35.000    109.500
      44     33.000    107.800
      45     37.500    110.700
      46     33.000    107.800
      47     37.500    110.700
      48     33.000    107.800
      49     33.000    107.800
      50     33.000    107.800
      51     33.000    107.800
      52     37.500    110.700
      53     37.500    110.700
      54     33.000    107.800
      55     37.500    110.700
      56     37.500    110.700
      57     37.500    110.700
      58     33.000    107.800
      59     37.500    110.700
      60     58.350    112.700
      61     33.000    107.800
      62     33.000    107.800
      63     35.000    109.500
      64     33.000    107.800

Dihedral Coeffs  

       1     -2.060     -0.313      0.315      0.000 
       2      0.000      0.000      0.000      0.000 
       3      4.669      5.124      0.000      0.000 
       4     -1.220     -0.126      0.422      0.000 
       5      1.711     -0.500      0.663      0.000 
       6      1.300     -0.200      0.200      0.000 
       7      1.300     -0.200      0.200      0.000 
       8      1.300     -0.200      0.200      0.000 
       9      0.000      0.000      0.300      0.000 
      10      0.000      0.000      0.300      0.000 
      11      0.000      0.000      0.300      0.000 
      12      0.000      0.000      0.300      0.000 
      13      1.300     -0.200      0.200      0.000 
      14      0.000      0.000      0.300      0.000 
      15      0.000      0.000      0.300      0.000 
      16      0.000      0.000      0.300      0.000 
      17      0.000      0.000      0.300      0.000 
      18      0.000      0.000      0.300      0.000 
      19      0.000      0.000      0.300      0.000 
      20      0.000      0.000      0.300      0.000 
      21      0.000      0.000      0.300      0.000 
      22      1.300     -0.200      0.200      0.000 
      23      0.000      0.000      0.300      0.000 
      24      0.000      0.000      0.300      0.000 
      25      0.000      0.000      0.468      0.000 
      26      0.000      0.000      0.300      0.000 
      27      0.000      0.000      0.300      0.000 
      28      0.000      0.000      0.198      0.000 
      29      0.000      0.000     -0.100      0.000 
      30      0.000      0.000      0.300      0.000 
      31      0.000      0.000      0.300      0.000 
      32     -1.220     -0.126      0.422      0.000 
      33      0.000      0.000      0.300      0.000 
      34      0.000      0.000      0.300      0.000 
      35      1.300     -0.200      0.200      0.000 
      36      0.000      0.000      0.468      0.000 
      37      0.000      0.000      0.300      0.000 
      38      0.000      0.000     -0.553      0.000 
      39      0.000      0.000      0.300      0.000 
      40      0.000      0.000      0.300      0.000 
      41      0.000      0.000      0.300      0.000 
      42      0.000      0.000      0.300      0.000 
      43      0.000      0.000      0.300      0.000 
      44      1.300     -0.200      0.200      0.000 
      45      0.000      0.000      0.300      0.000 
      46      0.000      0.000      0.300      0.000 
      47      0.000      0.000      0.300      0.000 
      48      0.000      0.000      0.300      0.000 
      49      0.000      0.000      0.468      0.000 
      50      0.000      0.000      0.300      0.000 
      51      0.000      0.000      0.300      0.000 
      52      0.000      0.000      0.000      0.000 
      53      0.000      0.000      0.132      0.000 
      54      0.000      0.000      0.300      0.000 
      55      0.000      0.000      0.300      0.000 
      56      0.000      0.000      0.300      0.000 
      57      0.000      0.000      0.300      0.000 
      58      0.000      0.000      0.300      0.000 
      59      0.000      0.000      0.300      0.000 
      60      0.000      0.000      0.132      0.000 
      61      0.000      0.000      0.300      0.000 
      62      0.000      0.000      0.300      0.000 
      63      0.000      0.000      0.300      0.000 
      64      0.000      0.000      0.300      0.000 
      65      1.300     -0.200      0.200      0.000 
      66      0.000      0.000      0.300      0.000 
      67      1.711     -0.500      0.663      0.000 
      68      0.000      0.000      0.300      0.000 
      69      1.300     -0.200      0.200      0.000 
      70      0.000      0.000      0.300      0.000 
      71      0.000      0.000      0.300      0.000 
      72      0.000      0.000      0.300      0.000 
      73      0.000      0.000      0.300      0.000 
      74      0.000      0.000      0.300      0.000 
      75      0.000      0.000      0.300      0.000 
      76      0.000      0.000      0.300      0.000 
      77      0.000      0.000      0.300      0.000 
      78      0.000      0.000      0.300      0.000 
      79      0.000      0.000      0.300      0.000 
      80      0.000      0.000      0.300      0.000 
      81      0.000      0.000      0.000      0.000 
      82      0.000      0.000     -0.100      0.000 
      83      0.000      0.000      0.300      0.000 
      84      0.000      0.000      0.300      0.000 
      85      0.000      0.000      0.300      0.000 
      86      0.000      0.000      0.300      0.000 
      87      0.000      0.000      0.300      0.000 
      88      0.000      0.000      0.300      0.000 
      89      0.000      0.000      0.468      0.000 
      90      0.000      0.000      0.300      0.000 
      91      0.000      0.000      0.300      0.000 
      92      0.000      5.124      0.000      0.000 

Improper Coeffs 

       1     10.500      -1       2 
       2      0.000      -1       2 
       3      0.000      -1       2 
       4      0.000      -1       2 
       5      0.000      -1       2 
       6      0.000      -1       2 
       7      0.000      -1       2 
       8      0.000      -1       2 
       9      0.000      -1       2 
      10      0.000      -1       2 
      11      0.000      -1       2 
      12      0.000      -1       2 
      13      0.000      -1       2 
      14      0.000      -1       2 
      15      0.000      -1       2 
      16      0.000      -1       2 
      17      0.000      -1       2 
      18      0.000      -1       2 
      19      0.000      -1       2 
      20      0.000      -1       2 

Atoms 

     1      1      1 -0.24410000    1.000  1.00000  0.00000
     2      1      2 -0.16960000   -0.522  1.00000  0.00000
     3      1      3 -0.18940000   -1.113  1.00000  1.40696
     4      1      4 0.44380000   -0.732  2.22250  2.20418
     5      1      5 -0.45210000   -0.108  2.17738  3.25546
     6      1      6 -0.35100000   -1.176  3.35577  1.59453
     7      1      7 0.05520000   -0.791  4.57369  2.23351
     8      1      8 -0.21340000    0.645  4.95835  1.90164
     9      1      9 -0.17640000    0.673  6.43771  2.23779
    10      1     10 -0.11830000   -0.675  6.96788  1.73045
    11      1     11 -0.17100000   -1.244  8.09906  2.59274
    12      1     12 -0.23820000   -0.337  9.32044  2.63704
    13      1     13 -0.18410000   -1.604  5.74429  1.67682
    14      1     14 0.08690000    1.376  0.95275 -1.02703
    15      1     15 0.08690000    1.392  0.13585  0.54535
    16      1     16 0.08690000    1.399  1.91054  0.45844
    17      1     17 0.10160000   -0.874  0.10617 -0.52893
    18      1     18 0.10160000   -0.880  1.86891 -0.56374
    19      1     19 0.12750000   -0.773  0.11414  1.95591
    20      1     20 0.12750000   -2.207  0.94808  1.36386
    21      1     21 0.12730000   -0.948  4.51268  3.31916
    22      1     22 0.11050000    0.861  4.78571  0.84026
    23      1     23 0.11050000    1.375  4.38751  2.48348
    24      1     24 0.09980000    1.519  6.94680  1.76582
    25      1     25 0.09980000    0.763  6.56538  3.32349
    26      1     26 0.10290000   -0.545  7.34198  0.70576
    27      1     27 0.09000000   -1.415  7.74187  3.61579
    28      1     28 0.09000000   -2.220  8.40036  2.19309
    29      1     29 0.08230000    0.635  9.08278  3.07944
    30      1     30 0.08230000   -0.795 10.10711  3.24525
    31      1     31 0.08230000   -0.169  9.71992  1.63185
    32      1     32 0.10590000   -1.905  5.54974  0.64025
    33      1     33 0.10590000   -2.527  5.88157  2.25010

Bonds 

     1      1      2      1
     2      2      3      2
     3      3      4      3
     4      4      5      4
     5      5      6      4
     6      6      7      6
     7      7      8      7
     8      8      9      8
     9      9     10      9
    10     10     11     10
    11     11     12     11
    12     12     13      7
    13     13     14      1
    14     14     15      1
    15     15     16      1
    16     16     17      2
    17     17     18      2
    18     18     19      3
    19     19     20      3
    20     20     21      7
    21     21     22      8
    22     22     23      8
    23     23     24      9
    24     24     25      9
    25     25     26     10
    26     26     27     11
    27     27     28     11
    28     28     29     12
    29     29     30     12
    30     30     31     12
    31     31     32     13
    32     32     33     13
    33     33     13     10

Angles 

     1      1      1      2      3
     2      2      2      3      4
     3      3      3      4      5
     4      4      3      4      6
     5      5      4      6      7
     6      6      6      7      8
     7      7      7      8      9
     8      8      8      9     10
     9      9      9     10     11
    10     10     10     11     12
    11     11      6      7     13
    12     12      2      1     14
    13     13      2      1     15
    14     14      2      1     16
    15     15      1      2     17
    16     16      1      2     18
    17     17      2      3     19
    18     18      2      3     20
    19     19      6      7     21
    20     20      7      8     22
    21     21      7      8     23
    22     22      8      9     24
    23     23      8      9     25
    24     24      9     10     26
    25     25     10     11     27
    26     26     10     11     28
    27     27     11     12     29
    28     28     11     12     30
    29     29     11     12     31
    30     30      7     13     32
    31     31      7     13     33
    32     32      5      4      6
    33     33     12     11     28
    34     34     12     11     27
    35     35      3      2     18
    36     36     29     12     30
    37     37     10     13     32
    38     38      8      7     13
    39     39      9     10     13
    40     40      3      2     17
    41     41      7     13     10
    42     42      9      8     23
    43     43      4      3     19
    44     44     32     13     33
    45     45     13     10     26
    46     46     30     12     31
    47     47     13      7     21
    48     48     22      8     23
    49     49     24      9     25
    50     50     15      1     16
    51     51     14      1     15
    52     52     10      9     24
    53     53     10      9     25
    54     54     17      2     18
    55     55      9      8     22
    56     56     11     10     26
    57     57     10     13     33
    58     58     27     11     28
    59     59      8      7     21
    60     60     11     10     13
    61     61     19      3     20
    62     62     14      1     16
    63     63      4      3     20
    64     64     29     12     31

Dihedrals

     1      1      4      3      2      1 
     2      2      5      4      3      2 
     3      3      7      6      4      3 
     4      4      8      7      6      4 
     5      5      9      8      7      6 
     6      6     10      9      8      7 
     7      7     11     10      9      8 
     8      8     12     11     10      9 
     9      9     14      1      2      3 
    10     10     29     12     11     10 
    11     11     26     10     11     12 
    12     12     21      7     13     10 
    13     13     13     10      9      8 
    14     14     32     13     10     11 
    15     15     29     12     11     28 
    16     16     30     12     11     27 
    17     17     23      8      7     13 
    18     18     23      8      9     10 
    19     19     32     13     10      9 
    20     20     32     13     10     26 
    21     21     24      9      8     22 
    22     22     10     13      7      8 
    23     23     33     13      7     21 
    24     24     26     10      9     25 
    25     25     32     13      7      6 
    26     26     17      2      1     16 
    27     27     18      2      1     15 
    28     28     21      7      6      4 
    29     29     17      2      3      4 
    30     30     33     13     10     11 
    31     31     24      9     10     13 
    32     32     13      7      6      4 
    33     33     19      3      2      1 
    34     34     27     11     10     26 
    35     35     13      7      8      9 
    36     36     23      8      7      6 
    37     37     25      9     10     11 
    38     38      6      4      3      2 
    39     39     31     12     11     28 
    40     40     20      3      2      1 
    41     41     20      3      2     18 
    42     42     18      2      1     14 
    43     43     17      2      1     15 
    44     44     11     10     13      7 
    45     45     22      8      7     21 
    46     46     25      9      8     23 
    47     47     29     12     11     27 
    48     48     24      9      8      7 
    49     49     33     13      7      6 
    50     50     33     13      7      8 
    51     51     28     11     10     13 
    52     52     20      3      4      5 
    53     53     19      3      4      6 
    54     54     28     11     10     26 
    55     55     25      9      8      7 
    56     56     22      8      9     10 
    57     57     32     13      7     21 
    58     58     33     13     10      9 
    59     59     30     12     11     10 
    60     60     20      3      4      6 
    61     61     24      9     10     11 
    62     62     28     11     10      9 
    63     63     21      7      8      9 
    64     64     23      8      7     21 
    65     65     13     10     11     12 
    66     66     26     10      9      8 
    67     67     10     13      7      6 
    68     68     15      1      2      3 
    69     69      9     10     13      7 
    70     70     25      9     10     13 
    71     71     27     11     10     13 
    72     72     19      3      2     17 
    73     73     33     13     10     26 
    74     74     25      9      8     22 
    75     75     24      9      8     23 
    76     76     22      8      7     13 
    77     77     26     10      9     24 
    78     78     20      3      2     17 
    79     79     19      3      2     18 
    80     80     26     10     13      7 
    81     81     19      3      4      5 
    82     82     18      2      3      4 
    83     83     31     12     11     27 
    84     84     30     12     11     28 
    85     85     32     13      7      8 
    86     86     31     12     11     10 
    87     87     27     11     10      9 
    88     88     16      1      2      3 
    89     89     22      8      7      6 
    90     90     17      2      1     14 
    91     91     18      2      1     16 
    92     92      7      6      4      5 

Impropers

     1      1      4      3      5      6 
     2      2      7     13      6      8 
     3      3      1      2     14     15 
     4      4      1      2     14     16 
     5      5      2     17      3      1 
     6      6      2      1     18      3 
     7      7      3      2     19      4 
     8      8      3      4      2     20 
     9      9      7     21      6      8 
    10     10      8      9     22      7 
    11     11      8      9      7     23 
    12     12      9     10      8     24 
    13     13      9     25     10      8 
    14     14     10      9     26     11 
    15     15     11     10     27     12 
    16     16     11     12     10     28 
    17     17     12     11     29     30 
    18     18     12     11     29     31 
    19     19     13     10      7     32 
    20     20     13     33     10      7 

