LAMMPS data file Created by LigParGen - (Written by Leela S. Dodda)

      29 atoms
      30 bonds
      60 angles
      86 dihedrals
      20 impropers
 
      29 atom types
      30 bond types
      60 angle types
      86 dihedral types
      20 improper types
 
   -2.788480    47.211520 xlo xhi
   -3.431960    46.568040 ylo yhi
   -0.924070    49.075930 zlo zhi

Masses

       1     12.011  
       2     12.011  
       3     14.007  
       4     12.011  
       5     12.011  
       6     12.011  
       7     12.011  
       8     15.999  
       9     12.011  
      10     12.011  
      11     12.011  
      12     12.011  
      13      1.008  
      14      1.008  
      15      1.008  
      16      1.008  
      17      1.008  
      18      1.008  
      19      1.008  
      20      1.008  
      21      1.008  
      22      1.008  
      23      1.008  
      24      1.008  
      25      1.008  
      26      1.008  
      27      1.008  
      28      1.008  
      29      1.008  

Pair Coeffs 

       1      0.066  3.5000000 
       2      0.066  3.5000000 
       3      0.170  3.3000000 
       4      0.066  3.5000000 
       5      0.066  3.5000000 
       6      0.066  3.5000000 
       7      0.070  3.5500000 
       8      0.210  2.9600000 
       9      0.083  3.4500000 
      10      0.083  3.4500000 
      11      0.083  3.4500000 
      12      0.066  3.5000000 
      13      0.030  2.5000000 
      14      0.030  2.5000000 
      15      0.030  2.5000000 
      16      0.030  2.5000000 
      17      0.030  2.5000000 
      18      0.030  2.5000000 
      19      0.030  2.5000000 
      20      0.030  2.5000000 
      21      0.030  2.5000000 
      22      0.030  2.5000000 
      23      0.030  2.5000000 
      24      0.030  2.5000000 
      25      0.030  2.5000000 
      26      0.030  2.5000000 
      27      0.030  2.5000000 
      28      0.030  2.5000000 
      29      0.030  2.5000000 

Bond Coeffs 

       1   268.0000     1.5290 
       2   382.0000     1.4480 
       3   382.0000     1.4480 
       4   268.0000     1.5290 
       5   268.0000     1.5290 
       6   317.0000     1.5220 
       7   570.0000     1.2290 
       8   382.0000     1.4480 
       9   260.0000     1.5200 
      10   260.0000     1.5200 
      11   280.0000     1.5100 
      12   340.0000     1.0900 
      13   340.0000     1.0900 
      14   340.0000     1.0900 
      15   340.0000     1.0900 
      16   340.0000     1.0900 
      17   340.0000     1.0900 
      18   340.0000     1.0900 
      19   340.0000     1.0900 
      20   340.0000     1.0900 
      21   340.0000     1.0900 
      22   340.0000     1.0900 
      23   340.0000     1.0880 
      24   340.0000     1.0880 
      25   340.0000     1.0880 
      26   340.0000     1.0900 
      27   340.0000     1.0900 
      28   340.0000     1.0900 
      29   317.0000     1.5220 
      30   260.0000     1.5200 

Angle Coeffs 

       1     56.200    109.470
       2     51.800    107.200
       3     56.200    109.470
       4     56.200    109.470
       5     63.000    111.100
       6     80.000    120.400
       7     51.800    107.200
       8     37.500    117.200
       9     37.500    117.200
      10     37.500    117.200
      11     37.500    110.700
      12     37.500    110.700
      13     37.500    110.700
      14     37.500    110.700
      15     37.500    110.700
      16     35.000    109.500
      17     37.500    110.700
      18     37.500    110.700
      19     37.500    110.700
      20     37.500    110.700
      21     37.500    110.700
      22     37.500    117.200
      23     37.500    117.200
      24     37.500    117.200
      25     37.500    110.700
      26     37.500    110.700
      27     37.500    110.700
      28     58.350    112.700
      29     30.000     83.000
      30     33.000    107.800
      31     33.000    107.800
      32     35.000    109.500
      33     35.000    114.300
      34     33.000    107.800
      35     35.000    109.500
      36     37.500    117.200
      37     80.000    111.200
      38     35.000    109.500
      39     80.000    120.400
      40     33.000    107.800
      41     35.000    109.500
      42     51.800    107.200
      43     63.000    111.100
      44     33.000    107.800
      45     33.000    107.800
      46     37.500    117.200
      47     30.000     83.000
      48     30.000     83.000
      49     70.000    116.000
      50     33.000    107.800
      51     37.500    117.200
      52     33.000    107.800
      53     33.000    107.800
      54     63.000    111.100
      55     35.000    114.300
      56     37.500    110.700
      57     37.500    110.700
      58     33.000    107.800
      59     37.500    117.200
      60     33.000    107.800

Dihedral Coeffs  

       1      0.416     -0.128      0.695      0.000 
       2      0.416     -0.128      0.695      0.000 
       3      2.392     -0.674      0.550      0.000 
       4      0.000      0.000      0.000      0.000 
       5      0.000      0.000      0.000      0.000 
       6     -1.013     -0.709      0.473      0.000 
       7     -1.013     -0.709      0.473      0.000 
       8      0.000      0.000      0.000      0.000 
       9      0.000      0.000      0.000      0.000 
      10      0.000      0.000      0.000      0.000 
      11      0.000      0.000      0.300      0.000 
      12      0.000      0.000      0.275      0.000 
      13      0.000      0.000      0.000      0.000 
      14     -1.013     -0.709      0.473      0.000 
      15      0.000      0.000      0.560      0.000 
      16      0.000      0.000      0.560      0.000 
      17      0.000      0.000      0.300      0.000 
      18      0.416     -0.128      0.695      0.000 
      19      0.000      0.000      0.560      0.000 
      20      0.000      0.000      0.300      0.000 
      21      0.000      0.000      0.000      0.000 
      22      0.000      0.000      0.000      0.000 
      23     -1.013     -0.709      0.473      0.000 
      24      0.000      0.000     -0.100      0.000 
      25      0.000      0.000      0.000      0.000 
      26      0.000      0.000      0.300      0.000 
      27      0.000      0.000      0.000      0.000 
      28      0.000      0.000      0.000      0.000 
      29      0.000      0.000      0.560      0.000 
      30      0.000      0.000      0.300      0.000 
      31      0.000      0.000      0.560      0.000 
      32      0.000      0.000      0.000      0.000 
      33      0.416     -0.128      0.695      0.000 
      34      0.000      0.000      0.300      0.000 
      35      0.000      0.000      0.300      0.000 
      36      0.000      0.000      0.000      0.000 
      37      0.416     -0.128      0.695      0.000 
      38     -1.013     -0.709      0.473      0.000 
      39      0.000      0.000      0.300      0.000 
      40      0.416     -0.128      0.695      0.000 
      41      0.000      0.000      0.300      0.000 
      42      0.000      0.000      0.300      0.000 
      43      0.416     -0.128      0.695      0.000 
      44      0.000      0.000      0.000      0.000 
      45      0.000      0.000      0.300      0.000 
      46      0.000      0.000      0.000      0.000 
      47     -1.013     -0.709      0.473      0.000 
      48      0.000      0.000      0.300      0.000 
      49      0.000      0.000      0.300      0.000 
      50      0.000      0.000      0.300      0.000 
      51      0.000      0.000      0.000      0.000 
      52      0.000      0.000      0.300      0.000 
      53      0.416     -0.128      0.695      0.000 
      54      0.000      0.000      0.000      0.000 
      55      0.000      0.000      0.000      0.000 
      56      0.000      0.000      0.300      0.000 
      57      0.000      0.000      0.000      0.000 
      58      0.416     -0.128      0.695      0.000 
      59      0.000      0.000      0.000      0.000 
      60      0.000      0.000      0.000      0.000 
      61      0.416     -0.128      0.695      0.000 
      62      0.000      0.000      0.000      0.000 
      63      0.416     -0.128      0.695      0.000 
      64      0.000      0.000      0.300      0.000 
      65      0.000      0.000      0.000      0.000 
      66      0.000      0.000      0.000      0.000 
      67     -1.013     -0.709      0.473      0.000 
      68      0.416     -0.128      0.695      0.000 
      69      0.000      0.000      0.275      0.000 
      70      0.000      0.000      0.000      0.000 
      71      0.000      0.000      0.560      0.000 
      72      0.000      0.000      0.000      0.000 
      73      0.000      0.000      0.300      0.000 
      74      0.000      0.000      0.000      0.000 
      75     -0.500      0.200      0.000      0.000 
      76      0.000      0.000      0.300      0.000 
      77      0.000      0.000      0.300      0.000 
      78      0.000      0.000      0.300      0.000 
      79      0.000      0.000      0.000      0.000 
      80     -1.013     -0.709      0.473      0.000 
      81      0.000      0.000      0.000      0.000 
      82      0.000      0.000      0.300      0.000 
      83      0.000      0.000      0.300      0.000 
      84      0.000      0.000      0.300      0.000 
      85      0.000      0.000      0.300      0.000 
      86     -2.060     -0.313      0.315      0.000 

Improper Coeffs 

       1      0.000      -1       2 
       2      0.000      -1       2 
       3      0.000      -1       2 
       4      0.000      -1       2 
       5      0.000      -1       2 
       6      0.000      -1       2 
       7      0.000      -1       2 
       8      0.000      -1       2 
       9      0.000      -1       2 
      10      0.000      -1       2 
      11      0.000      -1       2 
      12      0.000      -1       2 
      13      0.000      -1       2 
      14      0.000      -1       2 
      15      0.000      -1       2 
      16      0.000      -1       2 
      17      0.000      -1       2 
      18      0.000      -1       2 
      19      0.000      -1       2 
      20     10.500      -1       2 

Atoms 

     1      1      1 -0.27730000    1.000  1.00000  0.00000
     2      1      2 0.03960000   -0.525  1.00000  0.00000
     3      1      3 -0.58500000   -1.198  1.00000  1.29650
     4      1      4 0.08910000   -1.066  2.20841  2.13994
     5      1      5 -0.24060000   -0.549  3.50834  1.52674
     6      1      6 -0.27310000   -0.239  1.80246  3.36099
     7      1      7 0.40840000   -0.588  0.35816  3.51300
     8      1      8 -0.43790000   -0.517 -0.28026  4.55470
     9      1      9 -0.00510000   -1.001 -0.17685  2.18670
    10      1     10 -0.19740000   -2.023 -1.29348  2.13125
    11      1     11 -0.14090000   -0.604 -1.54857  1.69364
    12      1     12 -0.22300000    0.304 -2.41811  2.49722
    13      1     13 0.08650000    1.363  1.46438 -0.92407
    14      1     14 0.08650000    1.396 -0.01860  0.03828
    15      1     15 0.08650000    1.433  1.55503  0.83441
    16      1     16 0.10160000   -0.868  0.13631 -0.58421
    17      1     17 0.10160000   -0.882  1.86081 -0.57774
    18      1     18 0.11670000   -2.087  2.42068  2.49353
    19      1     19 0.09230000    0.495  3.44398  1.20786
    20      1     20 0.09230000   -0.599  4.31431  2.26892
    21      1     21 0.09230000   -1.156  3.81357  0.66987
    22      1     22 0.13880000   -0.529  2.36719  4.25102
    23      1     23 0.13880000    0.841  1.87926  3.18939
    24      1     24 0.14110000   -2.788 -1.24784  1.36538
    25      1     25 0.14110000   -2.364 -1.72430  3.06667
    26      1     26 0.13810000   -0.445 -1.70878  0.63552
    27      1     27 0.09630000    0.005 -2.49555  3.54662
    28      1     28 0.09630000    1.325 -2.02192  2.45819
    29      1     29 0.09630000    0.316 -3.43196  2.08644

Bonds 

     1      1      2      1
     2      2      3      2
     3      3      4      3
     4      4      5      4
     5      5      6      4
     6      6      7      6
     7      7      8      7
     8      8      9      3
     9      9     10      9
    10     10     11      9
    11     11     12     11
    12     12     13      1
    13     13     14      1
    14     14     15      1
    15     15     16      2
    16     16     17      2
    17     17     18      4
    18     18     19      5
    19     19     20      5
    20     20     21      5
    21     21     22      6
    22     22     23      6
    23     23     24     10
    24     24     25     10
    25     25     26     11
    26     26     27     12
    27     27     28     12
    28     28     29     12
    29     29      9      7
    30     30     11     10

Angles 

     1      1      1      2      3
     2      2      2      3      4
     3      3      3      4      5
     4      4      3      4      6
     5      5      4      6      7
     6      6      6      7      8
     7      7      2      3      9
     8      8      3      9     10
     9      9      3      9     11
    10     10      9     11     12
    11     11      2      1     13
    12     12      2      1     14
    13     13      2      1     15
    14     14      1      2     16
    15     15      1      2     17
    16     16      3      4     18
    17     17      4      5     19
    18     18      4      5     20
    19     19      4      5     21
    20     20      4      6     22
    21     21      4      6     23
    22     22      9     10     24
    23     23      9     10     25
    24     24      9     11     26
    25     25     11     12     27
    26     26     11     12     28
    27     27     11     12     29
    28     28      5      4      6
    29     29      9     11     10
    30     30     13      1     14
    31     31     28     12     29
    32     32      7      6     22
    33     33     24     10     25
    34     34     19      5     20
    35     35      3      2     17
    36     36     11     10     25
    37     37      3      9      7
    38     38      7      6     23
    39     39      8      7      9
    40     40     27     12     28
    41     41      3      2     16
    42     42      4      3      9
    43     43      7      9     11
    44     44     16      2     17
    45     45     14      1     15
    46     46     10     11     12
    47     47      9     10     11
    48     48     10      9     11
    49     49      6      7      9
    50     50     19      5     21
    51     51     10     11     26
    52     52     22      6     23
    53     53     27     12     29
    54     54      7      9     10
    55     55     12     11     26
    56     56      6      4     18
    57     57      5      4     18
    58     58     13      1     15
    59     59     11     10     24
    60     60     20      5     21

Dihedrals

     1      1      4      3      2      1 
     2      2      5      4      3      2 
     3      3      7      6      4      3 
     4      4      8      7      6      4 
     5      5     12     11      9     10 
     6      6     13      1      2      3 
     7      7     19      5      4      3 
     8      8     24     10      9     11 
     9      9     25     10      9     11 
    10     10     26     11      9     10 
    11     11     27     12     11      9 
    12     12     22      6      7      9 
    13     13     23      6      7      8 
    14     14     21      5      4      3 
    15     15     17      2      3      9 
    16     16     18      4      3      2 
    17     17     28     12     11     10 
    18     18     10      9      3      4 
    19     19     18      4      3      9 
    20     20     28     12     11     26 
    21     21     26     11     10     24 
    22     22     24     10      9      3 
    23     23     22      6      4      3 
    24     24     18      4      6      7 
    25     25     26     11      9      7 
    26     26     29     12     11      9 
    27     27      9      7      6      4 
    28     28     10      9      7      8 
    29     29     17      2      3      4 
    30     30     29     12     11     10 
    31     31     16      2      3      4 
    32     32     26     11     10     25 
    33     33     11      9      3      4 
    34     34     29     12     11     26 
    35     35     22      6      4      5 
    36     36     11      9      7      6 
    37     37      7      9      3      2 
    38     38     20      5      4      3 
    39     39     21      5      4     18 
    40     40      6      4      3      2 
    41     41     20      5      4     18 
    42     42     17      2      1     15 
    43     43      9      3      2      1 
    44     44     22      6      7      8 
    45     45     19      5      4      6 
    46     46     26     11     10      9 
    47     47     23      6      4      3 
    48     48     17      2      1     13 
    49     49     23      6      4     18 
    50     50     16      2      1     14 
    51     51     12     11      9      3 
    52     52     23      6      4      5 
    53     53      7      9      3      4 
    54     54     25     10     11     12 
    55     55     12     11     10      9 
    56     56     20      5      4      6 
    57     57      8      7      9      3 
    58     58      9      3      4      6 
    59     59     11      9      7      8 
    60     60     24     10      9      7 
    61     61     10      9      3      2 
    62     62     24     10     11      9 
    63     63     11      9      3      2 
    64     64     28     12     11      9 
    65     65     25     10      9      3 
    66     66     10      9      7      6 
    67     67     15      1      2      3 
    68     68      9      3      4      5 
    69     69     23      6      7      9 
    70     70     25     10     11      9 
    71     71     16      2      3      9 
    72     72     25     10      9      7 
    73     73     19      5      4     18 
    74     74     26     11      9      3 
    75     75      6      7      9      3 
    76     76     16      2      1     13 
    77     77     21      5      4      6 
    78     78     27     12     11     26 
    79     79     24     10     11     12 
    80     80     14      1      2      3 
    81     81     12     11      9      7 
    82     82     22      6      4     18 
    83     83     16      2      1     15 
    84     84     17      2      1     14 
    85     85     27     12     11     10 
    86     86      7      6      4      5 

Impropers

     1      1      4      3      5      6 
     2      2      3      9      2      4 
     3      3      9     10      3      7 
     4      4      9     11      3      7 
     5      5      1      2     13     14 
     6      6      1      2     13     15 
     7      7      2      1      3     16 
     8      8      2     17      3      1 
     9      9      4     18      3      5 
    10     10      5      4     19     20 
    11     11      5     19      4     21 
    12     12      6      4     22      7 
    13     13      6      7      4     23 
    14     14     12     11     28     27 
    15     15     12     11     29     27 
    16     16      9     10     11      7 
    17     17      9     10     11      7 
    18     18      9     10     11      3 
    19     19      9     10     11      3 
    20     20      7      9      6      8 

