LAMMPS data file Created by LigParGen - (Written by Leela S. Dodda)

      27 atoms
      27 bonds
      52 angles
      68 dihedrals
      16 impropers
 
      27 atom types
      27 bond types
      52 angle types
      68 dihedral types
      16 improper types
 
   -7.274270    42.725730 xlo xhi
   -1.267030    48.732970 ylo yhi
   -1.027760    48.972240 zlo zhi

Masses

       1     12.011  
       2     12.011  
       3     12.011  
       4     12.011  
       5     12.011  
       6     12.011  
       7     12.011  
       8     15.999  
       9     12.011  
      10     12.011  
      11     15.999  
      12      1.008  
      13      1.008  
      14      1.008  
      15      1.008  
      16      1.008  
      17      1.008  
      18      1.008  
      19      1.008  
      20      1.008  
      21      1.008  
      22      1.008  
      23      1.008  
      24      1.008  
      25      1.008  
      26      1.008  
      27      1.008  

Pair Coeffs 

       1      0.066  3.5000000 
       2      0.066  3.5000000 
       3      0.066  3.5000000 
       4      0.066  3.5000000 
       5      0.066  3.5000000 
       6      0.066  3.5000000 
       7      0.070  3.5500000 
       8      0.210  2.9600000 
       9      0.083  3.4500000 
      10      0.083  3.4500000 
      11      0.140  2.9000000 
      12      0.030  2.5000000 
      13      0.030  2.5000000 
      14      0.030  2.5000000 
      15      0.030  2.5000000 
      16      0.030  2.5000000 
      17      0.030  2.5000000 
      18      0.030  2.5000000 
      19      0.030  2.5000000 
      20      0.030  2.5000000 
      21      0.030  2.5000000 
      22      0.030  2.5000000 
      23      0.030  2.5000000 
      24      0.030  2.5000000 
      25      0.030  2.5000000 
      26      0.030  2.5000000 
      27      0.030  2.5000000 

Bond Coeffs 

       1   268.0000     1.5290 
       2   268.0000     1.5290 
       3   268.0000     1.5290 
       4   268.0000     1.5290 
       5   268.0000     1.5290 
       6   317.0000     1.5220 
       7   570.0000     1.2290 
       8   317.0000     1.5220 
       9   260.0000     1.5200 
      10   320.0000     1.4100 
      11   340.0000     1.0900 
      12   340.0000     1.0900 
      13   340.0000     1.0900 
      14   340.0000     1.0900 
      15   340.0000     1.0900 
      16   340.0000     1.0900 
      17   340.0000     1.0900 
      18   340.0000     1.0900 
      19   340.0000     1.0900 
      20   340.0000     1.0900 
      21   340.0000     1.0900 
      22   340.0000     1.0900 
      23   340.0000     1.0900 
      24   340.0000     1.0880 
      25   340.0000     1.0880 
      26   340.0000     1.0880 
      27   320.0000     1.4100 

Angle Coeffs 

       1     58.350    112.700
       2     58.350    112.700
       3     58.350    112.700
       4     58.350    112.700
       5     63.000    111.100
       6     80.000    120.400
       7     70.000    116.000
       8     63.000    111.100
       9     50.000    109.500
      10     37.500    110.700
      11     37.500    110.700
      12     37.500    110.700
      13     37.500    110.700
      14     37.500    110.700
      15     37.500    110.700
      16     37.500    110.700
      17     37.500    110.700
      18     37.500    110.700
      19     37.500    110.700
      20     37.500    110.700
      21     37.500    110.700
      22     37.500    110.700
      23     35.000    109.500
      24     37.500    117.200
      25     37.500    117.200
      26     35.000    114.300
      27     37.500    117.200
      28     60.000     90.000
      29     37.500    110.700
      30     33.000    107.800
      31     33.000    107.800
      32     33.000    107.800
      33     33.000    107.800
      34     80.000    120.400
      35     33.000    107.800
      36     37.500    110.700
      37     37.500    110.700
      38     35.000    109.500
      39     50.000     90.000
      40     63.000    111.100
      41     33.000    107.800
      42     33.000    107.800
      43     37.500    110.700
      44     37.500    117.200
      45     33.000    107.800
      46     37.500    117.200
      47     37.500    110.700
      48     37.500    110.700
      49     50.000     90.000
      50     37.500    110.700
      51     33.000    107.800
      52     37.500    117.200

Dihedral Coeffs  

       1      1.300     -0.200      0.200      0.000 
       2      1.300     -0.200      0.200      0.000 
       3      1.300     -0.200      0.200      0.000 
       4      0.000      0.000      0.000      0.000 
       5      0.000      0.000      0.000      0.000 
       6      0.000      0.000      0.000      0.000 
       7      0.000      0.000      0.300      0.000 
       8      0.000      0.000      0.300      0.000 
       9      0.000      0.000      0.000      0.000 
      10      0.000      0.000      0.000      0.000 
      11      0.000      0.000      0.300      0.000 
      12      0.000      0.000      0.000      0.000 
      13      0.000      0.000      0.300      0.000 
      14      0.000      0.000      0.300      0.000 
      15      0.000      0.000     -0.100      0.000 
      16      0.000      0.000      0.300      0.000 
      17      0.000      0.000      0.300      0.000 
      18      0.000      0.000      0.300      0.000 
      19      0.000      0.000      0.300      0.000 
      20      0.000      0.000      0.000      0.000 
      21      0.000      0.000      0.275      0.000 
      22      0.000      0.000      0.300      0.000 
      23      0.000      0.000      0.300      0.000 
      24      0.000      0.000     -0.100      0.000 
      25      0.000      0.000      0.300      0.000 
      26      0.000      0.000      0.300      0.000 
      27      0.000      0.000      0.300      0.000 
      28      0.000      0.000      0.000      0.000 
      29      0.000      0.000      0.300      0.000 
      30      0.000      0.000      0.300      0.000 
      31      0.000      0.000      0.000      0.000 
      32      0.000      0.000      0.000      0.000 
      33      0.000      0.000      0.000      0.000 
      34      0.000      0.000      0.000      0.000 
      35      0.000      0.000      0.300      0.000 
      36      0.000      0.000      0.300      0.000 
      37     -2.060     -0.313      0.315      0.000 
      38      0.000      0.000      0.300      0.000 
      39      0.000      0.000      0.300      0.000 
      40      0.000      0.000      0.300      0.000 
      41      0.000      0.000      0.000      0.000 
      42      0.000      0.000     -0.100      0.000 
      43      0.000      0.000      0.300      0.000 
      44      0.000      0.000     -0.100      0.000 
      45      0.000      0.000      0.300      0.000 
      46      0.000      0.000      0.000      0.000 
      47      0.000      0.000      0.300      0.000 
      48      0.000      0.000      0.300      0.000 
      49      0.000      0.000      0.300      0.000 
      50      0.000      0.000      0.300      0.000 
      51      0.000      0.000      0.275      0.000 
      52      0.000      0.000      0.300      0.000 
      53      0.000      0.000      0.300      0.000 
      54      0.000      0.000      0.300      0.000 
      55      0.000      0.000      0.300      0.000 
      56      0.000      0.000      0.000      0.000 
      57      0.000      0.000      0.000      0.000 
      58      0.000      0.000      0.300      0.000 
      59      0.000      0.000     -0.100      0.000 
      60      0.000      0.000      0.000      0.000 
      61      0.000      0.000      0.300      0.000 
      62      0.000      0.000      0.000      0.000 
      63      0.000      0.000      0.000      0.000 
      64      0.000      0.500      0.000      0.000 
      65      0.000      0.000      0.000      0.000 
      66      0.000      0.000      0.300      0.000 
      67      0.000      0.000      0.300      0.000 
      68      0.000      0.000      0.300      0.000 

Improper Coeffs 

       1      0.000      -1       2 
       2     10.500      -1       2 
       3      0.000      -1       2 
       4      0.000      -1       2 
       5      0.000      -1       2 
       6      0.000      -1       2 
       7      0.000      -1       2 
       8      0.000      -1       2 
       9      0.000      -1       2 
      10      0.000      -1       2 
      11      0.000      -1       2 
      12      0.000      -1       2 
      13      0.000      -1       2 
      14      0.000      -1       2 
      15      0.000      -1       2 
      16      0.000      -1       2 

Atoms 

     1      1      1 -0.23870000    1.000  1.00000  0.00000
     2      1      2 -0.17960000   -0.520  1.00000  0.00000
     3      1      3 -0.17550000   -1.085  1.00000  1.42196
     4      1      4 -0.17210000   -2.615  1.00181  1.39898
     5      1      5 -0.15620000   -3.266  1.00015  2.79380
     6      1      6 -0.22930000   -2.913  2.23676  3.61746
     7      1      7 0.39130000   -4.780  0.94289  2.63883
     8      1      8 -0.42660000   -5.391  1.48002  1.72136
     9      1      9 -0.10970000   -5.541  0.27820  3.72136
    10      1     10 -0.06420000   -6.372 -0.93571  3.39253
    11      1     11 -0.33110000   -5.114 -1.04712  4.06962
    12      1     12 0.08150000    1.377  1.00130 -1.02776
    13      1     13 0.08150000    1.391  0.11179  0.50624
    14      1     14 0.08150000    1.392  1.88753  0.50611
    15      1     15 0.09030000   -0.880  0.11944 -0.54499
    16      1     16 0.09030000   -0.876  1.88527 -0.54074
    17      1     17 0.09070000   -0.714  1.88768  1.94868
    18      1     18 0.09070000   -0.722  0.11980  1.96499
    19      1     19 0.10170000   -2.963  0.11589  0.85021
    20      1     20 0.10170000   -2.962  1.87256  0.82820
    21      1     21 0.13670000   -2.932  0.10479  3.33125
    22      1     22 0.09210000   -3.194  3.15595  3.09116
    23      1     23 0.09210000   -1.843  2.28020  3.83909
    24      1     24 0.09210000   -3.446  2.23288  4.57497
    25      1     25 0.17900000   -5.902  0.92820  4.50864
    26      1     26 0.14490000   -6.420 -1.26703  2.36194
    27      1     27 0.14490000   -7.274 -1.10540  3.96586

Bonds 

     1      1      2      1
     2      2      3      2
     3      3      4      3
     4      4      5      4
     5      5      6      5
     6      6      7      5
     7      7      8      7
     8      8      9      7
     9      9     10      9
    10     10     11      9
    11     11     12      1
    12     12     13      1
    13     13     14      1
    14     14     15      2
    15     15     16      2
    16     16     17      3
    17     17     18      3
    18     18     19      4
    19     19     20      4
    20     20     21      5
    21     21     22      6
    22     22     23      6
    23     23     24      6
    24     24     25      9
    25     25     26     10
    26     26     27     10
    27     27     11     10

Angles 

     1      1      1      2      3
     2      2      2      3      4
     3      3      3      4      5
     4      4      4      5      6
     5      5      4      5      7
     6      6      5      7      8
     7      7      5      7      9
     8      8      7      9     10
     9      9      7      9     11
    10     10      2      1     12
    11     11      2      1     13
    12     12      2      1     14
    13     13      1      2     15
    14     14      1      2     16
    15     15      2      3     17
    16     16      2      3     18
    17     17      3      4     19
    18     18      3      4     20
    19     19      4      5     21
    20     20      5      6     22
    21     21      5      6     23
    22     22      5      6     24
    23     23      7      9     25
    24     24      9     10     26
    25     25      9     10     27
    26     26     26     10     27
    27     27     11     10     27
    28     28      9     11     10
    29     29      3      2     15
    30     30     13      1     14
    31     31     22      6     24
    32     32     15      2     16
    33     33     12      1     14
    34     34      8      7      9
    35     35     19      4     20
    36     36      3      2     16
    37     37      4      3     18
    38     38      7      5     21
    39     39      9     10     11
    40     40      6      5      7
    41     41     12      1     13
    42     42     22      6     23
    43     43      5      4     19
    44     44     10      9     25
    45     45     23      6     24
    46     46     11     10     26
    47     47      6      5     21
    48     48      5      4     20
    49     49     10      9     11
    50     50      4      3     17
    51     51     17      3     18
    52     52     11      9     25

Dihedrals

     1      1      4      3      2      1 
     2      2      5      4      3      2 
     3      3      6      5      4      3 
     4      4      8      7      5      4 
     5      5     10      9      7      5 
     6      6     11      9      7     10 
     7      7     12      1      2      3 
     8      8     22      6      5      4 
     9      9     26     10      9     11 
    10     10     27     10      9     11 
    11     11     16      2      3      4 
    12     12     21      5      7      8 
    13     13     13      1      2      3 
    14     14     18      3      2      1 
    15     15     24      6      5      7 
    16     16     19      4      3     18 
    17     17     15      2      1     12 
    18     18     17      3      2     16 
    19     19     18      3      2     15 
    20     20     25      9      7      8 
    21     21     25      9      7      5 
    22     22     24      6      5     21 
    23     23     23      6      5     21 
    24     24     19      4      5      7 
    25     25     20      4      5      6 
    26     26     15      2      3      4 
    27     27     22      6      5     21 
    28     28     25      9     10     11 
    29     29     18      3      4      5 
    30     30     21      5      4     20 
    31     31     27     10     11      9 
    32     32     27     10      9     25 
    33     33      9      7      5      6 
    34     34      8      7      5      6 
    35     35     24      6      5      4 
    36     36     20      4      3     17 
    37     37      7      5      4      3 
    38     38     16      2      1     13 
    39     39     15      2      1     14 
    40     40     20      4      3     18 
    41     41     11      9      7      8 
    42     42     20      4      5      7 
    43     43     19      4      3      2 
    44     44     22      6      5      7 
    45     45     23      6      5      4 
    46     46     25      9     11     10 
    47     47     17      3      2     15 
    48     48     17      3      4      5 
    49     49     20      4      3      2 
    50     50     17      3      2      1 
    51     51     21      5      7      9 
    52     52     19      4      5      6 
    53     53     14      1      2      3 
    54     54     19      4      3     17 
    55     55     21      5      4      3 
    56     56     26     10      9      7 
    57     57     26     10     11      9 
    58     58     18      3      2     16 
    59     59     23      6      5      7 
    60     60     26     10      9     25 
    61     61     16      2      1     14 
    62     62     27     10      9      7 
    63     63      9      7      5      4 
    64     64     11      9      7      5 
    65     65     10      9      7      8 
    66     66     21      5      4     19 
    67     67     15      2      1     13 
    68     68     16      2      1     12 

Impropers

     1      1      5      4      6      7 
     2      2      7      9      5      8 
     3      3      1      2     12     13 
     4      4      1      2     12     14 
     5      5      2      1      3     15 
     6      6      2      1      3     16 
     7      7      3     17      2      4 
     8      8      3     18      4      2 
     9      9      4     19      5      3 
    10     10      4      3     20      5 
    11     11      5      4     21      6 
    12     12      6      5     23     22 
    13     13      6     22      5     24 
    14     14      9     25      7     10 
    15     15      9     10     11      7 
    16     16      9     10     11      7 

