LAMMPS data file Created by LigParGen - (Written by Leela S. Dodda)

      35 atoms
      35 bonds
      69 angles
      98 dihedrals
      20 impropers
 
      35 atom types
      35 bond types
      69 angle types
      98 dihedral types
      20 improper types
 
   -6.544740    43.455260 xlo xhi
   -3.538980    46.461020 ylo yhi
   -1.023320    48.976680 zlo zhi

Masses

       1     12.011  
       2     12.011  
       3     12.011  
       4     12.011  
       5     12.011  
       6     12.011  
       7     12.011  
       8     12.011  
       9     12.011  
      10     15.999  
      11     12.011  
      12     12.011  
      13     12.011  
      14      1.008  
      15      1.008  
      16      1.008  
      17      1.008  
      18      1.008  
      19      1.008  
      20      1.008  
      21      1.008  
      22      1.008  
      23      1.008  
      24      1.008  
      25      1.008  
      26      1.008  
      27      1.008  
      28      1.008  
      29      1.008  
      30      1.008  
      31      1.008  
      32      1.008  
      33      1.008  
      34      1.008  
      35      1.008  

Pair Coeffs 

       1      0.066  3.5000000 
       2      0.066  3.5000000 
       3      0.066  3.5000000 
       4      0.066  3.5000000 
       5      0.066  3.5000000 
       6      0.066  3.5000000 
       7      0.066  3.5000000 
       8      0.066  3.5000000 
       9      0.070  3.5500000 
      10      0.210  2.9600000 
      11      0.083  3.4500000 
      12      0.083  3.4500000 
      13      0.083  3.4500000 
      14      0.030  2.5000000 
      15      0.030  2.5000000 
      16      0.030  2.5000000 
      17      0.030  2.5000000 
      18      0.030  2.5000000 
      19      0.030  2.5000000 
      20      0.030  2.5000000 
      21      0.030  2.5000000 
      22      0.030  2.5000000 
      23      0.030  2.5000000 
      24      0.030  2.5000000 
      25      0.030  2.5000000 
      26      0.030  2.5000000 
      27      0.030  2.5000000 
      28      0.030  2.5000000 
      29      0.030  2.5000000 
      30      0.030  2.5000000 
      31      0.030  2.5000000 
      32      0.030  2.5000000 
      33      0.030  2.5000000 
      34      0.030  2.5000000 
      35      0.030  2.5000000 

Bond Coeffs 

       1   268.0000     1.5290 
       2   268.0000     1.5290 
       3   268.0000     1.5290 
       4   268.0000     1.5290 
       5   268.0000     1.5290 
       6   268.0000     1.5290 
       7   268.0000     1.5290 
       8   317.0000     1.5220 
       9   570.0000     1.2290 
      10   317.0000     1.5220 
      11   260.0000     1.5200 
      12   260.0000     1.5200 
      13   340.0000     1.0900 
      14   340.0000     1.0900 
      15   340.0000     1.0900 
      16   340.0000     1.0900 
      17   340.0000     1.0900 
      18   340.0000     1.0900 
      19   340.0000     1.0900 
      20   340.0000     1.0900 
      21   340.0000     1.0900 
      22   340.0000     1.0900 
      23   340.0000     1.0900 
      24   340.0000     1.0900 
      25   340.0000     1.0900 
      26   340.0000     1.0900 
      27   340.0000     1.0900 
      28   340.0000     1.0900 
      29   340.0000     1.0900 
      30   340.0000     1.0880 
      31   340.0000     1.0880 
      32   340.0000     1.0880 
      33   340.0000     1.0880 
      34   340.0000     1.0880 
      35   260.0000     1.5200 

Angle Coeffs 

       1     58.350    112.700
       2     58.350    112.700
       3     58.350    112.700
       4     58.350    112.700
       5     58.350    112.700
       6     58.350    112.700
       7     63.000    111.100
       8     80.000    120.400
       9     70.000    116.000
      10     63.000    111.100
      11     63.000    111.100
      12     37.500    110.700
      13     37.500    110.700
      14     37.500    110.700
      15     37.500    110.700
      16     37.500    110.700
      17     37.500    110.700
      18     37.500    110.700
      19     37.500    110.700
      20     37.500    110.700
      21     37.500    110.700
      22     37.500    110.700
      23     37.500    110.700
      24     37.500    110.700
      25     37.500    110.700
      26     37.500    110.700
      27     37.500    110.700
      28     37.500    110.700
      29     35.000    109.500
      30     37.500    117.200
      31     37.500    117.200
      32     37.500    117.200
      33     37.500    117.200
      34     37.500    117.200
      35     37.500    117.200
      36     37.500    117.200
      37     37.500    110.700
      38     35.000    109.500
      39     37.500    117.200
      40     37.500    110.700
      41     33.000    107.800
      42     33.000    107.800
      43     37.500    110.700
      44     33.000    107.800
      45     37.500    110.700
      46     37.500    117.200
      47     37.500    110.700
      48     35.000    114.300
      49     35.000    114.300
      50     37.500    110.700
      51     37.500    110.700
      52     33.000    107.800
      53     37.500    117.200
      54     33.000    107.800
      55     33.000    107.800
      56     33.000    107.800
      57     58.350    112.700
      58     35.000    109.500
      59     33.000    107.800
      60     80.000    120.400
      61     30.000     83.000
      62     37.500    110.700
      63     33.000    107.800
      64     33.000    107.800
      65     37.500    110.700
      66     37.500    110.700
      67     30.000     83.000
      68     33.000    107.800
      69     30.000     83.000

Dihedral Coeffs  

       1      1.300     -0.200      0.200      0.000 
       2      1.300     -0.200      0.200      0.000 
       3      1.300     -0.200      0.200      0.000 
       4      1.300     -0.200      0.200      0.000 
       5     -2.060     -0.313      0.315      0.000 
       6      0.000      0.000      0.000      0.000 
       7      0.000      0.000      0.000      0.000 
       8      0.000      0.000      0.000      0.000 
       9      0.000      0.000      0.300      0.000 
      10      0.000      0.000      0.300      0.000 
      11      0.000      0.000      0.000      0.000 
      12      0.000      0.000      0.000      0.000 
      13      0.000      0.000      0.000      0.000 
      14      0.000      0.000      0.000      0.000 
      15      0.000      0.000      0.000      0.000 
      16      0.000      0.000      0.300      0.000 
      17      0.000      0.000      0.275      0.000 
      18      0.000      0.000      0.000      0.000 
      19      0.000      0.000      0.300      0.000 
      20      0.000      0.000      0.300      0.000 
      21      0.000      0.000      0.000      0.000 
      22      0.000      0.000     -0.100      0.000 
      23      0.000      0.000      0.300      0.000 
      24      0.000      0.000      0.000      0.000 
      25      0.000      0.000      0.300      0.000 
      26      0.000      0.000      0.000      0.000 
      27      0.000      0.000      0.300      0.000 
      28      0.000      0.000      0.300      0.000 
      29      0.000      0.000      0.300      0.000 
      30      0.000      0.000      0.300      0.000 
      31      0.000      0.000      0.300      0.000 
      32      0.000      0.000      0.000      0.000 
      33      0.000      0.000      0.300      0.000 
      34      0.000      0.000      0.300      0.000 
      35      0.000      0.000      0.300      0.000 
      36      0.000      0.000      0.300      0.000 
      37      0.000      0.000      0.300      0.000 
      38      0.000      0.000      0.000      0.000 
      39      0.000      0.000      0.300      0.000 
      40      0.000      0.000      0.300      0.000 
      41      0.000      0.000      0.300      0.000 
      42      0.000      0.000      0.300      0.000 
      43      0.000      0.000      0.000      0.000 
      44      0.000      0.000      0.300      0.000 
      45      0.000      0.000      0.000      0.000 
      46      0.000      0.000      0.300      0.000 
      47      0.000      0.000      0.300      0.000 
      48      0.000      0.000      0.300      0.000 
      49      0.000      0.000      0.000      0.000 
      50      0.000      0.000      0.000      0.000 
      51      0.000      0.000      0.000      0.000 
      52      0.000      0.000      0.300      0.000 
      53     -2.060     -0.313      0.315      0.000 
      54      0.000      0.000      0.300      0.000 
      55      0.000      0.000      0.000      0.000 
      56      0.000      0.000      0.300      0.000 
      57      0.000      0.000      0.300      0.000 
      58      0.000      0.000      0.300      0.000 
      59      0.000      0.000      0.000      0.000 
      60      1.300     -0.200      0.200      0.000 
      61      0.000      0.000      0.275      0.000 
      62      0.000      0.000      0.000      0.000 
      63      0.000      0.000      0.000      0.000 
      64      0.000      0.000      0.300      0.000 
      65      0.000      0.000      0.300      0.000 
      66      0.000      0.000      0.275      0.000 
      67      0.000      0.000      0.300      0.000 
      68      0.000      0.000      0.000      0.000 
      69      0.000      0.000      0.300      0.000 
      70      0.000      0.000      0.300      0.000 
      71      0.000      0.000      0.000      0.000 
      72      0.000      0.000      0.000      0.000 
      73      0.000      0.000      0.300      0.000 
      74      0.000      0.000      0.300      0.000 
      75      0.000      0.000      0.300      0.000 
      76      0.000      0.000      0.300      0.000 
      77      0.000      0.000      0.300      0.000 
      78      0.000      0.000      0.000      0.000 
      79      0.000      0.000      0.300      0.000 
      80      0.000      0.000      0.300      0.000 
      81      0.000      0.000      0.300      0.000 
      82      0.000      0.000      0.000      0.000 
      83      0.000      0.000      0.000      0.000 
      84      0.000      0.000      0.300      0.000 
      85      0.000      0.000      0.300      0.000 
      86      0.000      0.000      0.300      0.000 
      87      0.000      0.000      0.300      0.000 
      88      0.000      0.000      0.000      0.000 
      89      0.000      0.000      0.300      0.000 
      90      0.000      0.000      0.000      0.000 
      91      0.000      0.000      0.300      0.000 
      92      0.000      0.000      0.300      0.000 
      93      0.000      0.000      0.300      0.000 
      94      0.000      0.000      0.000      0.000 
      95      1.300     -0.200      0.200      0.000 
      96      0.000      0.000      0.300      0.000 
      97      0.000      0.000      0.300      0.000 
      98      0.000      0.000      0.300      0.000 

Improper Coeffs 

       1      0.000      -1       2 
       2     10.500      -1       2 
       3      0.000      -1       2 
       4      0.000      -1       2 
       5      0.000      -1       2 
       6      0.000      -1       2 
       7      0.000      -1       2 
       8      0.000      -1       2 
       9      0.000      -1       2 
      10      0.000      -1       2 
      11      0.000      -1       2 
      12      0.000      -1       2 
      13      0.000      -1       2 
      14      0.000      -1       2 
      15      0.000      -1       2 
      16      0.000      -1       2 
      17      0.000      -1       2 
      18      0.000      -1       2 
      19      0.000      -1       2 
      20      0.000      -1       2 

Atoms 

     1      1      1 -0.23930000    1.000  1.00000  0.00000
     2      1      2 -0.17930000   -0.521  1.00000  0.00000
     3      1      3 -0.17880000   -1.058  1.00000  1.43028
     4      1      4 -0.17560000   -2.590  0.99821  1.47470
     5      1      5 -0.09490000   -3.150  0.99638  2.91957
     6      1      6 -0.17260000   -2.656  2.18640  3.77456
     7      1      7 -0.23840000   -3.090  3.56242  3.28502
     8      1      8 -0.22750000   -4.687  0.93055  2.91985
     9      1      9 0.40840000   -5.234 -0.30992  2.25469
    10      1     10 -0.45060000   -5.886 -0.26345  1.21786
    11      1     11 -0.27200000   -4.942 -1.61184  2.92275
    12      1     12 -0.21090000   -5.755 -2.84277  2.59368
    13      1     13 -0.21010000   -4.336 -2.73803  2.11539
    14      1     14 0.08090000    1.383  1.04708 -1.02332
    15      1     15 0.08090000    1.389  0.08993  0.46875
    16      1     16 0.08090000    1.391  1.86270  0.55002
    17      1     17 0.09050000   -0.886  0.12059 -0.54285
    18      1     18 0.09050000   -0.881  1.88883 -0.53157
    19      1     19 0.08920000   -0.666  1.88614  1.93874
    20      1     20 0.08920000   -0.680  0.11875  1.96268
    21      1     21 0.09580000   -2.941  0.10093  0.95016
    22      1     22 0.09580000   -2.980  1.85332  0.91254
    23      1     23 0.09670000   -2.767  0.08794  3.40524
    24      1     24 0.08840000   -1.563  2.16269  3.84049
    25      1     25 0.08840000   -3.010  2.05814  4.80507
    26      1     26 0.08330000   -3.021  3.66291  2.19904
    27      1     27 0.08330000   -2.453  4.33427  3.72861
    28      1     28 0.08330000   -4.122  3.77156  3.58512
    29      1     29 0.12000000   -5.113  1.80151  2.40912
    30      1     30 0.12000000   -5.070  0.94894  3.95090
    31      1     31 0.14500000   -4.608 -1.52763  3.95371
    32      1     32 0.13670000   -6.545 -2.75552  1.85283
    33      1     33 0.13670000   -5.975 -3.53898  3.39423
    34      1     34 0.13300000   -4.175 -2.58253  1.05304
    35      1     35 0.13300000   -3.593 -3.36756  2.59034

Bonds 

     1      1      2      1
     2      2      3      2
     3      3      4      3
     4      4      5      4
     5      5      6      5
     6      6      7      6
     7      7      8      5
     8      8      9      8
     9      9     10      9
    10     10     11      9
    11     11     12     11
    12     12     13     11
    13     13     14      1
    14     14     15      1
    15     15     16      1
    16     16     17      2
    17     17     18      2
    18     18     19      3
    19     19     20      3
    20     20     21      4
    21     21     22      4
    22     22     23      5
    23     23     24      6
    24     24     25      6
    25     25     26      7
    26     26     27      7
    27     27     28      7
    28     28     29      8
    29     29     30      8
    30     30     31     11
    31     31     32     12
    32     32     33     12
    33     33     34     13
    34     34     35     13
    35     35     13     12

Angles 

     1      1      1      2      3
     2      2      2      3      4
     3      3      3      4      5
     4      4      4      5      6
     5      5      5      6      7
     6      6      4      5      8
     7      7      5      8      9
     8      8      8      9     10
     9      9      8      9     11
    10     10      9     11     12
    11     11      9     11     13
    12     12      2      1     14
    13     13      2      1     15
    14     14      2      1     16
    15     15      1      2     17
    16     16      1      2     18
    17     17      2      3     19
    18     18      2      3     20
    19     19      3      4     21
    20     20      3      4     22
    21     21      4      5     23
    22     22      5      6     24
    23     23      5      6     25
    24     24      6      7     26
    25     25      6      7     27
    26     26      6      7     28
    27     27      5      8     29
    28     28      5      8     30
    29     29      9     11     31
    30     30     11     12     32
    31     31     11     12     33
    32     32     11     13     34
    33     33     11     13     35
    34     34     12     13     34
    35     35     12     11     31
    36     36     12     13     35
    37     37      7      6     24
    38     38      9      8     30
    39     39     13     12     33
    40     40      3      2     18
    41     41     27      7     28
    42     42     29      8     30
    43     43      3      2     17
    44     44     24      6     25
    45     45      7      6     25
    46     46     13     12     32
    47     47      4      3     19
    48     48     34     13     35
    49     49     32     12     33
    50     50      8      5     23
    51     51      5      4     22
    52     52     26      7     27
    53     53     13     11     31
    54     54     15      1     16
    55     55     14      1     15
    56     56     17      2     18
    57     57      6      5      8
    58     58      9      8     29
    59     59     19      3     20
    60     60     10      9     11
    61     61     12     11     13
    62     62      6      5     23
    63     63     26      7     28
    64     64     14      1     16
    65     65      5      4     21
    66     66      4      3     20
    67     67     11     12     13
    68     68     21      4     22
    69     69     11     13     12

Dihedrals

     1      1      4      3      2      1 
     2      2      5      4      3      2 
     3      3      6      5      4      3 
     4      4      7      6      5      4 
     5      5      9      8      5      4 
     6      6     10      9      8      5 
     7      7     12     11      9      8 
     8      8     13     11      9     12 
     9      9     14      1      2      3 
    10     10     26      7      6      5 
    11     11     32     12     11     13 
    12     12     33     12     11     13 
    13     13     34     13     11     12 
    14     14     35     13     11     12 
    15     15     32     12     13     11 
    16     16     28      7      6     25 
    17     17     29      8      9     11 
    18     18     33     12     11     31 
    19     19     26      7      6     25 
    20     20     27      7      6     24 
    21     21     13     11      9     10 
    22     22     23      5      8      9 
    23     23     24      6      5      8 
    24     24     30      8      9     10 
    25     25     28      7      6      5 
    26     26     34     13     11      9 
    27     27     23      5      6      7 
    28     28     17      2      1     16 
    29     29     18      2      1     15 
    30     30     17      2      3      4 
    31     31     19      3      2      1 
    32     32     31     11     13     12 
    33     33     25      6      5     23 
    34     34     21      4      5      8 
    35     35     20      3      2      1 
    36     36     21      4      3     19 
    37     37     20      3      2     18 
    38     38     35     13     12     33 
    39     39     22      4      3     20 
    40     40     18      2      1     14 
    41     41     17      2      1     15 
    42     42     29      8      5      4 
    43     43     33     12     13     11 
    44     44     26      7      6     24 
    45     45     13     11      9      8 
    46     46     30      8      5      6 
    47     47     27      7      6      5 
    48     48     23      5      4     21 
    49     49     35     13     11     31 
    50     50     29      8      9     10 
    51     51     34     13     11     31 
    52     52     20      3      4      5 
    53     53      9      8      5      6 
    54     54     23      5      4      3 
    55     55     31     11     12     13 
    56     56     21      4      3      2 
    57     57     30      8      5     23 
    58     58     24      6      5      4 
    59     59     31     11      9     10 
    60     60      8      5      6      7 
    61     61     30      8      9     11 
    62     62     11      9      8      5 
    63     63     12     11      9     10 
    64     64     27      7      6     25 
    65     65     28      7      6     24 
    66     66     31     11      9      8 
    67     67     15      1      2      3 
    68     68     35     13     12     11 
    69     69     22      4      5      8 
    70     70     25      6      5      4 
    71     71     34     13     12     32 
    72     72     32     12     11     31 
    73     73     21      4      3     20 
    74     74     22      4      3     19 
    75     75     29      8      5     23 
    76     76     30      8      5      4 
    77     77     22      4      3      2 
    78     78     33     12     11      9 
    79     79     20      3      2     17 
    80     80     19      3      2     18 
    81     81     19      3      2     17 
    82     82     35     13     12     32 
    83     83     34     13     12     33 
    84     84     21      4      5      6 
    85     85     19      3      4      5 
    86     86     18      2      3      4 
    87     87     23      5      4     22 
    88     88     32     12     11      9 
    89     89     22      4      5      6 
    90     90     35     13     11      9 
    91     91     16      1      2      3 
    92     92     17      2      1     14 
    93     93     25      6      5      8 
    94     94     34     13     12     11 
    95     95      8      5      4      3 
    96     96     18      2      1     16 
    97     97     24      6      5     23 
    98     98     29      8      5      6 

Impropers

     1      1      5      4      6      8 
     2      2      9     10     11      8 
     3      3      1      2     14     15 
     4      4      1      2     14     16 
     5      5      2     17      3      1 
     6      6      2      1     18      3 
     7      7      3      2     19      4 
     8      8      3      4      2     20 
     9      9      4      5      3     21 
    10     10      4      3      5     22 
    11     11      5      4      6     23 
    12     12      6      5      7     24 
    13     13      6     25      5      7 
    14     14      7     26     27      6 
    15     15      7     26     28      6 
    16     16      8      9      5     29 
    17     17      8      9      5     30 
    18     18     11      9     12     31 
    19     19     11     12     13      9 
    20     20     11     12     13      9 

