LAMMPS data file Created by LigParGen - (Written by Leela S. Dodda)

      50 atoms
      52 bonds
     106 angles
     173 dihedrals
      33 impropers
 
      50 atom types
      52 bond types
     106 angle types
     173 dihedral types
      33 improper types
 
   -6.295190    43.704810 xlo xhi
    0.009010    50.009010 ylo yhi
   -2.504240    47.495760 zlo zhi

Masses

       1     12.011  
       2     12.011  
       3     12.011  
       4     12.011  
       5     12.011  
       6     12.011  
       7     12.011  
       8     12.011  
       9     12.011  
      10     12.011  
      11     12.011  
      12     12.011  
      13     15.999  
      14     15.999  
      15     12.011  
      16     12.011  
      17     12.011  
      18     12.011  
      19     12.011  
      20     12.011  
      21      1.008  
      22      1.008  
      23      1.008  
      24      1.008  
      25      1.008  
      26      1.008  
      27      1.008  
      28      1.008  
      29      1.008  
      30      1.008  
      31      1.008  
      32      1.008  
      33      1.008  
      34      1.008  
      35      1.008  
      36      1.008  
      37      1.008  
      38      1.008  
      39      1.008  
      40      1.008  
      41      1.008  
      42      1.008  
      43      1.008  
      44      1.008  
      45      1.008  
      46      1.008  
      47      1.008  
      48      1.008  
      49      1.008  
      50      1.008  

Pair Coeffs 

       1      0.066  3.5000000 
       2      0.066  3.5000000 
       3      0.066  3.5000000 
       4      0.066  3.5000000 
       5      0.066  3.5000000 
       6      0.066  3.5000000 
       7      0.066  3.5000000 
       8      0.066  3.5000000 
       9      0.066  3.5000000 
      10      0.066  3.5000000 
      11      0.066  3.5000000 
      12      0.070  3.5500000 
      13      0.210  2.9600000 
      14      0.140  2.9000000 
      15      0.066  3.5000000 
      16      0.066  3.5000000 
      17      0.066  3.5000000 
      18      0.066  3.5000000 
      19      0.066  3.5000000 
      20      0.066  3.5000000 
      21      0.030  2.5000000 
      22      0.030  2.5000000 
      23      0.030  2.5000000 
      24      0.030  2.5000000 
      25      0.030  2.5000000 
      26      0.030  2.5000000 
      27      0.030  2.5000000 
      28      0.030  2.5000000 
      29      0.030  2.5000000 
      30      0.030  2.5000000 
      31      0.030  2.5000000 
      32      0.030  2.5000000 
      33      0.030  2.5000000 
      34      0.030  2.5000000 
      35      0.030  2.5000000 
      36      0.030  2.5000000 
      37      0.030  2.5000000 
      38      0.030  2.5000000 
      39      0.030  2.5000000 
      40      0.030  2.5000000 
      41      0.030  2.5000000 
      42      0.030  2.5000000 
      43      0.030  2.5000000 
      44      0.030  2.5000000 
      45      0.030  2.5000000 
      46      0.030  2.5000000 
      47      0.030  2.5000000 
      48      0.030  2.5000000 
      49      0.030  2.5000000 
      50      0.030  2.5000000 

Bond Coeffs 

       1   268.0000     1.5290 
       2   268.0000     1.5290 
       3   268.0000     1.5290 
       4   268.0000     1.5290 
       5   268.0000     1.5290 
       6   268.0000     1.5290 
       7   268.0000     1.5290 
       8   268.0000     1.5290 
       9   268.0000     1.5290 
      10   268.0000     1.5290 
      11   317.0000     1.5220 
      12   570.0000     1.2290 
      13   214.0000     1.3270 
      14   320.0000     1.4100 
      15   268.0000     1.5290 
      16   268.0000     1.5290 
      17   268.0000     1.5290 
      18   268.0000     1.5290 
      19   268.0000     1.5290 
      20   340.0000     1.0900 
      21   340.0000     1.0900 
      22   340.0000     1.0900 
      23   340.0000     1.0900 
      24   340.0000     1.0900 
      25   340.0000     1.0900 
      26   340.0000     1.0900 
      27   340.0000     1.0900 
      28   340.0000     1.0900 
      29   340.0000     1.0900 
      30   340.0000     1.0900 
      31   340.0000     1.0900 
      32   340.0000     1.0900 
      33   340.0000     1.0900 
      34   340.0000     1.0900 
      35   340.0000     1.0900 
      36   340.0000     1.0900 
      37   340.0000     1.0900 
      38   340.0000     1.0900 
      39   340.0000     1.0900 
      40   340.0000     1.0900 
      41   340.0000     1.0900 
      42   340.0000     1.0900 
      43   340.0000     1.0900 
      44   340.0000     1.0900 
      45   340.0000     1.0900 
      46   340.0000     1.0900 
      47   340.0000     1.0900 
      48   340.0000     1.0900 
      49   340.0000     1.0900 
      50   268.0000     1.5290 
      51   268.0000     1.5290 
      52   268.0000     1.5290 

Angle Coeffs 

       1     58.350    112.700
       2     58.350    112.700
       3     58.350    112.700
       4     58.350    112.700
       5     58.350    112.700
       6     58.350    112.700
       7     58.350    112.700
       8     58.350    112.700
       9     58.350    112.700
      10     63.000    111.100
      11     80.000    120.400
      12     81.000    111.400
      13     83.000    116.900
      14     50.000    109.500
      15     58.350    112.700
      16     58.350    112.700
      17     50.000    109.500
      18     58.350    112.700
      19     37.500    110.700
      20     37.500    110.700
      21     37.500    110.700
      22     37.500    110.700
      23     37.500    110.700
      24     37.500    110.700
      25     37.500    110.700
      26     37.500    110.700
      27     37.500    110.700
      28     37.500    110.700
      29     37.500    110.700
      30     37.500    110.700
      31     37.500    110.700
      32     37.500    110.700
      33     37.500    110.700
      34     37.500    110.700
      35     37.500    110.700
      36     37.500    110.700
      37     37.500    110.700
      38     35.000    109.500
      39     37.500    110.700
      40     37.500    110.700
      41     37.500    110.700
      42     37.500    110.700
      43     37.500    110.700
      44     37.500    110.700
      45     37.500    110.700
      46     37.500    110.700
      47     37.500    110.700
      48     37.500    110.700
      49     37.500    110.700
      50     37.500    110.700
      51     83.000    123.400
      52     63.000    111.100
      53     37.500    110.700
      54     37.500    110.700
      55     33.000    107.800
      56     33.000    107.800
      57     33.000    107.800
      58     33.000    107.800
      59     37.500    110.700
      60     33.000    107.800
      61     33.000    107.800
      62     37.500    110.700
      63     33.000    107.800
      64     33.000    107.800
      65     33.000    107.800
      66     33.000    107.800
      67     58.350    112.700
      68     37.500    110.700
      69     37.500    110.700
      70     33.000    107.800
      71     37.500    110.700
      72     37.500    110.700
      73     37.500    110.700
      74     37.500    110.700
      75     58.350    112.700
      76     33.000    107.800
      77     37.500    110.700
      78     33.000    107.800
      79     37.500    110.700
      80     58.350    112.700
      81     37.500    110.700
      82     58.350    112.700
      83     37.500    110.700
      84     33.000    107.800
      85     58.350    112.700
      86     58.350    112.700
      87     58.350    112.700
      88     37.500    110.700
      89     33.000    107.800
      90     58.350    112.700
      91     33.000    107.800
      92     58.350    112.700
      93     58.350    112.700
      94     37.500    110.700
      95     58.350    112.700
      96     37.500    110.700
      97     33.000    107.800
      98     58.350    112.700
      99     37.500    110.700
     100     58.350    112.700
     101     37.500    110.700
     102     33.000    107.800
     103     37.500    110.700
     104     37.500    110.700
     105     37.500    110.700
     106     63.000    111.100

Dihedral Coeffs  

       1      1.300     -0.200      0.200      0.000 
       2      1.300     -0.200      0.200      0.000 
       3      1.300     -0.200      0.200      0.000 
       4      1.300     -0.200      0.200      0.000 
       5      1.300     -0.200      0.200      0.000 
       6      1.300     -0.200      0.200      0.000 
       7      0.000      0.000      0.000      0.000 
       8      4.669      5.124      0.000      0.000 
       9     -1.220     -0.126      0.422      0.000 
      10      1.711     -0.500      0.663      0.000 
      11      1.300     -0.200      0.200      0.000 
      12      0.000      0.000      0.300      0.000 
      13      0.000      0.000      0.300      0.000 
      14      0.000      0.000      0.300      0.000 
      15      0.000      0.000      0.300      0.000 
      16      0.000      0.000      0.300      0.000 
      17      0.000      0.000      0.300      0.000 
      18      0.000      0.000      0.300      0.000 
      19      0.000      0.000      0.300      0.000 
      20      1.300     -0.200      0.200      0.000 
      21      0.000      0.000      0.300      0.000 
      22      0.000      0.000      0.300      0.000 
      23      0.000      0.000      0.300      0.000 
      24      0.000      0.000      0.300      0.000 
      25      0.000      0.000      0.300      0.000 
      26      0.000      0.000      0.300      0.000 
      27      1.300     -0.200      0.200      0.000 
      28      1.300     -0.200      0.200      0.000 
      29      0.000      0.000      0.300      0.000 
      30      0.000      0.000      0.198      0.000 
      31      1.300     -0.200      0.200      0.000 
      32      0.000      0.000     -0.100      0.000 
      33      0.000      0.000      0.300      0.000 
      34      0.000      0.000      0.300      0.000 
      35      0.000      0.000      0.300      0.000 
      36      1.300     -0.200      0.200      0.000 
      37      0.000      0.000      0.300      0.000 
      38      0.000      0.000      0.300      0.000 
      39      0.000      0.000      0.300      0.000 
      40      0.000      0.000      0.300      0.000 
      41      0.000      0.000      0.300      0.000 
      42      0.000      0.000      0.300      0.000 
      43      0.000      0.000      0.468      0.000 
      44      0.000      0.000      0.300      0.000 
      45      0.000      0.000      0.300      0.000 
      46      0.000      0.000      0.300      0.000 
      47      0.000      0.000      0.300      0.000 
      48      0.000      0.000     -0.100      0.000 
      49      1.300     -0.200      0.200      0.000 
      50      0.000      0.000      0.300      0.000 
      51      0.000      0.000      0.300      0.000 
      52      0.000      0.000      0.300      0.000 
      53      1.711     -0.500      0.663      0.000 
      54      0.000      0.000     -0.100      0.000 
      55      0.000      0.000      0.300      0.000 
      56      0.000      0.000      0.300      0.000 
      57      0.000      0.000      0.300      0.000 
      58      0.000      0.000      0.300      0.000 
      59      0.000      0.000      0.300      0.000 
      60      0.000      0.000      0.300      0.000 
      61      0.000      0.000      0.300      0.000 
      62      1.300     -0.200      0.200      0.000 
      63      1.300     -0.200      0.200      0.000 
      64      1.300     -0.200      0.200      0.000 
      65      0.000      0.000      0.300      0.000 
      66      0.000      0.000      0.300      0.000 
      67      0.000      0.000      0.300      0.000 
      68      0.000      0.000      0.300      0.000 
      69      0.000      0.000      0.300      0.000 
      70      0.000      0.000      0.300      0.000 
      71      0.000      0.000     -0.100      0.000 
      72      0.000      0.000      0.300      0.000 
      73      0.000      0.000      0.300      0.000 
      74      0.000      0.000      0.300      0.000 
      75      0.000      0.000      0.300      0.000 
      76      0.000      0.000      0.300      0.000 
      77      0.000      0.000      0.300      0.000 
      78      0.000      0.000      0.300      0.000 
      79      0.000      0.000      0.300      0.000 
      80      0.000      0.000      0.300      0.000 
      81      0.000      0.000      0.300      0.000 
      82      1.300     -0.200      0.200      0.000 
      83      0.000      0.000      0.300      0.000 
      84      0.000      0.000      0.300      0.000 
      85      0.000      0.000      0.300      0.000 
      86      0.000      0.000      0.300      0.000 
      87      0.000      0.000      0.300      0.000 
      88      0.000      0.000      0.300      0.000 
      89      0.000      0.000      0.300      0.000 
      90      1.300     -0.200      0.200      0.000 
      91      0.000      0.000      0.300      0.000 
      92      0.000      0.000      0.300      0.000 
      93      0.000      0.000      0.300      0.000 
      94      0.000      0.000      0.468      0.000 
      95      1.300     -0.200      0.200      0.000 
      96     -2.060     -0.313      0.315      0.000 
      97      1.300     -0.200      0.200      0.000 
      98      0.000      0.000      0.300      0.000 
      99      0.000      0.000      0.300      0.000 
     100      0.000      0.000      0.300      0.000 
     101      1.300     -0.200      0.200      0.000 
     102      1.300     -0.200      0.200      0.000 
     103      0.000      0.000      0.300      0.000 
     104      0.000      0.000     -0.100      0.000 
     105      0.000      0.000      0.300      0.000 
     106      0.000      0.000      0.300      0.000 
     107      0.000      0.000      0.300      0.000 
     108      0.000      0.000      0.300      0.000 
     109      0.000      0.000      0.300      0.000 
     110      0.000      0.000      0.300      0.000 
     111      1.300     -0.200      0.200      0.000 
     112      0.000      0.000      0.300      0.000 
     113      0.000      0.000      0.300      0.000 
     114      0.000      0.000      0.300      0.000 
     115      1.300     -0.200      0.200      0.000 
     116      0.000      0.000      0.300      0.000 
     117      0.000      0.000      0.300      0.000 
     118      0.000      0.000      0.300      0.000 
     119      0.000      0.000      0.300      0.000 
     120      0.000      0.000      0.300      0.000 
     121      0.000      0.000      0.300      0.000 
     122      0.000      0.000      0.300      0.000 
     123      0.000      0.000      0.300      0.000 
     124      0.000      0.000     -0.553      0.000 
     125      0.000      0.000      0.300      0.000 
     126      0.000      0.000      0.300      0.000 
     127      0.000      0.000     -0.553      0.000 
     128      0.000      0.000      0.300      0.000 
     129      0.000      0.000      0.300      0.000 
     130      0.000      0.000      0.300      0.000 
     131      0.000      0.000      0.000      0.000 
     132      0.000      0.000      0.468      0.000 
     133      0.000      0.000      0.300      0.000 
     134      0.000      0.000      0.300      0.000 
     135      0.000      0.000      0.300      0.000 
     136      0.000      0.000      0.300      0.000 
     137      0.000      0.000      0.300      0.000 
     138      0.000      0.000      0.300      0.000 
     139      0.000      0.000      0.300      0.000 
     140      0.000      0.000      0.300      0.000 
     141      0.000      0.000      0.300      0.000 
     142      0.000      0.000      0.000      0.000 
     143      0.000      0.000      0.300      0.000 
     144      0.000      0.000      0.300      0.000 
     145      0.000      0.000      0.300      0.000 
     146      0.000      0.000      0.300      0.000 
     147      0.000      0.000      0.300      0.000 
     148     -1.220     -0.126      0.422      0.000 
     149      0.000      0.000      0.468      0.000 
     150      0.000      0.000      0.300      0.000 
     151      1.300     -0.200      0.200      0.000 
     152      1.300     -0.200      0.200      0.000 
     153      0.000      0.000      0.300      0.000 
     154      0.000      0.000     -0.100      0.000 
     155      0.000      0.000      0.300      0.000 
     156      0.000      0.000      0.300      0.000 
     157      0.000      0.000      0.300      0.000 
     158     -2.060     -0.313      0.315      0.000 
     159      0.000      0.000     -0.553      0.000 
     160      0.000      0.000      0.300      0.000 
     161      1.300     -0.200      0.200      0.000 
     162      0.000      0.000      0.300      0.000 
     163      1.300     -0.200      0.200      0.000 
     164      0.000      0.000      0.300      0.000 
     165      0.000      0.000      0.300      0.000 
     166      0.000      0.000      0.300      0.000 
     167      0.000      0.000      0.300      0.000 
     168      0.000      0.000      0.300      0.000 
     169      0.000      0.000      0.300      0.000 
     170      0.000      0.000     -0.100      0.000 
     171      0.000      0.000      0.300      0.000 
     172      0.000      0.000      0.300      0.000 
     173      0.000      5.124      0.000      0.000 

Improper Coeffs 

       1      0.000      -1       2 
       2      0.000      -1       2 
       3      0.000      -1       2 
       4     10.500      -1       2 
       5      0.000      -1       2 
       6      0.000      -1       2 
       7      0.000      -1       2 
       8      0.000      -1       2 
       9      0.000      -1       2 
      10      0.000      -1       2 
      11      0.000      -1       2 
      12      0.000      -1       2 
      13      0.000      -1       2 
      14      0.000      -1       2 
      15      0.000      -1       2 
      16      0.000      -1       2 
      17      0.000      -1       2 
      18      0.000      -1       2 
      19      0.000      -1       2 
      20      0.000      -1       2 
      21      0.000      -1       2 
      22      0.000      -1       2 
      23      0.000      -1       2 
      24      0.000      -1       2 
      25      0.000      -1       2 
      26      0.000      -1       2 
      27      0.000      -1       2 
      28      0.000      -1       2 
      29      0.000      -1       2 
      30      0.000      -1       2 
      31      0.000      -1       2 
      32      0.000      -1       2 
      33      0.000      -1       2 

Atoms 

     1      1      1 -0.23640000    1.000  1.00000  0.00000
     2      1      2 -0.10270000   -0.531  1.00000  0.00000
     3      1      3 -0.16190000   -1.113  1.00000  1.41925
     4      1      4 -0.09780000   -2.039  2.15880  1.80555
     5      1      5 -0.15730000   -2.940  2.55001  0.65113
     6      1      6 -0.03460000   -2.090  3.09454 -0.48907
     7      1      7 -0.23480000   -3.018  3.48937 -1.66308
     8      1      8 -0.15500000   -1.100  2.02052 -1.00123
     9      1      9 -0.14830000   -1.338  4.37293 -0.03522
    10      1     10 -0.01760000   -0.873  4.47570  1.44340
    11      1     11 -0.23430000    0.665  4.64017  1.46515
    12      1     12 0.42840000   -1.439  5.78584  2.04554
    13      1     13 -0.45340000   -0.753  6.71739  2.44605
    14      1     14 -0.35040000   -2.806  5.77813  2.07850
    15      1     15 0.05730000   -3.399  6.96292  2.62700
    16      1     16 -0.20900000   -3.458  8.09959  1.61005
    17      1     17 -0.18110000   -4.609  8.95452  2.10937
    18      1     18 -0.18290000   -5.648  7.93408  2.54985
    19      1     19 -0.18540000   -4.863  6.70130  2.99515
    20      1     20 -0.15690000   -1.273  3.35441  2.38606
    21      1     21 0.08060000    1.396  0.25333  0.69675
    22      1     22 0.08060000    1.409  1.97036  0.27761
    23      1     23 0.08060000    1.382  0.75053 -0.99653
    24      1     24 0.08100000   -0.783  0.00901 -0.40996
    25      1     25 0.08420000   -0.323  0.87529  2.17026
    26      1     26 0.08420000   -1.716  0.08329  1.50548
    27      1     27 0.09360000   -2.676  1.77682  2.61545
    28      1     28 0.09880000   -3.672  3.29784  0.98253
    29      1     29 0.09880000   -3.517  1.67704  0.31798
    30      1     30 0.08360000   -3.588  2.62694 -2.02715
    31      1     31 0.08360000   -2.438  3.88660 -2.50424
    32      1     32 0.08360000   -3.742  4.25352 -1.35966
    33      1     33 0.08510000   -0.287  2.50080 -1.56219
    34      1     34 0.08510000   -1.622  1.41763 -1.75936
    35      1     35 0.09570000   -1.988  5.23383 -0.24676
    36      1     36 0.09570000   -0.486  4.53332 -0.71058
    37      1     37 0.09540000    0.988  5.47883  0.83608
    38      1     38 0.09540000    1.168  3.74414  1.10310
    39      1     39 0.09540000    1.034  4.83815  2.47908
    40      1     40 0.12390000   -2.866  7.27746  3.53410
    41      1     41 0.11090000   -3.658  7.71460  0.60348
    42      1     42 0.11090000   -2.521  8.66298  1.56779
    43      1     43 0.09830000   -4.992  9.62968  1.33844
    44      1     44 0.09830000   -4.289  9.55985  2.96568
    45      1     45 0.09490000   -6.295  7.67067  1.70513
    46      1     46 0.09490000   -6.288  8.32535  3.34716
    47      1     47 0.10470000   -5.257  5.79515  2.52233
    48      1     48 0.10470000   -4.956  6.56358  4.07902
    49      1     49 0.09570000   -1.909  3.76842  3.18150
    50      1     50 0.09570000   -0.394  2.98605  2.93191

Bonds 

     1      1      2      1
     2      2      3      2
     3      3      4      3
     4      4      5      4
     5      5      6      5
     6      6      7      6
     7      7      8      2
     8      8      9      6
     9      9     10      9
    10     10     11     10
    11     11     12     10
    12     12     13     12
    13     13     14     12
    14     14     15     14
    15     15     16     15
    16     16     17     16
    17     17     18     17
    18     18     19     15
    19     19     20      4
    20     20     21      1
    21     21     22      1
    22     22     23      1
    23     23     24      2
    24     24     25      3
    25     25     26      3
    26     26     27      4
    27     27     28      5
    28     28     29      5
    29     29     30      7
    30     30     31      7
    31     31     32      7
    32     32     33      8
    33     33     34      8
    34     34     35      9
    35     35     36      9
    36     36     37     11
    37     37     38     11
    38     38     39     11
    39     39     40     15
    40     40     41     16
    41     41     42     16
    42     42     43     17
    43     43     44     17
    44     44     45     18
    45     45     46     18
    46     46     47     19
    47     47     48     19
    48     48     49     20
    49     49     50     20
    50     50      8      6
    51     51     20     10
    52     52     19     18

Angles 

     1      1      1      2      3
     2      2      2      3      4
     3      3      3      4      5
     4      4      4      5      6
     5      5      5      6      7
     6      6      1      2      8
     7      7      5      6      9
     8      8      6      9     10
     9      9      9     10     11
    10     10      9     10     12
    11     11     10     12     13
    12     12     10     12     14
    13     13     12     14     15
    14     14     14     15     16
    15     15     15     16     17
    16     16     16     17     18
    17     17     14     15     19
    18     18      3      4     20
    19     19      2      1     21
    20     20      2      1     22
    21     21      2      1     23
    22     22      1      2     24
    23     23      2      3     25
    24     24      2      3     26
    25     25      3      4     27
    26     26      4      5     28
    27     27      4      5     29
    28     28      6      7     30
    29     29      6      7     31
    30     30      6      7     32
    31     31      2      8     33
    32     32      2      8     34
    33     33      6      9     35
    34     34      6      9     36
    35     35     10     11     37
    36     36     10     11     38
    37     37     10     11     39
    38     38     14     15     40
    39     39     15     16     41
    40     40     15     16     42
    41     41     16     17     43
    42     42     16     17     44
    43     43     17     18     45
    44     44     17     18     46
    45     45     15     19     47
    46     46     15     19     48
    47     47      4     20     49
    48     48      4     20     50
    49     49      6      8     33
    50     50     16     15     40
    51     51     13     12     14
    52     52     11     10     12
    53     53     19     15     40
    54     54     18     19     48
    55     55     37     11     39
    56     56     41     16     42
    57     57     49     20     50
    58     58     30      7     32
    59     59      5      4     27
    60     60     21      1     23
    61     61     28      5     29
    62     62     19     18     45
    63     63     45     18     46
    64     64     38     11     39
    65     65     31      7     32
    66     66     35      9     36
    67     67     16     15     19
    68     68     10     20     49
    69     69     10      9     36
    70     70     43     17     44
    71     71      8      2     24
    72     72      6      8     34
    73     73     17     16     41
    74     74     10     20     50
    75     75      4     20     10
    76     76     47     19     48
    77     77     18     19     47
    78     78     33      8     34
    79     79     18     17     43
    80     80      3      2      8
    81     81      4      3     25
    82     82      2      8      6
    83     83     10      9     35
    84     84     21      1     22
    85     85     17     18     19
    86     86      5      4     20
    87     87      8      6      9
    88     88      4      3     26
    89     89     37     11     38
    90     90     15     19     18
    91     91     25      3     26
    92     92      7      6      9
    93     93     11     10     20
    94     94     18     17     44
    95     95      5      6      8
    96     96     20      4     27
    97     97     22      1     23
    98     98      9     10     20
    99     99      6      5     28
   100    100      7      6      8
   101    101     17     16     42
   102    102     30      7     31
   103    103     19     18     46
   104    104      3      2     24
   105    105      6      5     29
   106    106     12     10     20

Dihedrals

     1      1      4      3      2      1 
     2      2      5      4      3      2 
     3      3      6      5      4      3 
     4      4      7      6      5      4 
     5      5     10      9      6      5 
     6      6     11     10      9      6 
     7      7     13     12     10      9 
     8      8     15     14     12     10 
     9      9     16     15     14     12 
    10     10     17     16     15     14 
    11     11     18     17     16     15 
    12     12     21      1      2      3 
    13     13     30      7      6      5 
    14     14     37     11     10      9 
    15     15     31      7      6      5 
    16     16     38     11     10      9 
    17     17     35      9     10     11 
    18     18     34      8      6      7 
    19     19     25      3      4      5 
    20     20     20     10      9      6 
    21     21     33      8      2      1 
    22     22     47     19     18     17 
    23     23     33      8      2     24 
    24     24     28      5      4     20 
    25     25     48     19     18     17 
    26     26     25      3      2      8 
    27     27      8      6      5      4 
    28     28      9      6      5      4 
    29     29     23      1      2      3 
    30     30     40     15     14     12 
    31     31     10     20      4      3 
    32     32     39     11     10     12 
    33     33     26      3      2      1 
    34     34     28      5      4      3 
    35     35     44     17     16     42 
    36     36     11     10     20      4 
    37     37     31      7      6      9 
    38     38     32      7      6      8 
    39     39     27      4      3     25 
    40     40     34      8      6      5 
    41     41     40     15     19     18 
    42     42     34      8      2      3 
    43     43     48     19     15     14 
    44     44     35      9      6      7 
    45     45     50     20      4      5 
    46     46     47     19     18     45 
    47     47     26      3      2     24 
    48     48     36      9     10     12 
    49     49     10     20      4      5 
    50     50     37     11     10     20 
    51     51     49     20      4     27 
    52     52     27      4     20     10 
    53     53     18     19     15     14 
    54     54     49     20     10     12 
    55     55     50     20     10     11 
    56     56     41     16     17     18 
    57     57     50     20     10      9 
    58     58     48     19     18     46 
    59     59     43     17     16     15 
    60     60     28      5      6      7 
    61     61     25      3      4     20 
    62     62      9     10     20      4 
    63     63     17     18     19     15 
    64     64      9      6      8      2 
    65     65     39     11     10     20 
    66     66     30      7      6      8 
    67     67     48     19     15     16 
    68     68     24      2      1     22 
    69     69     44     17     16     15 
    70     70     36      9     10     11 
    71     71     35      9     10     12 
    72     72     47     19     15     16 
    73     73     45     18     19     15 
    74     74     49     20      4      5 
    75     75     27      4      3     26 
    76     76     26      3      4      5 
    77     77     48     19     15     40 
    78     78     24      2      8      6 
    79     79     26      3      2      8 
    80     80     49     20     10      9 
    81     81     26      3      4     20 
    82     82     10      9      6      8 
    83     83     29      5      4     20 
    84     84     22      1      2      8 
    85     85     41     16     15     19 
    86     86     27      4      5      6 
    87     87     36      9      6      5 
    88     88     38     11     10     20 
    89     89     35      9     10     20 
    90     90      6      8      2      3 
    91     91     39     11     10      9 
    92     92     45     18     17     16 
    93     93     42     16     15     19 
    94     94     41     16     15     14 
    95     95      8      2      3      4 
    96     96     12     10     20      4 
    97     97      6      8      2      1 
    98     98     45     18     17     44 
    99     99     46     18     17     43 
   100    100     49     20      4      3 
   101    101     18     19     15     16 
   102    102     20      4      5      6 
   103    103     24      2      3      4 
   104    104     50     20     10     12 
   105    105     34      8      2      1 
   106    106     40     15     16     17 
   107    107     28      5      6      9 
   108    108     29      5      6      8 
   109    109     33      8      6      5 
   110    110     36      9      6      8 
   111    111      7      6      8      2 
   112    112     24      2      1     21 
   113    113     31      7      6      8 
   114    114     30      7      6      9 
   115    115     19     15     16     17 
   116    116     32      7      6      5 
   117    117     27      4      3      2 
   118    118     34      8      6      9 
   119    119     29      5      6      7 
   120    120     28      5      6      8 
   121    121     29      5      6      9 
   122    122     49     20     10     11 
   123    123     43     17     18     19 
   124    124     20     10     12     14 
   125    125     45     18     17     43 
   126    126     44     17     18     19 
   127    127     14     12     10      9 
   128    128     33      8      6      7 
   129    129     32      7      6      9 
   130    130     50     20      4     27 
   131    131     13     12     10     11 
   132    132     47     19     15     14 
   133    133     22      1      2      3 
   134    134     29      5      4     27 
   135    135     24      2      1     23 
   136    136     46     18     17     44 
   137    137     48     19     18     45 
   138    138     47     19     18     46 
   139    139     47     19     15     40 
   140    140     25      3      2     24 
   141    141     46     18     17     16 
   142    142     20     10     12     13 
   143    143     50     20      4      3 
   144    144     36      9      6      7 
   145    145     35      9      6      8 
   146    146     29      5      4      3 
   147    147     34      8      2     24 
   148    148     19     15     14     12 
   149    149     42     16     15     14 
   150    150     36      9     10     20 
   151    151      5      6      8      2 
   152    152     20      4      3      2 
   153    153     21      1      2      8 
   154    154     37     11     10     12 
   155    155     25      3      2      1 
   156    156     42     16     15     40 
   157    157     33      8      2      3 
   158    158     12     10      9      6 
   159    159     14     12     10     11 
   160    160     28      5      4     27 
   161    161     10      9      6      7 
   162    162     43     17     16     41 
   163    163     19     18     17     16 
   164    164     35      9      6      5 
   165    165     23      1      2      8 
   166    166     44     17     16     41 
   167    167     43     17     16     42 
   168    168     42     16     17     18 
   169    169     33      8      6      9 
   170    170     38     11     10     12 
   171    171     41     16     15     40 
   172    172     46     18     19     15 
   173    173     15     14     12     13 

Impropers

     1      1      2      1      3      8 
     2      2      6      9      5      7 
     3      3     10      9     11     12 
     4      4     12     10     13     14 
     5      5     15     19     14     16 
     6      6      4      3     20      5 
     7      7      1      2     21     22 
     8      8      1      2     21     23 
     9      9      2      1      3     24 
    10     10      3     25      2      4 
    11     11      3     26      4      2 
    12     12      4     27      5      3 
    13     13      5      4     28      6 
    14     14      5      4     29      6 
    15     15      7     30     31      6 
    16     16      7     30      6     32 
    17     17      8     33      2      6 
    18     18      8     34      2      6 
    19     19      9     10     35      6 
    20     20      9     10     36      6 
    21     21     11     10     37     38 
    22     22     11     10     37     39 
    23     23     15     16     14     40 
    24     24     16     41     17     15 
    25     25     16     17     42     15 
    26     26     17     18     43     16 
    27     27     17     18     44     16 
    28     28     18     17     19     45 
    29     29     18     17     19     46 
    30     30     19     18     15     47 
    31     31     19     18     15     48 
    32     32     20     49      4     10 
    33     33     20      4     50     10 

