LAMMPS data file Created by LigParGen - (Written by Leela S. Dodda)

      44 atoms
      43 bonds
      84 angles
     117 dihedrals
      28 impropers
 
      44 atom types
      43 bond types
      84 angle types
     117 dihedral types
      28 improper types
 
  -11.422430    38.577570 xlo xhi
   -3.127500    46.872500 ylo yhi
   -1.025810    48.974190 zlo zhi

Masses

       1     12.011  
       2     12.011  
       3     12.011  
       4     12.011  
       5     12.011  
       6     12.011  
       7     12.011  
       8     12.011  
       9     12.011  
      10     12.011  
      11     12.011  
      12     12.011  
      13     32.060  
      14     12.011  
      15     15.999  
      16     15.999  
      17      1.008  
      18      1.008  
      19      1.008  
      20      1.008  
      21      1.008  
      22      1.008  
      23      1.008  
      24      1.008  
      25      1.008  
      26      1.008  
      27      1.008  
      28      1.008  
      29      1.008  
      30      1.008  
      31      1.008  
      32      1.008  
      33      1.008  
      34      1.008  
      35      1.008  
      36      1.008  
      37      1.008  
      38      1.008  
      39      1.008  
      40      1.008  
      41      1.008  
      42      1.008  
      43      1.008  
      44      1.008  

Pair Coeffs 

       1      0.066  3.5000000 
       2      0.066  3.5000000 
       3      0.066  3.5000000 
       4      0.066  3.5000000 
       5      0.066  3.5000000 
       6      0.066  3.5000000 
       7      0.066  3.5000000 
       8      0.066  3.5000000 
       9      0.066  3.5000000 
      10      0.066  3.5000000 
      11      0.066  3.5000000 
      12      0.066  3.5000000 
      13      0.250  3.5500000 
      14      0.066  3.5000000 
      15      0.170  2.9600000 
      16      0.170  2.9600000 
      17      0.030  2.5000000 
      18      0.030  2.5000000 
      19      0.030  2.5000000 
      20      0.030  2.5000000 
      21      0.030  2.5000000 
      22      0.030  2.5000000 
      23      0.030  2.5000000 
      24      0.030  2.5000000 
      25      0.030  2.5000000 
      26      0.030  2.5000000 
      27      0.030  2.5000000 
      28      0.030  2.5000000 
      29      0.030  2.5000000 
      30      0.030  2.5000000 
      31      0.030  2.5000000 
      32      0.030  2.5000000 
      33      0.030  2.5000000 
      34      0.030  2.5000000 
      35      0.030  2.5000000 
      36      0.030  2.5000000 
      37      0.030  2.5000000 
      38      0.030  2.5000000 
      39      0.030  2.5000000 
      40      0.030  2.5000000 
      41      0.030  2.5000000 
      42      0.030  2.5000000 
      43      0.030  2.5000000 
      44      0.030  2.5000000 

Bond Coeffs 

       1   268.0000     1.5290 
       2   268.0000     1.5290 
       3   268.0000     1.5290 
       4   268.0000     1.5290 
       5   268.0000     1.5290 
       6   268.0000     1.5290 
       7   268.0000     1.5290 
       8   268.0000     1.5290 
       9   268.0000     1.5290 
      10   268.0000     1.5290 
      11   268.0000     1.5290 
      12   340.0000     1.7700 
      13   340.0000     1.7700 
      14   700.0000     1.4400 
      15   700.0000     1.4400 
      16   340.0000     1.0900 
      17   340.0000     1.0900 
      18   340.0000     1.0900 
      19   340.0000     1.0900 
      20   340.0000     1.0900 
      21   340.0000     1.0900 
      22   340.0000     1.0900 
      23   340.0000     1.0900 
      24   340.0000     1.0900 
      25   340.0000     1.0900 
      26   340.0000     1.0900 
      27   340.0000     1.0900 
      28   340.0000     1.0900 
      29   340.0000     1.0900 
      30   340.0000     1.0900 
      31   340.0000     1.0900 
      32   340.0000     1.0900 
      33   340.0000     1.0900 
      34   340.0000     1.0900 
      35   340.0000     1.0900 
      36   340.0000     1.0900 
      37   340.0000     1.0900 
      38   340.0000     1.0900 
      39   340.0000     1.0900 
      40   340.0000     1.0900 
      41   340.0000     1.0900 
      42   340.0000     1.0900 
      43   340.0000     1.0900 

Angle Coeffs 

       1     58.350    112.700
       2     58.350    112.700
       3     58.350    112.700
       4     58.350    112.700
       5     58.350    112.700
       6     58.350    112.700
       7     58.350    112.700
       8     58.350    112.700
       9     58.350    112.700
      10     58.350    112.700
      11     50.000    108.600
      12     62.000    102.000
      13     74.000    108.900
      14     74.000    108.900
      15     37.500    110.700
      16     37.500    110.700
      17     37.500    110.700
      18     37.500    110.700
      19     37.500    110.700
      20     37.500    110.700
      21     37.500    110.700
      22     37.500    110.700
      23     37.500    110.700
      24     37.500    110.700
      25     37.500    110.700
      26     37.500    110.700
      27     37.500    110.700
      28     37.500    110.700
      29     37.500    110.700
      30     37.500    110.700
      31     37.500    110.700
      32     37.500    110.700
      33     37.500    110.700
      34     37.500    110.700
      35     37.500    110.700
      36     37.500    110.700
      37     37.500    110.700
      38     37.500    110.700
      39     37.500    110.700
      40     35.000    109.500
      41     35.000    109.500
      42     35.000    109.500
      43     37.500    110.700
      44     33.000    107.800
      45     33.000    107.800
      46    104.000    119.000
      47     37.500    110.700
      48     33.000    107.800
      49     33.000    107.800
      50     33.000    107.800
      51     33.000    107.800
      52     37.500    110.700
      53     37.500    110.700
      54     35.000    109.500
      55     33.000    107.800
      56     37.500    110.700
      57     33.000    107.800
      58     37.500    110.700
      59     58.350    112.700
      60     33.000    107.800
      61     33.000    107.800
      62     37.500    110.700
      63     37.500    110.700
      64     37.500    110.700
      65     74.000    108.900
      66     37.500    110.700
      67     33.000    107.800
      68     33.000    107.800
      69     33.000    107.800
      70     33.000    107.800
      71     37.500    110.700
      72     37.500    110.700
      73     37.500    110.700
      74     37.500    110.700
      75     33.000    107.800
      76     33.000    107.800
      77     37.500    110.700
      78     33.000    107.800
      79     50.000    108.600
      80     74.000    108.900
      81     37.500    110.700
      82     33.000    107.800
      83     37.500    110.700
      84     33.000    107.800

Dihedral Coeffs  

       1      1.300     -0.200      0.200      0.000 
       2      1.300     -0.200      0.200      0.000 
       3      1.300     -0.200      0.200      0.000 
       4      1.300     -0.200      0.200      0.000 
       5      1.300     -0.200      0.200      0.000 
       6      1.300     -0.200      0.200      0.000 
       7      1.300     -0.200      0.200      0.000 
       8      1.300     -0.200      0.200      0.000 
       9      0.000      0.000      0.000      0.000 
      10      0.000      0.000      0.300      0.000 
      11      0.000      0.000      0.300      0.000 
      12      0.000      0.000      0.300      0.000 
      13      0.000      0.000      0.350      0.000 
      14      0.000      0.000      0.300      0.000 
      15      0.000      0.000      0.300      0.000 
      16      0.000      0.000      0.300      0.000 
      17      0.000      0.000      0.300      0.000 
      18      0.000      0.000      0.300      0.000 
      19      0.000      0.000      0.300      0.000 
      20      0.000      0.000      0.300      0.000 
      21      0.000      0.000      0.300      0.000 
      22      0.000      0.000      0.300      0.000 
      23      0.000      0.000      0.300      0.000 
      24      0.000      0.000      0.300      0.000 
      25      0.000      0.000      0.300      0.000 
      26      0.000      0.000      0.300      0.000 
      27      0.000      0.000      0.300      0.000 
      28      0.000      0.000      0.300      0.000 
      29      0.000      0.000      0.350      0.000 
      30      0.000      0.000      0.300      0.000 
      31      0.000      0.000      0.300      0.000 
      32      0.000      0.000      0.300      0.000 
      33      0.000      0.000      0.300      0.000 
      34      0.000      0.000      0.350      0.000 
      35      0.000      0.000      0.300      0.000 
      36      0.000      0.000      0.300      0.000 
      37      0.000      0.000      0.300      0.000 
      38      0.000      0.000      0.000      0.000 
      39      1.300     -0.200      0.200      0.000 
      40      0.000      0.000      0.300      0.000 
      41      0.000      0.000      0.300      0.000 
      42      0.000      0.000      0.300      0.000 
      43      0.000      0.000      0.000      0.000 
      44      0.000      0.000      0.300      0.000 
      45      0.000      0.000      0.452      0.000 
      46      1.262     -0.198      0.465      0.000 
      47      0.000      0.000      0.300      0.000 
      48      0.000      0.000      0.300      0.000 
      49      0.000      0.000      0.300      0.000 
      50      0.000      0.000      0.452      0.000 
      51      0.000      0.000      0.300      0.000 
      52      0.000      0.000      0.300      0.000 
      53      0.000      0.000      0.300      0.000 
      54      0.000      0.000      0.300      0.000 
      55      0.000      0.000      0.350      0.000 
      56      0.000      0.000      0.350      0.000 
      57      0.000      0.000      0.350      0.000 
      58      0.000      0.000      0.300      0.000 
      59      0.000      0.000      0.300      0.000 
      60      0.000      0.000      0.300      0.000 
      61      0.000      0.000      0.300      0.000 
      62      0.000      0.000      0.350      0.000 
      63      0.000      0.000      0.300      0.000 
      64      0.000      0.000      0.300      0.000 
      65      0.000      0.000      0.300      0.000 
      66      0.000      0.000      0.300      0.000 
      67      0.000      0.000      0.300      0.000 
      68      0.000      0.000      0.300      0.000 
      69      0.000      0.000      0.300      0.000 
      70      0.000      0.000      0.350      0.000 
      71      1.300     -0.200      0.200      0.000 
      72      0.000      0.000      0.000      0.000 
      73      0.000      0.000      0.000      0.000 
      74      0.000      0.000      0.452      0.000 
      75      0.000      0.000      0.300      0.000 
      76      0.000      0.000      0.000      0.000 
      77      0.000      0.000      0.300      0.000 
      78      0.000      0.000      0.300      0.000 
      79      0.000      0.000      0.300      0.000 
      80      0.000      0.000      0.300      0.000 
      81      0.000      0.000      0.300      0.000 
      82      0.000      0.000      0.300      0.000 
      83      0.000      0.000      0.300      0.000 
      84      0.000      0.000      0.300      0.000 
      85      0.000      0.000      0.300      0.000 
      86      0.000      0.000      0.300      0.000 
      87      0.000      0.000      0.300      0.000 
      88      0.000      0.000      0.300      0.000 
      89      0.000      0.000      0.300      0.000 
      90      0.000      0.000      0.300      0.000 
      91      0.000      0.000      0.300      0.000 
      92      0.000      0.000      0.300      0.000 
      93      0.000      0.000      0.350      0.000 
      94      0.000      0.000      0.300      0.000 
      95      0.000      0.000      0.300      0.000 
      96      0.000      0.000      0.300      0.000 
      97      0.000      0.000      0.300      0.000 
      98      0.000      0.000      0.300      0.000 
      99      0.000      0.000      0.300      0.000 
     100      0.000      0.000      0.300      0.000 
     101      0.000      0.000      0.300      0.000 
     102      0.000      0.000      0.300      0.000 
     103      0.000      0.000      0.300      0.000 
     104      0.000      0.000      0.350      0.000 
     105      0.000      0.000      0.300      0.000 
     106      0.000      0.000      0.300      0.000 
     107      0.000      0.000      0.300      0.000 
     108      0.000      0.000      0.300      0.000 
     109      0.000      0.000      0.350      0.000 
     110      0.000      0.000      0.300      0.000 
     111      0.000      0.000      0.300      0.000 
     112      0.000      0.000      0.300      0.000 
     113      0.000      0.000      0.300      0.000 
     114      0.000      0.000      0.350      0.000 
     115      0.000      0.000      0.452      0.000 
     116      0.000      0.000      0.452      0.000 
     117      0.000      0.000      0.300      0.000 

Improper Coeffs 

       1      0.000      -1       2 
       2      0.000      -1       2 
       3      0.000      -1       2 
       4      0.000      -1       2 
       5      0.000      -1       2 
       6      0.000      -1       2 
       7      0.000      -1       2 
       8      0.000      -1       2 
       9      0.000      -1       2 
      10      0.000      -1       2 
      11      0.000      -1       2 
      12      0.000      -1       2 
      13      0.000      -1       2 
      14      0.000      -1       2 
      15      0.000      -1       2 
      16      0.000      -1       2 
      17      0.000      -1       2 
      18      0.000      -1       2 
      19      0.000      -1       2 
      20      0.000      -1       2 
      21      0.000      -1       2 
      22      0.000      -1       2 
      23      0.000      -1       2 
      24      0.000      -1       2 
      25      0.000      -1       2 
      26      0.000      -1       2 
      27      0.000      -1       2 
      28      0.000      -1       2 

Atoms 

     1      1      1 -0.23910000    1.000  1.00000  0.00000
     2      1      2 -0.17910000   -0.520  1.00000  0.00000
     3      1      3 -0.17880000   -1.059  1.00000  1.42781
     4      1      4 -0.18010000   -2.585  1.00179  1.45563
     5      1      5 -0.17910000   -3.091  1.00356  2.90096
     6      1      6 -0.17590000   -4.617  1.00357  2.95003
     7      1      7 -0.11290000   -5.194  0.94038  4.38083
     8      1      8 -0.23570000   -4.761  2.15413  5.21377
     9      1      9 -0.16020000   -6.739  0.87015  4.36103
    10      1     10 -0.15350000   -7.279 -0.39194  3.67862
    11      1     11 -0.40480000   -8.817 -0.48784  3.64674
    12      1     12 -0.22010000   -9.446  0.67619  2.88471
    13      1     13 1.28170000   -9.269 -2.08072  2.89926
    14      1     14 -0.58050000  -11.045 -2.10848  2.90401
    15      1     15 -0.56830000   -8.841 -2.07637  1.51269
    16      1     16 -0.56830000   -8.833 -3.12750  3.80465
    17      1     17 0.08080000    1.380  0.99870 -1.02581
    18      1     18 0.08080000    1.390  0.11374  0.51081
    19      1     19 0.08080000    1.389  1.88852  0.50777
    20      1     20 0.08940000   -0.883  0.11617 -0.53702
    21      1     21 0.08940000   -0.882  1.88423 -0.53727
    22      1     22 0.08910000   -0.684  1.88252  1.96028
    23      1     23 0.08910000   -0.687  0.11645  1.96045
    24      1     24 0.09090000   -2.967  0.11823  0.92916
    25      1     25 0.09090000   -2.967  1.88568  0.93179
    26      1     26 0.09030000   -2.692  1.88773  3.40825
    27      1     27 0.09030000   -2.708  0.11893  3.42547
    28      1     28 0.09090000   -4.957  0.13558  2.37560
    29      1     29 0.09090000   -5.002  1.89402  2.43658
    30      1     30 0.10120000   -4.811  0.03810  4.87490
    31      1     31 0.08290000   -5.077  3.09031  4.74083
    32      1     32 0.08290000   -3.675  2.18733  5.34343
    33      1     33 0.08290000   -5.202  2.11545  6.21593
    34      1     34 0.09210000   -7.119  1.76656  3.85891
    35      1     35 0.09210000   -7.114  0.89639  5.39217
    36      1     36 0.11220000   -6.870 -1.26870  4.19614
    37      1     37 0.11220000   -6.919 -0.44479  2.64660
    38      1     38 0.15440000   -9.206 -0.51381  4.67113
    39      1     39 0.10070000   -9.060  0.73473  1.86178
    40      1     40 0.10070000   -9.246  1.63058  3.38058
    41      1     41 0.10070000  -10.533  0.57899  2.82550
    42      1     42 0.16550000  -11.422 -1.34730  2.22064
    43      1     43 0.16550000  -11.398 -1.93738  3.92174
    44      1     44 0.16550000  -11.363 -3.09350  2.55556

Bonds 

     1      1      2      1
     2      2      3      2
     3      3      4      3
     4      4      5      4
     5      5      6      5
     6      6      7      6
     7      7      8      7
     8      8      9      7
     9      9     10      9
    10     10     11     10
    11     11     12     11
    12     12     13     11
    13     13     14     13
    14     14     15     13
    15     15     16     13
    16     16     17      1
    17     17     18      1
    18     18     19      1
    19     19     20      2
    20     20     21      2
    21     21     22      3
    22     22     23      3
    23     23     24      4
    24     24     25      4
    25     25     26      5
    26     26     27      5
    27     27     28      6
    28     28     29      6
    29     29     30      7
    30     30     31      8
    31     31     32      8
    32     32     33      8
    33     33     34      9
    34     34     35      9
    35     35     36     10
    36     36     37     10
    37     37     38     11
    38     38     39     12
    39     39     40     12
    40     40     41     12
    41     41     42     14
    42     42     43     14
    43     43     44     14

Angles 

     1      1      1      2      3
     2      2      2      3      4
     3      3      3      4      5
     4      4      4      5      6
     5      5      5      6      7
     6      6      6      7      8
     7      7      6      7      9
     8      8      7      9     10
     9      9      9     10     11
    10     10     10     11     12
    11     11     10     11     13
    12     12     11     13     14
    13     13     11     13     15
    14     14     11     13     16
    15     15      2      1     17
    16     16      2      1     18
    17     17      2      1     19
    18     18      1      2     20
    19     19      1      2     21
    20     20      2      3     22
    21     21      2      3     23
    22     22      3      4     24
    23     23      3      4     25
    24     24      4      5     26
    25     25      4      5     27
    26     26      5      6     28
    27     27      5      6     29
    28     28      6      7     30
    29     29      7      8     31
    30     30      7      8     32
    31     31      7      8     33
    32     32      7      9     34
    33     33      7      9     35
    34     34      9     10     36
    35     35      9     10     37
    36     36     10     11     38
    37     37     11     12     39
    38     38     11     12     40
    39     39     11     12     41
    40     40     13     14     42
    41     41     13     14     43
    42     42     13     14     44
    43     43      3      2     20
    44     44     34      9     35
    45     45     32      8     33
    46     46     15     13     16
    47     47      3      2     21
    48     48     31      8     32
    49     49     17      1     18
    50     50     28      6     29
    51     51     39     12     40
    52     52      5      4     24
    53     53     10      9     34
    54     54     13     11     38
    55     55     24      4     25
    56     56      4      3     22
    57     57     39     12     41
    58     58      7      6     28
    59     59      8      7      9
    60     60     22      3     23
    61     61     31      8     33
    62     62      4      3     23
    63     63     11     10     36
    64     64      9      7     30
    65     65     14     13     15
    66     66      6      5     27
    67     67     18      1     19
    68     68     42     14     43
    69     69     26      5     27
    70     70     17      1     19
    71     71      7      6     29
    72     72      5      4     25
    73     73     10      9     35
    74     74     11     10     37
    75     75     43     14     44
    76     76     40     12     41
    77     77      6      5     26
    78     78     20      2     21
    79     79     12     11     13
    80     80     14     13     16
    81     81     12     11     38
    82     82     42     14     44
    83     83      8      7     30
    84     84     36     10     37

Dihedrals

     1      1      4      3      2      1 
     2      2      5      4      3      2 
     3      3      6      5      4      3 
     4      4      7      6      5      4 
     5      5      8      7      6      5 
     6      6     10      9      7      6 
     7      7     11     10      9      7 
     8      8     12     11     10      9 
     9      9     14     13     11     10 
    10     10     17      1      2      3 
    11     11     31      8      7      6 
    12     12     39     12     11     10 
    13     13     42     14     13     11 
    14     14     36     10      9      7 
    15     15     28      6      7      8 
    16     16     35      9     10     11 
    17     17     25      4      3     22 
    18     18     31      8      7      9 
    19     19     41     12     11     38 
    20     20     38     11     10      9 
    21     21     21      2      1     17 
    22     22     20      2      1     18 
    23     23     35      9      7      8 
    24     24     24      4      3     23 
    25     25     19      1      2      3 
    26     26     38     11     10     36 
    27     27     23      3      2     20 
    28     28     22      3      2     21 
    29     29     44     14     13     16 
    30     30     33      8      7      6 
    31     31     28      6      5      4 
    32     32     30      7      6      5 
    33     33     25      4      5      6 
    34     34     43     14     13     11 
    35     35     23      3      4      5 
    36     36     34      9      7      6 
    37     37     30      7      9     10 
    38     38     16     13     11     12 
    39     39     10      9      7      8 
    40     40     38     11     10     37 
    41     41     33      8      7     30 
    42     42     39     12     11     38 
    43     43     15     13     11     10 
    44     44     26      5      4     24 
    45     45     36     10     11     13 
    46     46     13     11     10      9 
    47     47     30      7      6     29 
    48     48     34      9     10     11 
    49     49     29      6      7      9 
    50     50     40     12     11     13 
    51     51     40     12     11     10 
    52     52     20      2      1     19 
    53     53     21      2      1     18 
    54     54     37     10      9     35 
    55     55     38     11     13     14 
    56     56     43     14     13     16 
    57     57     44     14     13     15 
    58     58     24      4      3     22 
    59     59     27      5      4     25 
    60     60     26      5      4      3 
    61     61     41     12     11     10 
    62     62     38     11     13     15 
    63     63     18      1      2      3 
    64     64     27      5      6      7 
    65     65     36     10     11     12 
    66     66     32      8      7     30 
    67     67     37     10      9     34 
    68     68     36     10      9     35 
    69     69     32      8      7      6 
    70     70     42     14     13     16 
    71     71      9      7      6      5 
    72     72     16     13     11     10 
    73     73     14     13     11     12 
    74     74     39     12     11     13 
    75     75     22      3      2     20 
    76     76     15     13     11     12 
    77     77     28      6      7      9 
    78     78     29      6      7      8 
    79     79     24      4      3      2 
    80     80     37     10      9      7 
    81     81     24      4      5      6 
    82     82     34      9      7     30 
    83     83     20      2      1     17 
    84     84     25      4      3     23 
    85     85     26      5      4     25 
    86     86     36     10      9     34 
    87     87     32      8      7      9 
    88     88     40     12     11     38 
    89     89     29      6      5     27 
    90     90     35      9      7     30 
    91     91     23      3      2      1 
    92     92     20      2      3      4 
    93     93     44     14     13     11 
    94     94     35      9      7      6 
    95     95     23      3      2     21 
    96     96     21      2      3      4 
    97     97     28      6      5     26 
    98     98     26      5      6      7 
    99     99     31      8      7     30 
   100    100     33      8      7      9 
   101    101     29      6      5      4 
   102    102     22      3      2      1 
   103    103     27      5      4      3 
   104    104     38     11     13     16 
   105    105     37     10     11     12 
   106    106     21      2      1     19 
   107    107     29      6      5     26 
   108    108     28      6      5     27 
   109    109     42     14     13     15 
   110    110     25      4      3      2 
   111    111     22      3      4      5 
   112    112     27      5      4     24 
   113    113     34      9      7      8 
   114    114     43     14     13     15 
   115    115     37     10     11     13 
   116    116     41     12     11     13 
   117    117     30      7      6     28 

Impropers

     1      1      7      9      6      8 
     2      2     11     10     12     13 
     3      3     13     11     14     15 
     4      4     13     11     14     16 
     5      5      1     18     17      2 
     6      6      1      2     19     17 
     7      7      2      1      3     20 
     8      8      2      1      3     21 
     9      9      3      2      4     22 
    10     10      3      2      4     23 
    11     11      4      3      5     24 
    12     12      4     25      3      5 
    13     13      5     26      4      6 
    14     14      5     27      4      6 
    15     15      6     28      5      7 
    16     16      6      5     29      7 
    17     17      7      8     30      6 
    18     18      8     31      7     32 
    19     19      8     33     31      7 
    20     20      9     34      7     10 
    21     21      9     10     35      7 
    22     22     10      9     11     36 
    23     23     10      9     11     37 
    24     24     11     10     12     38 
    25     25     12     11     39     40 
    26     26     12     41     11     39 
    27     27     14     42     43     13 
    28     28     14     42     44     13 

