LAMMPS data file Created by LigParGen - (Written by Leela S. Dodda)

      22 atoms
      22 bonds
      43 angles
      62 dihedrals
      18 impropers
 
      22 atom types
      22 bond types
      43 angle types
      62 dihedral types
      18 improper types
 
   -2.791990    47.208010 xlo xhi
   -1.258860    48.741140 ylo yhi
   -1.029960    48.970040 zlo zhi

Masses

       1     12.011  
       2     12.011  
       3     12.011  
       4     12.011  
       5     14.007  
       6     12.011  
       7     12.011  
       8     12.011  
       9     12.011  
      10      1.008  
      11      1.008  
      12      1.008  
      13      1.008  
      14      1.008  
      15      1.008  
      16      1.008  
      17      1.008  
      18      1.008  
      19      1.008  
      20      1.008  
      21      1.008  
      22      1.008  

Pair Coeffs 

       1      0.066  3.5000000 
       2      0.066  3.5000000 
       3      0.066  3.5000000 
       4      0.066  3.3000000 
       5      0.170  3.2000000 
       6      0.083  3.4500000 
       7      0.083  3.4500000 
       8      0.083  3.4500000 
       9      0.083  3.4500000 
      10      0.030  2.5000000 
      11      0.030  2.5000000 
      12      0.030  2.5000000 
      13      0.030  2.5000000 
      14      0.030  2.5000000 
      15      0.030  2.5000000 
      16      0.030  2.5000000 
      17      0.030  2.5000000 
      18      0.030  2.5000000 
      19      0.030  2.5000000 
      20      0.030  2.5000000 
      21      0.030  2.5000000 
      22      0.030  2.5000000 

Bond Coeffs 

       1   268.0000     1.5290 
       2   268.0000     1.5290 
       3   390.0000     1.4700 
       4   650.0000     1.1570 
       5   280.0000     1.5100 
       6   260.0000     1.5200 
       7   260.0000     1.5200 
       8   260.0000     1.5200 
       9   340.0000     1.0900 
      10   340.0000     1.0900 
      11   340.0000     1.0900 
      12   340.0000     1.0900 
      13   340.0000     1.0900 
      14   340.0000     1.0900 
      15   340.0000     1.0880 
      16   340.0000     1.0880 
      17   340.0000     1.0880 
      18   340.0000     1.0880 
      19   340.0000     1.0880 
      20   340.0000     1.0880 
      21   340.0000     1.0880 
      22   260.0000     1.5200 

Angle Coeffs 

       1     58.350    112.700
       2     58.350    112.700
       3    150.000    180.000
       4     58.350    112.700
       5     37.500    117.200
       6     30.000     83.000
       7     37.500    117.200
       8     37.500    110.700
       9     37.500    110.700
      10     37.500    110.700
      11     37.500    110.700
      12     37.500    110.700
      13     37.500    110.700
      14     35.000    114.300
      15     37.500    117.200
      16     37.500    117.200
      17     37.500    117.200
      18     37.500    117.200
      19     37.500    117.200
      20     37.500    117.200
      21     37.500    110.700
      22     37.500    117.200
      23     33.000    107.800
      24     37.500    117.200
      25     30.000     83.000
      26     30.000     83.000
      27     35.000    114.300
      28     37.500    117.200
      29     37.500    117.200
      30     35.000    114.300
      31     33.000    107.800
      32     37.500    117.200
      33     58.350    112.700
      34     37.500    117.200
      35     33.000    107.800
      36     37.500    110.700
      37     37.500    117.200
      38     37.500    110.700
      39     35.000    114.300
      40     30.000     83.000
      41     35.000    108.500
      42     37.500    117.200
      43     33.000    107.800

Dihedral Coeffs  

       1      0.000     -0.650      0.000      0.000 
       2      0.000      0.000      0.000      0.000 
       3      0.000      0.000      0.000      0.000 
       4      0.000      0.000      0.000      0.000 
       5      0.000      0.000      0.300      0.000 
       6      0.000      0.000      0.300      0.000 
       7      0.000      0.000      0.000      0.000 
       8      0.000      0.000      0.000      0.000 
       9      0.000      0.000      0.366      0.000 
      10      0.000      0.000      0.300      0.000 
      11      0.000      0.000      0.000      0.000 
      12      0.000      0.000      0.000      0.000 
      13      0.000      0.000      0.000      0.000 
      14      0.000      0.000      0.000      0.000 
      15      0.000      0.000      0.300      0.000 
      16      0.000      0.000      0.300      0.000 
      17      0.000      0.000      0.000      0.000 
      18      0.000      0.000      0.000      0.000 
      19      0.000      0.000      0.300      0.000 
      20      0.000      0.000      0.300      0.000 
      21      0.000      0.000      0.300      0.000 
      22      0.000      0.000      0.000      0.000 
      23      0.000      0.000      0.300      0.000 
      24      0.000      0.000      0.000      0.000 
      25      0.000      0.000      0.000      0.000 
      26      0.000      0.000      0.000      0.000 
      27      0.000      0.000      0.000      0.000 
      28      0.000      0.000      0.300      0.000 
      29      0.000      0.000      0.300      0.000 
      30      0.000      0.000      0.300      0.000 
      31      0.000      0.000      0.300      0.000 
      32      0.000      0.000      0.000      0.000 
      33      0.000      0.000      0.300      0.000 
      34      0.000      0.000      0.000      0.000 
      35      0.000      0.000      0.300      0.000 
      36      0.000      0.000      0.000      0.000 
      37      0.000      0.000      0.000      0.000 
      38      0.000      0.000      0.000      0.000 
      39      0.000      0.000      0.000      0.000 
      40      0.000      0.000      0.300      0.000 
      41      0.000      0.000      0.366      0.000 
      42      0.000      0.000      0.000      0.000 
      43      0.000      0.000      0.366      0.000 
      44      0.000      0.000      0.000      0.000 
      45      1.300     -0.200      0.200      0.000 
      46      0.000      0.000      0.000      0.000 
      47      0.000      0.000      0.000      0.000 
      48      0.000      0.000      0.000      0.000 
      49      0.000      0.000      0.000      0.000 
      50      0.000      0.000      0.000      0.000 
      51      0.000      0.000      0.000      0.000 
      52      0.000      0.000      0.300      0.000 
      53      0.000      0.000      0.000      0.000 
      54      0.000      0.000      0.300      0.000 
      55      0.000      0.000      0.000      0.000 
      56      0.000      0.000      0.000      0.000 
      57      0.000      0.000      0.000      0.000 
      58      0.000      0.000      0.000      0.000 
      59      0.000      0.000      0.000      0.000 
      60      0.000      0.000      0.000      0.000 
      61      0.000      0.000      0.000      0.000 
      62      0.000      0.000      0.000      0.000 

Improper Coeffs 

       1      0.000      -1       2 
       2      0.000      -1       2 
       3      0.000      -1       2 
       4      0.000      -1       2 
       5      0.000      -1       2 
       6      0.000      -1       2 
       7      0.000      -1       2 
       8      0.000      -1       2 
       9      0.000      -1       2 
      10      0.000      -1       2 
      11      0.000      -1       2 
      12      0.000      -1       2 
      13      0.000      -1       2 
      14      0.000      -1       2 
      15      0.000      -1       2 
      16      0.000      -1       2 
      17      0.000      -1       2 
      18      0.000      -1       2 

Atoms 

     1      1      1 -0.24160000    1.000  1.00000  0.00000
     2      1      2 -0.17450000   -0.526  1.00000  0.00000
     3      1      3 0.04060000   -1.183  1.00000  1.39340
     4      1      4 0.13990000   -0.747 -0.23480  2.16542
     5      1      5 -0.40150000   -0.387 -1.25886  2.80690
     6      1      6 -0.14160000   -0.817  2.25152  2.19195
     7      1      7 -0.18880000   -1.226  3.63531  1.61155
     8      1      8 -0.20050000   -1.517  4.07605  3.06040
     9      1      9 -0.19540000   -1.750  2.58948  3.39054
    10      1     10 0.08880000    1.369  0.95262 -1.02996
    11      1     11 0.08880000    1.405  0.13400  0.53274
    12      1     12 0.08880000    1.400  1.91019  0.45434
    13      1     13 0.10000000   -0.866  0.11348 -0.55157
    14      1     14 0.10000000   -0.871  1.87165 -0.56848
    15      1     15 0.13380000   -2.270  0.94857  1.25269
    16      1     16 0.13190000    0.241  2.24781  2.49736
    17      1     17 0.10350000   -2.114  3.61647  0.97093
    18      1     18 0.10350000   -0.430  4.18696  1.10494
    19      1     19 0.10520000   -2.379  4.73364  3.19188
    20      1     20 0.10520000   -0.651  4.50967  3.57327
    21      1     21 0.10700000   -2.792  2.27448  3.26053
    22      1     22 0.10700000   -1.400  2.26332  4.37298

Bonds 

     1      1      2      1
     2      2      3      2
     3      3      4      3
     4      4      5      4
     5      5      6      3
     6      6      7      6
     7      7      8      7
     8      8      9      6
     9      9     10      1
    10     10     11      1
    11     11     12      1
    12     12     13      2
    13     13     14      2
    14     14     15      3
    15     15     16      6
    16     16     17      7
    17     17     18      7
    18     18     19      8
    19     19     20      8
    20     20     21      9
    21     21     22      9
    22     22      9      8

Angles 

     1      1      1      2      3
     2      2      2      3      4
     3      3      3      4      5
     4      4      2      3      6
     5      5      3      6      7
     6      6      6      7      8
     7      7      3      6      9
     8      8      2      1     10
     9      9      2      1     11
    10     10      2      1     12
    11     11      1      2     13
    12     12      1      2     14
    13     13      2      3     15
    14     14      3      6     16
    15     15      6      7     17
    16     16      6      7     18
    17     17      7      8     19
    18     18      7      8     20
    19     19      6      9     21
    20     20      6      9     22
    21     21      3      2     14
    22     22      8      7     18
    23     23     13      2     14
    24     24      9      8     20
    25     25      7      6      9
    26     26      6      9      8
    27     27     19      8     20
    28     28      9      6     16
    29     29      9      8     19
    30     30     21      9     22
    31     31     11      1     12
    32     32      8      9     21
    33     33      4      3      6
    34     34      7      6     16
    35     35     10      1     11
    36     36      3      2     13
    37     37      8      7     17
    38     38      6      3     15
    39     39     17      7     18
    40     40      7      8      9
    41     41      4      3     15
    42     42      8      9     22
    43     43     10      1     12

Dihedrals

     1      1      4      3      2      1 
     2      2      5      4      3      2 
     3      3      7      6      3      2 
     4      4      8      7      6      3 
     5      5     10      1      2      3 
     6      6     14      2      3      6 
     7      7     15      3      4      5 
     8      8     21      9      8      7 
     9      9     16      6      3      4 
    10     10     15      3      2      1 
    11     11     21      9      6     16 
    12     12     16      6      9      8 
    13     13      9      6      3      4 
    14     14     19      8      7      6 
    15     15     11      1      2      3 
    16     16     13      2      3      6 
    17     17     21      9      8     19 
    18     18     20      8      9      6 
    19     19     15      3      6      7 
    20     20     15      3      2     14 
    21     21     15      3      2     13 
    22     22     21      9      8     20 
    23     23     15      3      6      9 
    24     24     21      9      6      7 
    25     25     22      9      6     16 
    26     26     17      7      8      9 
    27     27     16      6      7      8 
    28     28     16      6      3     15 
    29     29     13      2      1     12 
    30     30     14      2      1     11 
    31     31     12      1      2      3 
    32     32     18      7      8      9 
    33     33     13      2      1     11 
    34     34     22      9      8     19 
    35     35     14      2      1     10 
    36     36     22      9      8      7 
    37     37     21      9      6      3 
    38     38     20      8      7     18 
    39     39     19      8      7     18 
    40     40     14      2      1     12 
    41     41     14      2      3      4 
    42     42     19      8      7     17 
    43     43     13      2      3      4 
    44     44     18      7      6      9 
    45     45      6      3      2      1 
    46     46     22      9      6      7 
    47     47     19      8      9      6 
    48     48     22      9      6      3 
    49     49     22      9      8     20 
    50     50     20      8      7      6 
    51     51     18      7      6      3 
    52     52     13      2      1     10 
    53     53      8      9      6      3 
    54     54     16      6      3      2 
    55     55      6      3      4      5 
    56     56     17      7      6      9 
    57     57      7      6      3      4 
    58     58      9      6      3      2 
    59     59     18      7      6     16 
    60     60     17      7      6      3 
    61     61     17      7      6     16 
    62     62     20      8      7     17 

Impropers

     1      1      3      2      4      6 
     2      2      6      9      3      7 
     3      3      1      2     11     10 
     4      4      1      2     12     10 
     5      5      2      1      3     13 
     6      6      2      1      3     14 
     7      7      3      2      4     15 
     8      8      6      3      7     16 
     9      9      7     17      6      8 
    10     10      7     18      6      8 
    11     11      8      9     19      7 
    12     12      8      9     20      7 
    13     13      9     21      6      8 
    14     14      9      8     22      6 
    15     15      9      6      7      8 
    16     16      9      6      7      8 
    17     17      9      6      7      8 
    18     18      9      6      7      8 

