LAMMPS data file Created by LigParGen - (Written by Leela S. Dodda)

      29 atoms
      28 bonds
      52 angles
      65 dihedrals
      17 impropers
 
      29 atom types
      28 bond types
      52 angle types
      65 dihedral types
      17 improper types
 
   -5.033050    44.966950 xlo xhi
   -2.533160    47.466840 ylo yhi
   -1.418480    48.581520 zlo zhi

Masses

       1     12.011  
       2     15.999  
       3     12.011  
       4     15.999  
       5     12.011  
       6     35.450  
       7     12.011  
       8     12.011  
       9     12.011  
      10     35.450  
      11     12.011  
      12     12.011  
      13     12.011  
      14      1.008  
      15      1.008  
      16      1.008  
      17      1.008  
      18      1.008  
      19      1.008  
      20      1.008  
      21      1.008  
      22      1.008  
      23      1.008  
      24      1.008  
      25      1.008  
      26      1.008  
      27      1.008  
      28      1.008  
      29      1.008  

Pair Coeffs 

       1      0.066  3.5000000 
       2      0.140  2.9000000 
       3      0.070  3.5500000 
       4      0.210  2.9600000 
       5      0.066  3.5000000 
       6      0.300  3.4000000 
       7      0.066  3.5000000 
       8      0.066  3.5000000 
       9      0.066  3.5000000 
      10      0.300  3.4000000 
      11      0.066  3.5000000 
      12      0.066  3.5000000 
      13      0.066  3.5000000 
      14      0.030  2.5000000 
      15      0.030  2.5000000 
      16      0.030  2.5000000 
      17      0.030  2.5000000 
      18      0.030  2.5000000 
      19      0.030  2.5000000 
      20      0.030  2.5000000 
      21      0.030  2.5000000 
      22      0.030  2.5000000 
      23      0.030  2.5000000 
      24      0.030  2.5000000 
      25      0.030  2.5000000 
      26      0.030  2.5000000 
      27      0.030  2.5000000 
      28      0.030  2.5000000 
      29      0.030  2.5000000 

Bond Coeffs 

       1   320.0000     1.4100 
       2   214.0000     1.3270 
       3   570.0000     1.2290 
       4   317.0000     1.5220 
       5   245.0000     1.7810 
       6   268.0000     1.5290 
       7   268.0000     1.5290 
       8   268.0000     1.5290 
       9   245.0000     1.7810 
      10   268.0000     1.5290 
      11   268.0000     1.5290 
      12   268.0000     1.5290 
      13   340.0000     1.0900 
      14   340.0000     1.0900 
      15   340.0000     1.0900 
      16   340.0000     1.0900 
      17   340.0000     1.0900 
      18   340.0000     1.0900 
      19   340.0000     1.0900 
      20   340.0000     1.0900 
      21   340.0000     1.0900 
      22   340.0000     1.0900 
      23   340.0000     1.0900 
      24   340.0000     1.0900 
      25   340.0000     1.0900 
      26   340.0000     1.0900 
      27   340.0000     1.0900 
      28   340.0000     1.0900 

Angle Coeffs 

       1     83.000    116.900
       2     83.000    123.400
       3     81.000    111.400
       4     69.000    109.800
       5     63.000    111.100
       6     58.350    112.700
       7     58.350    112.700
       8     69.000    109.800
       9     63.000    111.100
      10     58.350    112.700
      11     58.350    112.700
      12     35.000    109.500
      13     35.000    109.500
      14     35.000    109.500
      15     37.500    110.700
      16     37.500    110.700
      17     37.500    110.700
      18     37.500    110.700
      19     37.500    110.700
      20     37.500    110.700
      21     37.500    110.700
      22     37.500    110.700
      23     37.500    110.700
      24     37.500    110.700
      25     37.500    110.700
      26     37.500    110.700
      27     37.500    110.700
      28     33.000    107.800
      29     37.500    110.700
      30     33.000    107.800
      31     37.500    110.700
      32     33.000    107.800
      33     37.500    110.700
      34     58.350    112.700
      35     69.000    109.800
      36     33.000    107.800
      37     33.000    107.800
      38     80.000    120.400
      39     33.000    107.800
      40     33.000    107.800
      41     69.000    109.800
      42     33.000    107.800
      43     33.000    107.800
      44     51.000    107.600
      45     58.350    112.700
      46     51.000    107.600
      47     37.500    110.700
      48     37.500    110.700
      49     37.500    110.700
      50     33.000    107.800
      51     33.000    107.800
      52     33.000    107.800

Dihedral Coeffs  

       1      0.000      5.124      0.000      0.000 
       2      0.000      0.000     -0.553      0.000 
       3     -2.060     -0.313      0.315      0.000 
       4      1.300     -0.200      0.200      0.000 
       5      0.000      0.000      0.400      0.000 
       6     -2.060     -0.313      0.315      0.000 
       7      0.000      0.000      0.198      0.000 
       8      0.000      0.000      0.300      0.000 
       9      0.000      0.000      0.300      0.000 
      10      0.000      0.000      0.400      0.000 
      11      0.000      0.000     -0.100      0.000 
      12      0.000      0.000      0.300      0.000 
      13      0.000      0.000     -0.553      0.000 
      14      0.000      0.000      0.300      0.000 
      15      0.000      0.000      0.300      0.000 
      16      0.000      0.000      0.300      0.000 
      17      0.000      0.000      0.300      0.000 
      18      0.000      0.000      0.300      0.000 
      19      0.000      0.000      0.300      0.000 
      20      0.000      0.000      0.300      0.000 
      21      0.000      0.000      0.300      0.000 
      22      0.000      0.000      0.300      0.000 
      23      0.000      0.000      0.300      0.000 
      24      0.000      0.000      0.300      0.000 
      25      0.000      0.000      0.300      0.000 
      26      1.300     -0.200      0.200      0.000 
      27      0.000      0.000      0.300      0.000 
      28      0.000      0.000      0.400      0.000 
      29      0.000      0.000     -0.100      0.000 
      30      0.000      0.000      0.300      0.000 
      31      0.000      0.000      0.300      0.000 
      32     -0.650      0.000      0.000      0.000 
      33      0.000      0.000      0.000      0.000 
      34      0.000      0.000      0.300      0.000 
      35      0.000      0.000      0.400      0.000 
      36      0.000      0.000      0.400      0.000 
      37      0.000      0.000      0.300      0.000 
      38      0.000      0.000      0.300      0.000 
      39      1.300     -0.200      0.200      0.000 
      40      0.000      0.000      0.300      0.000 
      41      0.000      0.000      0.400      0.000 
      42      0.000      0.000      0.300      0.000 
      43      0.000      0.000      0.300      0.000 
      44      0.000      0.000      0.300      0.000 
      45      0.000      0.000      0.400      0.000 
      46      0.000      0.000      0.300      0.000 
      47      0.000      0.000      0.300      0.000 
      48      0.000      0.000      0.400      0.000 
      49      1.300     -0.200      0.200      0.000 
      50      0.000      0.000      0.300      0.000 
      51      0.000      0.000      0.300      0.000 
      52     -2.060     -0.313      0.315      0.000 
      53      0.000      0.000     -0.553      0.000 
      54      0.000      0.000      0.400      0.000 
      55      0.000      0.000      0.300      0.000 
      56      0.000      0.000      0.300      0.000 
      57      0.000      0.000     -0.100      0.000 
      58      0.000      0.000      0.198      0.000 
      59      4.669      5.124      0.000      0.000 
      60      0.000      0.000      0.300      0.000 
      61      0.000      0.000      0.000      0.000 
      62      0.000      0.000      0.300      0.000 
      63      0.000      0.000      0.300      0.000 
      64      0.000      0.000      0.198      0.000 
      65      0.000      0.000      0.300      0.000 

Improper Coeffs 

       1     10.500      -1       2 
       2      0.000      -1       2 
       3      0.000      -1       2 
       4      0.000      -1       2 
       5      0.000      -1       2 
       6      0.000      -1       2 
       7      0.000      -1       2 
       8      0.000      -1       2 
       9      0.000      -1       2 
      10      0.000      -1       2 
      11      0.000      -1       2 
      12      0.000      -1       2 
      13      0.000      -1       2 
      14      0.000      -1       2 
      15      0.000      -1       2 
      16      0.000      -1       2 
      17      0.000      -1       2 

Atoms 

     1      1      1 -0.05540000    1.000  1.00000  0.00000
     2      1      2 -0.35680000   -0.430  1.00000  0.00000
     3      1      3 0.43180000   -1.005  1.00000  1.24223
     4      1      4 -0.41610000   -0.365  1.04558  2.28503
     5      1      5 0.15760000   -2.543  0.93700  1.11583
     6      1      6 -0.24640000   -3.250  0.93741  2.78383
     7      1      7 -0.17740000   -3.046  2.20257  0.36903
     8      1      8 -0.19170000   -2.634  3.55105  0.98940
     9      1      9 0.01690000   -3.166  4.74814  0.20201
    10      1     10 -0.28690000   -2.438  4.85319 -1.41848
    11      1     11 -0.10570000   -2.953 -0.37770  0.36317
    12      1     12 -0.24240000   -2.450 -1.65501  1.05614
    13      1     13 -0.23870000   -4.463 -0.51402  0.11514
    14      1     14 0.10460000    1.335  0.72200 -1.00332
    15      1     15 0.10460000    1.401  0.26637  0.70670
    16      1     16 0.10460000    1.370  2.00387  0.22733
    17      1     17 0.12250000   -4.141  2.18976  0.31499
    18      1     18 0.12250000   -2.685  2.15695 -0.66565
    19      1     19 0.11680000   -1.544  3.62182  1.06749
    20      1     20 0.11680000   -3.033  3.62528  2.00757
    21      1     21 0.11980000   -2.927  5.67885  0.72492
    22      1     22 0.11980000   -4.252  4.68950  0.08078
    23      1     23 0.12280000   -2.479 -0.35836 -0.62827
    24      1     24 0.09370000   -2.927 -1.80839  2.02994
    25      1     25 0.09370000   -1.367 -1.63421  1.20354
    26      1     26 0.09370000   -2.676 -2.53316  0.43952
    27      1     27 0.09180000   -5.033 -0.51536  1.04909
    28      1     28 0.09180000   -4.682 -1.45298 -0.40567
    29      1     29 0.09180000   -4.840  0.29288 -0.51936

Bonds 

     1      1      2      1
     2      2      3      2
     3      3      4      3
     4      4      5      3
     5      5      6      5
     6      6      7      5
     7      7      8      7
     8      8      9      8
     9      9     10      9
    10     10     11      5
    11     11     12     11
    12     12     13     11
    13     13     14      1
    14     14     15      1
    15     15     16      1
    16     16     17      7
    17     17     18      7
    18     18     19      8
    19     19     20      8
    20     20     21      9
    21     21     22      9
    22     22     23     11
    23     23     24     12
    24     24     25     12
    25     25     26     12
    26     26     27     13
    27     27     28     13
    28     28     29     13

Angles 

     1      1      1      2      3
     2      2      2      3      4
     3      3      2      3      5
     4      4      3      5      6
     5      5      3      5      7
     6      6      5      7      8
     7      7      7      8      9
     8      8      8      9     10
     9      9      3      5     11
    10     10      5     11     12
    11     11      5     11     13
    12     12      2      1     14
    13     13      2      1     15
    14     14      2      1     16
    15     15      5      7     17
    16     16      5      7     18
    17     17      7      8     19
    18     18      7      8     20
    19     19      8      9     21
    20     20      8      9     22
    21     21      5     11     23
    22     22     11     12     24
    23     23     11     12     25
    24     24     11     12     26
    25     25     11     13     27
    26     26     11     13     28
    27     27     11     13     29
    28     28     24     12     26
    29     29      8      7     18
    30     30     14      1     16
    31     31      9      8     20
    32     32     25     12     26
    33     33     13     11     23
    34     34      7      5     11
    35     35      6      5     11
    36     36     19      8     20
    37     37     14      1     15
    38     38      4      3      5
    39     39     24     12     25
    40     40     21      9     22
    41     41      6      5      7
    42     42     15      1     16
    43     43     28     13     29
    44     44     10      9     22
    45     45     12     11     13
    46     46     10      9     21
    47     47      8      7     17
    48     48     12     11     23
    49     49      9      8     19
    50     50     17      7     18
    51     51     27     13     29
    52     52     27     13     28

Dihedrals

     1      1      4      3      2      1 
     2      2      6      5      3      2 
     3      3      8      7      5      3 
     4      4      9      8      7      5 
     5      5     10      9      8      7 
     6      6     12     11      5      3 
     7      7     14      1      2      3 
     8      8     24     12     11      5 
     9      9     27     13     11      5 
    10     10     23     11      5      6 
    11     11     17      7      5      3 
    12     12     21      9      8      7 
    13     13      7      5      3      2 
    14     14     27     13     11     23 
    15     15     17      7      5     11 
    16     16     25     12     11     23 
    17     17     29     13     11     23 
    18     18     24     12     11     23 
    19     19     20      8      7      5 
    20     20     21      9      8     19 
    21     21     25     12     11      5 
    22     22     17      7      8      9 
    23     23     22      9      8     20 
    24     24     18      7      5     11 
    25     25     22      9      8     19 
    26     26     11      5      7      8 
    27     27     25     12     11     13 
    28     28     20      8      9     10 
    29     29     18      7      5      3 
    30     30     26     12     11     13 
    31     31     21      9      8     20 
    32     32      6      5      3      4 
    33     33     11      5      3      4 
    34     34     24     12     11     13 
    35     35      8      7      5      6 
    36     36     17      7      5      6 
    37     37     28     13     11     12 
    38     38     19      8      7      5 
    39     39     13     11      5      7 
    40     40     22      9      8      7 
    41     41     19      8      9     10 
    42     42     19      8      7     18 
    43     43     20      8      7     17 
    44     44     19      8      7     17 
    45     45     18      7      5      6 
    46     46     23     11      5      7 
    47     47     20      8      7     18 
    48     48     12     11      5      6 
    49     49     12     11      5      7 
    50     50     26     12     11      5 
    51     51     26     12     11     23 
    52     52     13     11      5      3 
    53     53     11      5      3      2 
    54     54     13     11      5      6 
    55     55     27     13     11     12 
    56     56     28     13     11      5 
    57     57     23     11      5      3 
    58     58     16      1      2      3 
    59     59      5      3      2      1 
    60     60     18      7      8      9 
    61     61      7      5      3      4 
    62     62     29     13     11     12 
    63     63     28     13     11     23 
    64     64     15      1      2      3 
    65     65     29     13     11      5 

Impropers

     1      1      3      2      4      5 
     2      2      5      3      6      7 
     3      3      5     11      3      6 
     4      4     11      5     12     13 
     5      5      1      2     14     15 
     6      6      1      2     14     16 
     7      7      7     17      5      8 
     8      8      7     18      5      8 
     9      9      8      9     19      7 
    10     10      8      9     20      7 
    11     11      9     10     21      8 
    12     12      9     10     22      8 
    13     13     11     12      5     23 
    14     14     12     25     11     24 
    15     15     12     26     11     24 
    16     16     13     11     28     27 
    17     17     13     11     29     27 

