LAMMPS data file Created by LigParGen - (Written by Leela S. Dodda)

      34 atoms
      33 bonds
      63 angles
      81 dihedrals
      21 impropers
 
      34 atom types
      33 bond types
      63 angle types
      81 dihedral types
      21 improper types
 
   -4.418100    45.581900 xlo xhi
   -1.350060    48.649940 ylo yhi
   -1.027170    48.972830 zlo zhi

Masses

       1     12.011  
       2     12.011  
       3     12.011  
       4     30.974  
       5     12.011  
       6     12.011  
       7     12.011  
       8     12.011  
       9     12.011  
      10     12.011  
      11     12.011  
      12      1.008  
      13      1.008  
      14      1.008  
      15      1.008  
      16      1.008  
      17      1.008  
      18      1.008  
      19      1.008  
      20      1.008  
      21      1.008  
      22      1.008  
      23      1.008  
      24      1.008  
      25      1.008  
      26      1.008  
      27      1.008  
      28      1.008  
      29      1.008  
      30      1.008  
      31      1.008  
      32      1.008  
      33      1.008  
      34      1.008  

Pair Coeffs 

       1      0.066  3.5000000 
       2      0.066  3.5000000 
       3      0.066  3.5000000 
       4      0.200  3.7400000 
       5      0.066  3.5000000 
       6      0.066  3.5000000 
       7      0.066  3.5000000 
       8      0.066  3.5000000 
       9      0.066  3.5000000 
      10      0.066  3.5000000 
      11      0.066  3.5000000 
      12      0.030  2.5000000 
      13      0.030  2.5000000 
      14      0.030  2.5000000 
      15      0.030  2.5000000 
      16      0.030  2.5000000 
      17      0.030  2.5000000 
      18      0.030  2.5000000 
      19      0.030  2.5000000 
      20      0.030  2.5000000 
      21      0.030  2.5000000 
      22      0.030  2.5000000 
      23      0.030  2.5000000 
      24      0.030  2.5000000 
      25      0.030  2.5000000 
      26      0.030  2.5000000 
      27      0.030  2.5000000 
      28      0.030  2.5000000 
      29      0.030  2.5000000 
      30      0.030  2.5000000 
      31      0.030  2.5000000 
      32      0.030  2.5000000 
      33      0.030  2.5000000 
      34      0.030  2.5000000 

Bond Coeffs 

       1   268.0000     1.5290 
       2   268.0000     1.5290 
       3   212.0000     1.8430 
       4   212.0000     1.8430 
       5   212.0000     1.8430 
       6   268.0000     1.5290 
       7   268.0000     1.5290 
       8   268.0000     1.5290 
       9   268.0000     1.5290 
      10   268.0000     1.5290 
      11   340.0000     1.0900 
      12   340.0000     1.0900 
      13   340.0000     1.0900 
      14   340.0000     1.0900 
      15   340.0000     1.0900 
      16   340.0000     1.0900 
      17   340.0000     1.0900 
      18   340.0000     1.0900 
      19   340.0000     1.0900 
      20   340.0000     1.0900 
      21   340.0000     1.0900 
      22   340.0000     1.0900 
      23   340.0000     1.0900 
      24   340.0000     1.0900 
      25   340.0000     1.0900 
      26   340.0000     1.0900 
      27   340.0000     1.0900 
      28   340.0000     1.0900 
      29   340.0000     1.0900 
      30   340.0000     1.0900 
      31   340.0000     1.0900 
      32   340.0000     1.0900 
      33   340.0000     1.0900 

Angle Coeffs 

       1     58.350    112.700
       2     43.000    109.500
       3     62.000     98.900
       4     62.000     98.900
       5     43.000    109.500
       6     58.350    112.700
       7     58.350    112.700
       8     58.350    112.700
       9     58.350    112.700
      10     37.500    110.700
      11     37.500    110.700
      12     37.500    110.700
      13     37.500    110.700
      14     37.500    110.700
      15     37.500    110.700
      16     37.500    110.700
      17     41.000    109.500
      18     41.000    109.500
      19     41.000    109.500
      20     41.000    109.500
      21     41.000    109.500
      22     37.500    110.700
      23     37.500    110.700
      24     37.500    110.700
      25     37.500    110.700
      26     37.500    110.700
      27     37.500    110.700
      28     37.500    110.700
      29     37.500    110.700
      30     37.500    110.700
      31     37.500    110.700
      32     37.500    110.700
      33     62.000     98.900
      34     33.000    107.800
      35     33.000    107.800
      36     33.000    107.800
      37     58.350    112.700
      38     33.000    107.800
      39     37.500    110.700
      40     37.500    110.700
      41     33.000    107.800
      42     33.000    107.800
      43     33.000    107.800
      44     33.000    107.800
      45     33.000    107.800
      46     37.500    110.700
      47     33.000    107.800
      48     41.000    109.500
      49     37.500    110.700
      50     37.500    110.700
      51     33.000    107.800
      52     33.000    107.800
      53     33.000    107.800
      54     37.500    110.700
      55     33.000    107.800
      56     37.500    110.700
      57     41.000    109.500
      58     33.000    107.800
      59     37.500    110.700
      60     37.500    110.700
      61     33.000    107.800
      62     37.500    110.700
      63     33.000    107.800

Dihedral Coeffs  

       1      0.845     -0.962      0.713      0.000 
       2      1.000     -0.500      0.500      0.000 
       3      1.000     -0.500      0.500      0.000 
       4      0.845     -0.962      0.713      0.000 
       5      1.300     -0.200      0.200      0.000 
       6      1.300     -0.200      0.200      0.000 
       7      0.000      0.000      0.300      0.000 
       8      0.000      0.000      0.300      0.000 
       9      0.000      0.000      0.300      0.000 
      10      0.000      0.000      0.300      0.000 
      11      0.000      0.000      0.300      0.000 
      12      0.000      0.000      0.300      0.000 
      13      0.000      0.000      0.300      0.000 
      14      0.000      0.000      0.300      0.000 
      15      0.000      0.000      0.300      0.000 
      16      0.000      0.000      0.300      0.000 
      17      0.000      0.000      0.300      0.000 
      18      0.000      0.000      0.300      0.000 
      19      0.000      0.000      0.300      0.000 
      20      0.000      0.000      0.300      0.000 
      21      0.000      0.000      0.300      0.000 
      22      0.000      0.000      0.300      0.000 
      23      0.000      0.000      0.300      0.000 
      24      0.000      0.000      0.300      0.000 
      25      0.000      0.000      0.300      0.000 
      26      0.000      0.000      0.300      0.000 
      27      0.000      0.000      0.300      0.000 
      28      1.000     -0.500      0.500      0.000 
      29      0.000      0.000      0.300      0.000 
      30      0.000      0.000      0.300      0.000 
      31      0.000      0.000      0.300      0.000 
      32      0.000      0.000      0.300      0.000 
      33      0.000      0.000      0.300      0.000 
      34      0.000      0.000      0.300      0.000 
      35      0.000      0.000      0.300      0.000 
      36      0.000      0.000      0.300      0.000 
      37      0.000      0.000      0.300      0.000 
      38      0.000      0.000      0.300      0.000 
      39      0.000      0.000      0.300      0.000 
      40      0.000      0.000      0.300      0.000 
      41      0.000      0.000      0.300      0.000 
      42      1.300     -0.200      0.200      0.000 
      43      1.300     -0.200      0.200      0.000 
      44      0.000      0.000      0.300      0.000 
      45      0.000      0.000      0.300      0.000 
      46      0.000      0.000      0.300      0.000 
      47      0.000      0.000      0.300      0.000 
      48      0.000      0.000      0.300      0.000 
      49      0.000      0.000      0.300      0.000 
      50      0.000      0.000      0.300      0.000 
      51      0.000      0.000      0.300      0.000 
      52      0.000      0.000      0.300      0.000 
      53      0.000      0.000      0.300      0.000 
      54      0.000      0.000      0.300      0.000 
      55      0.000      0.000      0.300      0.000 
      56      0.000      0.000      0.300      0.000 
      57      0.000      0.000      0.300      0.000 
      58      0.000      0.000      0.300      0.000 
      59      0.000      0.000      0.300      0.000 
      60      0.000      0.000      0.300      0.000 
      61      0.000      0.000      0.300      0.000 
      62      0.000      0.000      0.300      0.000 
      63      0.000      0.000      0.300      0.000 
      64      0.000      0.000      0.300      0.000 
      65      0.000      0.000      0.300      0.000 
      66      0.000      0.000      0.300      0.000 
      67      0.000      0.000      0.300      0.000 
      68      0.000      0.000      0.300      0.000 
      69      0.000      0.000      0.300      0.000 
      70      0.000      0.000      0.300      0.000 
      71      0.000      0.000      0.300      0.000 
      72      0.000      0.000      0.300      0.000 
      73      0.000      0.000      0.300      0.000 
      74      0.000      0.000      0.300      0.000 
      75      0.000      0.000      0.300      0.000 
      76      0.000      0.000      0.300      0.000 
      77      0.000      0.000      0.300      0.000 
      78      0.000      0.000      0.300      0.000 
      79      0.000      0.000      0.300      0.000 
      80      1.000     -0.500      0.500      0.000 
      81      0.000      0.000      0.300      0.000 

Improper Coeffs 

       1      0.000      -1       2 
       2      0.000      -1       2 
       3      0.000      -1       2 
       4      0.000      -1       2 
       5      0.000      -1       2 
       6      0.000      -1       2 
       7      0.000      -1       2 
       8      0.000      -1       2 
       9      0.000      -1       2 
      10      0.000      -1       2 
      11      0.000      -1       2 
      12      0.000      -1       2 
      13      0.000      -1       2 
      14      0.000      -1       2 
      15      0.000      -1       2 
      16      0.000      -1       2 
      17      0.000      -1       2 
      18      0.000      -1       2 
      19      0.000      -1       2 
      20      0.000      -1       2 
      21      0.000      -1       2 

Atoms 

     1      1      1 -0.24010000    1.000  1.00000  0.00000
     2      1      2 -0.17440000   -0.522  1.00000  0.00000
     3      1      3 -0.30710000   -1.067  1.00000  1.42555
     4      1      4 0.28980000   -2.915  1.07815  1.50210
     5      1      5 -0.37770000   -3.353 -0.51765  0.70143
     6      1      6 -0.30370000   -3.183  0.59361  3.27990
     7      1      7 -0.17220000   -2.601  1.61945  4.25545
     8      1      8 -0.11190000   -2.796  1.27002  5.74941
     9      1      9 -0.23410000   -2.180 -0.08800  6.10255
    10      1     10 -0.17530000   -2.189  2.41111  6.59291
    11      1     11 -0.23680000   -2.303  2.21626  8.09756
    12      1     12 0.08190000    1.377  0.99870 -1.02717
    13      1     13 0.08190000    1.392  0.11316  0.50708
    14      1     14 0.08190000    1.391  1.88913  0.50540
    15      1     15 0.09420000   -0.868  0.11475 -0.54502
    16      1     16 0.09420000   -0.881  1.87852 -0.54947
    17      1     17 0.09610000   -0.673  1.87559  1.95328
    18      1     18 0.09610000   -0.712  0.10954  1.95702
    19      1     19 0.09220000   -3.155 -0.47563 -0.37343
    20      1     20 0.09220000   -4.418 -0.73011  0.83306
    21      1     21 0.09220000   -2.781 -1.35006  1.12232
    22      1     22 0.09640000   -2.724 -0.38714  3.43401
    23      1     23 0.09640000   -4.260  0.48890  3.44930
    24      1     24 0.09370000   -3.061  2.59777  4.06011
    25      1     25 0.09370000   -1.527  1.73941  4.06859
    26      1     26 0.09820000   -3.874  1.21854  5.95414
    27      1     27 0.08100000   -1.106 -0.09986  5.89142
    28      1     28 0.08100000   -2.650 -0.89941  5.53835
    29      1     29 0.08100000   -2.323 -0.32874  7.16113
    30      1     30 0.08770000   -2.692  3.35040  6.33213
    31      1     31 0.08770000   -1.130  2.54031  6.33508
    32      1     32 0.08130000   -3.339  2.02274  8.39269
    33      1     33 0.08130000   -1.963  3.11912  8.61583
    34      1     34 0.08130000   -1.678  1.38834  8.44386

Bonds 

     1      1      2      1
     2      2      3      2
     3      3      4      3
     4      4      5      4
     5      5      6      4
     6      6      7      6
     7      7      8      7
     8      8      9      8
     9      9     10      8
    10     10     11     10
    11     11     12      1
    12     12     13      1
    13     13     14      1
    14     14     15      2
    15     15     16      2
    16     16     17      3
    17     17     18      3
    18     18     19      5
    19     19     20      5
    20     20     21      5
    21     21     22      6
    22     22     23      6
    23     23     24      7
    24     24     25      7
    25     25     26      8
    26     26     27      9
    27     27     28      9
    28     28     29      9
    29     29     30     10
    30     30     31     10
    31     31     32     11
    32     32     33     11
    33     33     34     11

Angles 

     1      1      1      2      3
     2      2      2      3      4
     3      3      3      4      5
     4      4      3      4      6
     5      5      4      6      7
     6      6      6      7      8
     7      7      7      8      9
     8      8      7      8     10
     9      9      8     10     11
    10     10      2      1     12
    11     11      2      1     13
    12     12      2      1     14
    13     13      1      2     15
    14     14      1      2     16
    15     15      2      3     17
    16     16      2      3     18
    17     17      4      5     19
    18     18      4      5     20
    19     19      4      5     21
    20     20      4      6     22
    21     21      4      6     23
    22     22      6      7     24
    23     23      6      7     25
    24     24      7      8     26
    25     25      8      9     27
    26     26      8      9     28
    27     27      8      9     29
    28     28      8     10     30
    29     29      8     10     31
    30     30     10     11     32
    31     31     10     11     33
    32     32     10     11     34
    33     33      5      4      6
    34     34     30     10     31
    35     35     33     11     34
    36     36     13      1     14
    37     37      9      8     10
    38     38     15      2     16
    39     39      7      6     22
    40     40      3      2     15
    41     41     19      5     20
    42     42     27      9     29
    43     43     32     11     34
    44     44     28      9     29
    45     45     12      1     14
    46     46      3      2     16
    47     47     32     11     33
    48     48      4      3     18
    49     49     10      8     26
    50     50      8      7     25
    51     51     12      1     13
    52     52     22      6     23
    53     53     27      9     28
    54     54     11     10     31
    55     55     19      5     21
    56     56      9      8     26
    57     57      4      3     17
    58     58     17      3     18
    59     59      8      7     24
    60     60      7      6     23
    61     61     24      7     25
    62     62     11     10     30
    63     63     20      5     21

Dihedrals

     1      1      4      3      2      1 
     2      2      5      4      3      2 
     3      3      7      6      4      3 
     4      4      8      7      6      4 
     5      5      9      8      7      6 
     6      6     11     10      8      7 
     7      7     12      1      2      3 
     8      8     19      5      4      3 
     9      9     27      9      8      7 
    10     10     32     11     10      8 
    11     11     16      2      3      4 
    12     12     23      6      4      5 
    13     13     29      9      8     26 
    14     14     15      2      3      4 
    15     15     23      6      7      8 
    16     16     18      3      2      1 
    17     17     28      9      8     10 
    18     18     22      6      4      5 
    19     19     31     10      8      7 
    20     20     26      8      7      6 
    21     21     17      3      2     16 
    22     22     18      3      2     15 
    23     23     24      7      8     10 
    24     24     20      5      4      3 
    25     25     34     11     10     30 
    26     26     18      3      4      5 
    27     27     17      3      4      6 
    28     28      6      4      3      2 
    29     29     29      9      8     10 
    30     30     25      7      8     10 
    31     31     30     10      8      7 
    32     32     20      5      4      6 
    33     33     23      6      4      3 
    34     34     32     11     10     30 
    35     35     26      8      7     24 
    36     36     16      2      1     13 
    37     37     15      2      1     14 
    38     38     22      6      4      3 
    39     39     33     11     10      8 
    40     40     25      7      6      4 
    41     41     31     10      8     26 
    42     42     10      8      7      6 
    43     43     11     10      8      9 
    44     44     18      3      4      6 
    45     45     24      7      8      9 
    46     46     33     11     10     30 
    47     47     17      3      2     15 
    48     48     16      2      1     12 
    49     49     28      9      8      7 
    50     50     17      3      4      5 
    51     51     17      3      2      1 
    52     52     33     11     10     31 
    53     53     24      7      6     23 
    54     54     22      6      7      8 
    55     55     34     11     10     31 
    56     56     19      5      4      6 
    57     57     14      1      2      3 
    58     58     24      7      6     22 
    59     59     32     11     10     31 
    60     60     21      5      4      3 
    61     61     27      9      8     26 
    62     62     25      7      6     23 
    63     63     30     10      8      9 
    64     64     27      9      8     10 
    65     65     28      9      8     26 
    66     66     29      9      8      7 
    67     67     18      3      2     16 
    68     68     30     10      8     26 
    69     69     15      2      1     12 
    70     70     26      8     10     11 
    71     71     25      7      8      9 
    72     72     16      2      1     14 
    73     73     13      1      2      3 
    74     74     34     11     10      8 
    75     75     31     10      8      9 
    76     76     25      7      6     22 
    77     77     24      7      6      4 
    78     78     26      8      7     25 
    79     79     21      5      4      6 
    80     80      7      6      4      5 
    81     81     15      2      1     13 

Impropers

     1      1      4      3      5      6 
     2      2      8      9     10      7 
     3      3      1      2     12     13 
     4      4      1      2     12     14 
     5      5      2      1      3     15 
     6      6      2      1      3     16 
     7      7      3     17      2      4 
     8      8      3     18      4      2 
     9      9      5      4     19     20 
    10     10      5     19      4     21 
    11     11      6      4     22      7 
    12     12      6      7      4     23 
    13     13      7      8      6     24 
    14     14      7     25      6      8 
    15     15      8      9     26      7 
    16     16      9     27     28      8 
    17     17      9     27     29      8 
    18     18     10     11     30      8 
    19     19     10     11     31      8 
    20     20     11     33     10     32 
    21     21     11     34     32     10 

