LAMMPS data file Created by LigParGen - (Written by Leela S. Dodda)

      37 atoms
      37 bonds
      72 angles
     105 dihedrals
      23 impropers
 
      37 atom types
      37 bond types
      72 angle types
     105 dihedral types
      23 improper types
 
   -4.714370    45.285630 xlo xhi
   -7.113630    42.886370 ylo yhi
   -1.862800    48.137200 zlo zhi

Masses

       1     12.011  
       2     12.011  
       3     12.011  
       4     12.011  
       5     12.011  
       6     15.999  
       7     12.011  
       8     12.011  
       9     12.011  
      10     12.011  
      11     12.011  
      12     12.011  
      13     12.011  
      14     12.011  
      15     15.999  
      16      1.008  
      17      1.008  
      18      1.008  
      19      1.008  
      20      1.008  
      21      1.008  
      22      1.008  
      23      1.008  
      24      1.008  
      25      1.008  
      26      1.008  
      27      1.008  
      28      1.008  
      29      1.008  
      30      1.008  
      31      1.008  
      32      1.008  
      33      1.008  
      34      1.008  
      35      1.008  
      36      1.008  
      37      1.008  

Pair Coeffs 

       1      0.066  3.5000000 
       2      0.066  3.5000000 
       3      0.066  3.5000000 
       4      0.066  3.5000000 
       5      0.070  3.5500000 
       6      0.210  2.9600000 
       7      0.066  3.5000000 
       8      0.066  3.5000000 
       9      0.066  3.5000000 
      10      0.066  3.5000000 
      11      0.066  3.5000000 
      12      0.066  3.5000000 
      13      0.066  3.5000000 
      14      0.070  3.5500000 
      15      0.210  2.9600000 
      16      0.030  2.5000000 
      17      0.030  2.5000000 
      18      0.030  2.5000000 
      19      0.030  2.5000000 
      20      0.030  2.5000000 
      21      0.030  2.5000000 
      22      0.030  2.5000000 
      23      0.030  2.5000000 
      24      0.030  2.5000000 
      25      0.030  2.5000000 
      26      0.030  2.5000000 
      27      0.030  2.5000000 
      28      0.030  2.5000000 
      29      0.030  2.5000000 
      30      0.030  2.5000000 
      31      0.030  2.5000000 
      32      0.030  2.5000000 
      33      0.030  2.5000000 
      34      0.030  2.5000000 
      35      0.030  2.5000000 
      36      0.030  2.5000000 
      37      0.030  2.5000000 

Bond Coeffs 

       1   268.0000     1.5290 
       2   268.0000     1.5290 
       3   268.0000     1.5290 
       4   317.0000     1.5220 
       5   570.0000     1.2290 
       6   317.0000     1.5220 
       7   268.0000     1.5290 
       8   268.0000     1.5290 
       9   268.0000     1.5290 
      10   268.0000     1.5290 
      11   268.0000     1.5290 
      12   268.0000     1.5290 
      13   317.0000     1.5220 
      14   570.0000     1.2290 
      15   340.0000     1.0900 
      16   340.0000     1.0900 
      17   340.0000     1.0900 
      18   340.0000     1.0900 
      19   340.0000     1.0900 
      20   340.0000     1.0900 
      21   340.0000     1.0900 
      22   340.0000     1.0900 
      23   340.0000     1.0900 
      24   340.0000     1.0900 
      25   340.0000     1.0900 
      26   340.0000     1.0900 
      27   340.0000     1.0900 
      28   340.0000     1.0900 
      29   340.0000     1.0900 
      30   340.0000     1.0900 
      31   340.0000     1.0900 
      32   340.0000     1.0900 
      33   340.0000     1.0900 
      34   340.0000     1.0900 
      35   340.0000     1.0900 
      36   340.0000     1.0900 
      37   317.0000     1.5220 

Angle Coeffs 

       1     58.350    112.700
       2     58.350    112.700
       3     63.000    111.100
       4     80.000    120.400
       5     70.000    116.000
       6     63.000    111.100
       7     58.350    112.700
       8     58.350    112.700
       9     58.350    112.700
      10     58.350    112.700
      11     58.350    112.700
      12     63.000    111.100
      13     80.000    120.400
      14     37.500    110.700
      15     37.500    110.700
      16     37.500    110.700
      17     37.500    110.700
      18     37.500    110.700
      19     37.500    110.700
      20     37.500    110.700
      21     37.500    110.700
      22     37.500    110.700
      23     35.000    109.500
      24     35.000    109.500
      25     37.500    110.700
      26     37.500    110.700
      27     37.500    110.700
      28     37.500    110.700
      29     37.500    110.700
      30     37.500    110.700
      31     37.500    110.700
      32     37.500    110.700
      33     37.500    110.700
      34     37.500    110.700
      35     37.500    110.700
      36     33.000    107.800
      37     33.000    107.800
      38     33.000    107.800
      39     63.000    111.100
      40     33.000    107.800
      41     37.500    110.700
      42     63.000    111.100
      43     33.000    107.800
      44     37.500    110.700
      45     35.000    109.500
      46     33.000    107.800
      47     37.500    110.700
      48     37.500    110.700
      49     33.000    107.800
      50     37.500    110.700
      51     37.500    110.700
      52     33.000    107.800
      53     35.000    109.500
      54     33.000    107.800
      55     33.000    107.800
      56     37.500    110.700
      57     63.000    111.100
      58     70.000    116.000
      59     37.500    110.700
      60     33.000    107.800
      61     37.500    110.700
      62     33.000    107.800
      63     37.500    110.700
      64     33.000    107.800
      65     58.350    112.700
      66     35.000    109.500
      67     63.000    111.100
      68     37.500    110.700
      69     80.000    120.400
      70     33.000    107.800
      71     80.000    120.400
      72     33.000    107.800

Dihedral Coeffs  

       1      1.300     -0.200      0.200      0.000 
       2     -2.060     -0.313      0.315      0.000 
       3      0.000      0.000      0.000      0.000 
       4      1.454     -0.144     -0.775      0.000 
       5     -2.060     -0.313      0.315      0.000 
       6      1.300     -0.200      0.200      0.000 
       7      1.300     -0.200      0.200      0.000 
       8      1.300     -0.200      0.200      0.000 
       9      0.000      0.000      0.300      0.000 
      10      0.000      0.000      0.300      0.000 
      11      0.000      0.000      0.300      0.000 
      12      0.000      0.000      0.300      0.000 
      13      0.000      0.000      0.300      0.000 
      14      0.000      0.000      0.300      0.000 
      15      0.000      0.000      0.000      0.000 
      16      0.000      0.000      0.300      0.000 
      17      0.000      0.000      0.300      0.000 
      18      0.000      0.000      0.300      0.000 
      19     -0.550      0.000      1.000      0.000 
      20      0.000      0.000      0.300      0.000 
      21      1.454     -0.144     -0.775      0.000 
      22      0.000      0.000      0.000      0.000 
      23      0.000      0.000      0.300      0.000 
      24      0.000      0.000      0.300      0.000 
      25      0.000      0.000      0.300      0.000 
      26      0.000      0.000      0.000      0.000 
      27      0.000      0.000      0.000      0.000 
      28      0.000      0.000     -0.100      0.000 
      29      0.000      0.000      0.275      0.000 
      30      1.454     -0.144     -0.775      0.000 
      31      0.000      0.000      0.000      0.000 
      32      0.000      0.000      0.300      0.000 
      33      0.000      0.000      0.300      0.000 
      34      0.000      0.000      0.300      0.000 
      35      0.000      0.000      0.300      0.000 
      36      0.000      0.000      0.300      0.000 
      37      0.000      0.000      0.300      0.000 
      38      1.454     -0.144     -0.775      0.000 
      39      0.000      0.000     -0.100      0.000 
      40      0.000      0.000     -0.100      0.000 
      41      0.000      0.000      0.275      0.000 
      42      0.000      0.000      0.300      0.000 
      43      0.000      0.000     -0.100      0.000 
      44      0.000      0.000      0.300      0.000 
      45      0.000      0.000      0.000      0.000 
      46      1.300     -0.200      0.200      0.000 
      47      0.000      0.000      0.300      0.000 
      48      0.000      0.000      0.300      0.000 
      49      0.000      0.000      0.000      0.000 
      50      0.000      0.000     -0.100      0.000 
      51      0.000      0.000     -0.100      0.000 
      52      0.000      0.000      0.300      0.000 
      53      0.000      0.000     -0.100      0.000 
      54      0.000      0.000      0.300      0.000 
      55      0.000      0.000      0.275      0.000 
      56      0.000      0.000      0.300      0.000 
      57      0.000      0.000      0.300      0.000 
      58      0.000      0.000      0.300      0.000 
      59      0.000      0.000      0.300      0.000 
      60      0.000      0.000      0.275      0.000 
      61      0.000      0.000      0.300      0.000 
      62     -2.060     -0.313      0.315      0.000 
      63      0.000      0.000      0.300      0.000 
      64      0.000      0.000      0.300      0.000 
      65      0.000      0.000      0.300      0.000 
      66      0.000      0.000      0.300      0.000 
      67      0.000      0.000      0.300      0.000 
      68      0.000      0.000      0.300      0.000 
      69      0.000      0.000      0.300      0.000 
      70      0.000      0.000      0.300      0.000 
      71      0.000      0.000      0.300      0.000 
      72      0.000      0.000      0.300      0.000 
      73      0.000      0.000     -0.100      0.000 
      74      0.000      0.000      0.300      0.000 
      75      0.000      0.000      0.300      0.000 
      76      0.000      0.000      0.300      0.000 
      77      0.000      0.000      0.000      0.000 
      78      0.000      0.000      0.300      0.000 
      79      0.000      0.000      0.275      0.000 
      80      0.000      0.000      0.000      0.000 
      81      0.000      0.000      0.300      0.000 
      82      0.000      0.000     -0.100      0.000 
      83      0.000      0.000     -0.100      0.000 
      84      0.000      0.000      0.300      0.000 
      85      0.000      0.000      0.300      0.000 
      86      1.454     -0.144     -0.775      0.000 
      87      0.000      0.000      0.000      0.000 
      88      1.454     -0.144     -0.775      0.000 
      89      1.454     -0.144     -0.775      0.000 
      90      0.000      0.000      0.300      0.000 
      91      0.000      0.000      0.300      0.000 
      92      0.000      0.000     -0.100      0.000 
      93      0.000      0.000      0.300      0.000 
      94      0.000      0.000      0.300      0.000 
      95      0.000      0.000     -0.100      0.000 
      96      0.000      0.000     -0.100      0.000 
      97     -2.060     -0.313      0.315      0.000 
      98      0.000      0.000      0.300      0.000 
      99      0.000      0.000     -0.100      0.000 
     100      0.000      0.000     -0.100      0.000 
     101      0.000      0.000      0.000      0.000 
     102      0.000      0.000      0.300      0.000 
     103      0.000      0.000      0.300      0.000 
     104      0.000      0.000      0.300      0.000 
     105      0.000      0.000      0.300      0.000 

Improper Coeffs 

       1     10.500      -1       2 
       2      0.000      -1       2 
       3      0.000      -1       2 
       4     10.500      -1       2 
       5      0.000      -1       2 
       6      0.000      -1       2 
       7      0.000      -1       2 
       8      0.000      -1       2 
       9      0.000      -1       2 
      10      0.000      -1       2 
      11      0.000      -1       2 
      12      0.000      -1       2 
      13      0.000      -1       2 
      14      0.000      -1       2 
      15      0.000      -1       2 
      16      0.000      -1       2 
      17      0.000      -1       2 
      18      0.000      -1       2 
      19      0.000      -1       2 
      20      0.000      -1       2 
      21      0.000      -1       2 
      22      0.000      -1       2 
      23      0.000      -1       2 

Atoms 

     1      1      1 -0.24030000    1.000  1.00000  0.00000
     2      1      2 -0.18310000   -0.521  1.00000  0.00000
     3      1      3 -0.16760000   -1.075  1.00000  1.42631
     4      1      4 -0.23550000   -2.601  0.99822  1.46747
     5      1      5 0.36780000   -3.230 -0.22067  0.81594
     6      1      6 -0.45130000   -3.982 -0.09128 -0.15003
     7      1      7 -0.21590000   -2.942 -1.57481  1.43937
     8      1      8 -0.16310000   -3.569 -2.73149  0.66941
     9      1      9 -0.18320000   -2.994 -2.93170 -0.73749
    10      1     10 -0.18200000   -3.204 -4.41491 -1.01938
    11      1     11 -0.10580000   -2.843 -5.11916  0.29741
    12      1     12 -0.21910000   -1.340 -5.38324  0.40699
    13      1     13 -0.21880000   -3.636 -6.40946  0.47810
    14      1     14 0.37220000   -3.247 -4.06524  1.31609
    15      1     15 -0.44480000   -3.306 -4.26368  2.52450
    16      1     16 0.08300000    1.379  0.99870 -1.02680
    17      1     17 0.08300000    1.390  0.11125  0.50681
    18      1     18 0.08300000    1.392  1.88725  0.50705
    19      1     19 0.09500000   -0.871  0.11707 -0.54646
    20      1     20 0.09500000   -0.882  1.88268 -0.54059
    21      1     21 0.09540000   -0.716  1.89530  1.94878
    22      1     22 0.09540000   -0.680  0.13840  1.97549
    23      1     23 0.12120000   -2.986  1.89279  0.96297
    24      1     24 0.12120000   -2.950  1.04091  2.50526
    25      1     25 0.13300000   -3.336 -1.55166  2.46276
    26      1     26 0.13300000   -1.859 -1.71836  1.50245
    27      1     27 0.15290000   -4.661 -2.63618  0.62015
    28      1     28 0.10940000   -1.927 -2.68319 -0.76826
    29      1     29 0.10940000   -3.504 -2.31234 -1.48138
    30      1     30 0.10400000   -2.594 -4.75386 -1.86280
    31      1     31 0.10400000   -4.257 -4.58486 -1.27956
    32      1     32 0.09150000   -1.011 -6.09754 -0.35604
    33      1     33 0.09150000   -1.085 -5.79688  1.38930
    34      1     34 0.09150000   -0.754 -4.46620  0.28395
    35      1     35 0.09260000   -3.430 -7.11363 -0.33533
    36      1     36 0.09260000   -4.714 -6.21624  0.49507
    37      1     37 0.09260000   -3.380 -6.90114  1.42361

Bonds 

     1      1      2      1
     2      2      3      2
     3      3      4      3
     4      4      5      4
     5      5      6      5
     6      6      7      5
     7      7      8      7
     8      8      9      8
     9      9     10      9
    10     10     11     10
    11     11     12     11
    12     12     13     11
    13     13     14      8
    14     14     15     14
    15     15     16      1
    16     16     17      1
    17     17     18      1
    18     18     19      2
    19     19     20      2
    20     20     21      3
    21     21     22      3
    22     22     23      4
    23     23     24      4
    24     24     25      7
    25     25     26      7
    26     26     27      8
    27     27     28      9
    28     28     29      9
    29     29     30     10
    30     30     31     10
    31     31     32     12
    32     32     33     12
    33     33     34     12
    34     34     35     13
    35     35     36     13
    36     36     37     13
    37     37     14     11

Angles 

     1      1      1      2      3
     2      2      2      3      4
     3      3      3      4      5
     4      4      4      5      6
     5      5      4      5      7
     6      6      5      7      8
     7      7      7      8      9
     8      8      8      9     10
     9      9      9     10     11
    10     10     10     11     12
    11     11     10     11     13
    12     12      7      8     14
    13     13      8     14     15
    14     14      2      1     16
    15     15      2      1     17
    16     16      2      1     18
    17     17      1      2     19
    18     18      1      2     20
    19     19      2      3     21
    20     20      2      3     22
    21     21      3      4     23
    22     22      3      4     24
    23     23      5      7     25
    24     24      5      7     26
    25     25      7      8     27
    26     26      8      9     28
    27     27      8      9     29
    28     28      9     10     30
    29     29      9     10     31
    30     30     11     12     32
    31     31     11     12     33
    32     32     11     12     34
    33     33     11     13     35
    34     34     11     13     36
    35     35     11     13     37
    36     36     32     12     34
    37     37     35     13     36
    38     38     23      4     24
    39     39      9      8     14
    40     40     21      3     22
    41     41     10      9     28
    42     42     12     11     14
    43     43     16      1     18
    44     44     10      9     29
    45     45      5      4     24
    46     46     30     10     31
    47     47      8      7     25
    48     48      4      3     22
    49     49     17      1     18
    50     50      3      2     20
    51     51      8      7     26
    52     52     32     12     33
    53     53      5      4     23
    54     54     35     13     37
    55     55     33     12     34
    56     56      9      8     27
    57     57     10     11     14
    58     58      8     14     11
    59     59      3      2     19
    60     60     25      7     26
    61     61      4      3     21
    62     62     19      2     20
    63     63     11     10     31
    64     64     16      1     17
    65     65     12     11     13
    66     66     14      8     27
    67     67     13     11     14
    68     68     11     10     30
    69     69     11     14     15
    70     70     36     13     37
    71     71      6      5      7
    72     72     28      9     29

Dihedrals

     1      1      4      3      2      1 
     2      2      5      4      3      2 
     3      3      6      5      4      3 
     4      4      8      7      5      4 
     5      5      9      8      7      5 
     6      6     10      9      8      7 
     7      7     11     10      9      8 
     8      8     12     11     10      9 
     9      9     16      1      2      3 
    10     10     32     12     11     10 
    11     11     35     13     11     10 
    12     12     23      4      3     21 
    13     13     30     10     11     13 
    14     14     31     10     11     12 
    15     15     15     14     11     12 
    16     16     32     12     11     13 
    17     17     21      3      2     20 
    18     18     22      3      2     19 
    19     19     14      8      7      5 
    20     20     22      3      2      1 
    21     21     13     11     14      8 
    22     22     25      7      5      6 
    23     23     36     13     11     10 
    24     24     21      3      2     19 
    25     25     36     13     11     12 
    26     26     15     14     11     13 
    27     27     15     14      8      7 
    28     28     37     13     11     14 
    29     29     24      4      5      7 
    30     30     11     14      8      7 
    31     31     26      7      5      6 
    32     32     29      9      8      7 
    33     33     37     13     11     10 
    34     34     35     13     11     12 
    35     35     30     10      9     28 
    36     36     30     10     11     12 
    37     37     27      8      7     26 
    38     38     12     11     14      8 
    39     39     30     10     11     14 
    40     40     35     13     11     14 
    41     41     26      7      5      4 
    42     42     34     12     11     13 
    43     43     33     12     11     14 
    44     44     28      9      8     27 
    45     45     23      4      5      6 
    46     46     13     11     10      9 
    47     47     33     12     11     10 
    48     48     30     10      9      8 
    49     49     15     14      8      9 
    50     50     36     13     11     14 
    51     51     25      7      8     14 
    52     52     21      3      2      1 
    53     53     28      9      8     14 
    54     54     24      4      3     22 
    55     55     25      7      5      4 
    56     56     27      8      9     10 
    57     57     30     10      9     29 
    58     58     31     10      9     28 
    59     59     29      9     10     11 
    60     60     27      8     14     11 
    61     61     18      1      2      3 
    62     62     14      8      9     10 
    63     63     23      4      3      2 
    64     64     20      2      1     18 
    65     65     24      4      3     21 
    66     66     23      4      3     22 
    67     67     34     12     11     10 
    68     68     19      2      1     16 
    69     69     37     13     11     12 
    70     70     20      2      1     17 
    71     71     19      2      1     18 
    72     72     22      3      2     20 
    73     73     21      3      4      5 
    74     74     24      4      3      2 
    75     75     28      9      8      7 
    76     76     20      2      3      4 
    77     77     15     14     11     10 
    78     78     29      9      8     27 
    79     79     23      4      5      7 
    80     80     24      4      5      6 
    81     81     17      1      2      3 
    82     82     31     10     11     14 
    83     83     27      8      7      5 
    84     84     19      2      3      4 
    85     85     26      7      8      9 
    86     86     10     11     14      8 
    87     87      8      7      5      6 
    88     88     11     14      8      9 
    89     89      7      5      4      3 
    90     90     31     10      9      8 
    91     91     27      8      7     25 
    92     92     26      7      8     14 
    93     93     19      2      1     17 
    94     94     20      2      1     16 
    95     95     34     12     11     14 
    96     96     22      3      4      5 
    97     97     14     11     10      9 
    98     98     33     12     11     13 
    99     99     32     12     11     14 
   100    100     29      9      8     14 
   101    101     27      8     14     15 
   102    102     25      7      8      9 
   103    103     28      9     10     11 
   104    104     31     10      9     29 
   105    105     31     10     11     13 

Impropers

     1      1      5      4      6      7 
     2      2     11     10     12     13 
     3      3      8      9     14      7 
     4      4     14     11     15      8 
     5      5      1     17     16      2 
     6      6      1     18     16      2 
     7      7      2      1     19      3 
     8      8      2      1      3     20 
     9      9      3      2      4     21 
    10     10      3      2      4     22 
    11     11      4      3      5     23 
    12     12      4      3      5     24 
    13     13      7     25      5      8 
    14     14      7     26      5      8 
    15     15      8      9     27      7 
    16     16      9     10     28      8 
    17     17      9     10     29      8 
    18     18     10      9     11     30 
    19     19     10      9     11     31 
    20     20     12     33     11     32 
    21     21     12     34     11     32 
    22     22     13     11     36     35 
    23     23     13     11     37     35 

