LAMMPS data file Created by LigParGen - (Written by Leela S. Dodda)

      45 atoms
      44 bonds
      85 angles
     120 dihedrals
      28 impropers
 
      45 atom types
      44 bond types
      85 angle types
     120 dihedral types
      28 improper types
 
   -5.077070    44.922930 xlo xhi
   -3.197050    46.802950 ylo yhi
   -1.025210    48.974790 zlo zhi

Masses

       1     12.011  
       2     12.011  
       3     12.011  
       4     12.011  
       5     12.011  
       6     12.011  
       7     12.011  
       8     12.011  
       9     12.011  
      10     12.011  
      11     12.011  
      12     12.011  
      13     12.011  
      14     12.011  
      15     12.011  
      16     14.007  
      17      1.008  
      18      1.008  
      19      1.008  
      20      1.008  
      21      1.008  
      22      1.008  
      23      1.008  
      24      1.008  
      25      1.008  
      26      1.008  
      27      1.008  
      28      1.008  
      29      1.008  
      30      1.008  
      31      1.008  
      32      1.008  
      33      1.008  
      34      1.008  
      35      1.008  
      36      1.008  
      37      1.008  
      38      1.008  
      39      1.008  
      40      1.008  
      41      1.008  
      42      1.008  
      43      1.008  
      44      1.008  
      45      1.008  

Pair Coeffs 

       1      0.066  3.5000000 
       2      0.066  3.5000000 
       3      0.066  3.5000000 
       4      0.066  3.5000000 
       5      0.066  3.5000000 
       6      0.066  3.5000000 
       7      0.066  3.5000000 
       8      0.066  3.5000000 
       9      0.066  3.5000000 
      10      0.066  3.5000000 
      11      0.066  3.5000000 
      12      0.066  3.5000000 
      13      0.066  3.5000000 
      14      0.066  3.5000000 
      15      0.066  3.3000000 
      16      0.170  3.2000000 
      17      0.030  2.5000000 
      18      0.030  2.5000000 
      19      0.030  2.5000000 
      20      0.030  2.5000000 
      21      0.030  2.5000000 
      22      0.030  2.5000000 
      23      0.030  2.5000000 
      24      0.030  2.5000000 
      25      0.030  2.5000000 
      26      0.030  2.5000000 
      27      0.030  2.5000000 
      28      0.030  2.5000000 
      29      0.030  2.5000000 
      30      0.030  2.5000000 
      31      0.030  2.5000000 
      32      0.030  2.5000000 
      33      0.030  2.5000000 
      34      0.030  2.5000000 
      35      0.030  2.5000000 
      36      0.030  2.5000000 
      37      0.030  2.5000000 
      38      0.030  2.5000000 
      39      0.030  2.5000000 
      40      0.030  2.5000000 
      41      0.030  2.5000000 
      42      0.030  2.5000000 
      43      0.030  2.5000000 
      44      0.030  2.5000000 
      45      0.030  2.5000000 

Bond Coeffs 

       1   268.0000     1.5290 
       2   268.0000     1.5290 
       3   268.0000     1.5290 
       4   268.0000     1.5290 
       5   268.0000     1.5290 
       6   268.0000     1.5290 
       7   268.0000     1.5290 
       8   268.0000     1.5290 
       9   268.0000     1.5290 
      10   268.0000     1.5290 
      11   268.0000     1.5290 
      12   268.0000     1.5290 
      13   268.0000     1.5290 
      14   390.0000     1.4700 
      15   650.0000     1.1570 
      16   340.0000     1.0900 
      17   340.0000     1.0900 
      18   340.0000     1.0900 
      19   340.0000     1.0900 
      20   340.0000     1.0900 
      21   340.0000     1.0900 
      22   340.0000     1.0900 
      23   340.0000     1.0900 
      24   340.0000     1.0900 
      25   340.0000     1.0900 
      26   340.0000     1.0900 
      27   340.0000     1.0900 
      28   340.0000     1.0900 
      29   340.0000     1.0900 
      30   340.0000     1.0900 
      31   340.0000     1.0900 
      32   340.0000     1.0900 
      33   340.0000     1.0900 
      34   340.0000     1.0900 
      35   340.0000     1.0900 
      36   340.0000     1.0900 
      37   340.0000     1.0900 
      38   340.0000     1.0900 
      39   340.0000     1.0900 
      40   340.0000     1.0900 
      41   340.0000     1.0900 
      42   340.0000     1.0900 
      43   340.0000     1.0900 
      44   340.0000     1.0900 

Angle Coeffs 

       1     58.350    112.700
       2     58.350    112.700
       3     58.350    112.700
       4     58.350    112.700
       5     58.350    112.700
       6     58.350    112.700
       7     58.350    112.700
       8     58.350    112.700
       9     58.350    112.700
      10     58.350    112.700
      11     58.350    112.700
      12     58.350    112.700
      13     58.350    112.700
      14    150.000    180.000
      15     37.500    110.700
      16     37.500    110.700
      17     37.500    110.700
      18     37.500    110.700
      19     37.500    110.700
      20     37.500    110.700
      21     37.500    110.700
      22     37.500    110.700
      23     37.500    110.700
      24     37.500    110.700
      25     37.500    110.700
      26     37.500    110.700
      27     37.500    110.700
      28     37.500    110.700
      29     37.500    110.700
      30     37.500    110.700
      31     37.500    110.700
      32     37.500    110.700
      33     37.500    110.700
      34     37.500    110.700
      35     37.500    110.700
      36     37.500    110.700
      37     37.500    110.700
      38     37.500    110.700
      39     37.500    110.700
      40     37.500    110.700
      41     37.500    110.700
      42     37.500    110.700
      43     37.500    110.700
      44     37.500    110.700
      45     58.350    112.700
      46     37.500    110.700
      47     37.500    110.700
      48     37.500    110.700
      49     33.000    107.800
      50     37.500    110.700
      51     37.500    110.700
      52     33.000    107.800
      53     37.500    110.700
      54     33.000    107.800
      55     37.500    110.700
      56     58.350    112.700
      57     37.500    110.700
      58     33.000    107.800
      59     33.000    107.800
      60     33.000    107.800
      61     37.500    110.700
      62     33.000    107.800
      63     37.500    110.700
      64     33.000    107.800
      65     33.000    107.800
      66     33.000    107.800
      67     33.000    107.800
      68     37.500    110.700
      69     33.000    107.800
      70     33.000    107.800
      71     33.000    107.800
      72     35.000    108.500
      73     58.350    112.700
      74     37.500    110.700
      75     33.000    107.800
      76     33.000    107.800
      77     33.000    107.800
      78     37.500    110.700
      79     58.350    112.700
      80     37.500    110.700
      81     33.000    107.800
      82     37.500    110.700
      83     35.000    108.500
      84     33.000    107.800
      85     33.000    107.800

Dihedral Coeffs  

       1      1.300     -0.200      0.200      0.000 
       2      1.300     -0.200      0.200      0.000 
       3      1.300     -0.200      0.200      0.000 
       4      1.300     -0.200      0.200      0.000 
       5      1.300     -0.200      0.200      0.000 
       6      1.300     -0.200      0.200      0.000 
       7      1.300     -0.200      0.200      0.000 
       8      0.000     -0.650      0.000      0.000 
       9      0.000      0.000      0.000      0.000 
      10      0.000      0.000      0.300      0.000 
      11      0.000      0.000      0.300      0.000 
      12      0.000      0.000      0.300      0.000 
      13      0.000      0.000      0.300      0.000 
      14      0.000      0.000      0.300      0.000 
      15      0.000      0.000      0.300      0.000 
      16      0.000      0.000      0.300      0.000 
      17      0.000      0.000      0.300      0.000 
      18      0.000      0.000      0.300      0.000 
      19      0.000      0.000      0.300      0.000 
      20      0.000      0.000      0.300      0.000 
      21      0.000      0.000      0.300      0.000 
      22      0.000      0.000      0.300      0.000 
      23      0.000      0.000      0.300      0.000 
      24      0.000      0.000      0.300      0.000 
      25      1.300     -0.200      0.200      0.000 
      26      1.300     -0.200      0.200      0.000 
      27      0.000      0.000      0.300      0.000 
      28      1.300     -0.200      0.200      0.000 
      29      0.000      0.000      0.300      0.000 
      30      0.000      0.000      0.300      0.000 
      31      0.000      0.000      0.300      0.000 
      32      0.000      0.000      0.300      0.000 
      33      0.000      0.000      0.300      0.000 
      34      0.000      0.000      0.300      0.000 
      35      0.000      0.000      0.300      0.000 
      36      0.000      0.000      0.300      0.000 
      37      0.000      0.000      0.300      0.000 
      38      0.000      0.000      0.300      0.000 
      39      0.000      0.000      0.300      0.000 
      40      0.000      0.000      0.300      0.000 
      41      0.000      0.000      0.300      0.000 
      42      0.000      0.000      0.300      0.000 
      43      0.000      0.000      0.300      0.000 
      44      0.000      0.000      0.300      0.000 
      45      1.300     -0.200      0.200      0.000 
      46      0.000      0.000      0.300      0.000 
      47      0.000      0.000      0.000      0.000 
      48      0.000      0.000      0.300      0.000 
      49      0.000      0.000      0.300      0.000 
      50      0.000      0.000      0.300      0.000 
      51      0.000      0.000      0.300      0.000 
      52      1.300     -0.200      0.200      0.000 
      53      0.000      0.000      0.300      0.000 
      54      0.000      0.000      0.300      0.000 
      55      0.000      0.000      0.300      0.000 
      56      0.000      0.000      0.300      0.000 
      57      0.000      0.000      0.300      0.000 
      58      0.000      0.000      0.300      0.000 
      59      0.000      0.000      0.300      0.000 
      60      0.000      0.000      0.300      0.000 
      61      0.000      0.000      0.300      0.000 
      62      0.000      0.000      0.300      0.000 
      63      0.000      0.000      0.300      0.000 
      64      0.000      0.000      0.300      0.000 
      65      0.000      0.000      0.300      0.000 
      66      1.300     -0.200      0.200      0.000 
      67      0.000      0.000      0.300      0.000 
      68      0.000      0.000      0.300      0.000 
      69      0.000      0.000      0.300      0.000 
      70      0.000      0.000      0.300      0.000 
      71      0.000      0.000      0.300      0.000 
      72      0.000      0.000      0.300      0.000 
      73      0.000      0.000      0.300      0.000 
      74      0.000      0.000      0.300      0.000 
      75      0.000      0.000      0.300      0.000 
      76      0.000      0.000      0.300      0.000 
      77      0.000      0.000      0.300      0.000 
      78      0.000      0.000      0.300      0.000 
      79      0.000      0.000      0.000      0.000 
      80      1.300     -0.200      0.200      0.000 
      81      0.000      0.000      0.300      0.000 
      82      0.000      0.000      0.300      0.000 
      83      0.000      0.000      0.300      0.000 
      84      0.000      0.000      0.300      0.000 
      85      0.000      0.000      0.300      0.000 
      86      0.000      0.000      0.300      0.000 
      87      0.000      0.000      0.300      0.000 
      88      0.000      0.000      0.300      0.000 
      89      0.000      0.000      0.300      0.000 
      90      1.300     -0.200      0.200      0.000 
      91      0.000      0.000      0.300      0.000 
      92      0.000      0.000      0.300      0.000 
      93      0.000      0.000      0.300      0.000 
      94      0.000      0.000      0.300      0.000 
      95      0.000      0.000      0.300      0.000 
      96      0.000      0.000      0.300      0.000 
      97      0.000      0.000      0.300      0.000 
      98      0.000      0.000      0.300      0.000 
      99      0.000      0.000      0.300      0.000 
     100      0.000      0.000      0.300      0.000 
     101      1.300     -0.200      0.200      0.000 
     102      0.000      0.000      0.300      0.000 
     103      0.000      0.000      0.300      0.000 
     104      0.000      0.000      0.300      0.000 
     105      0.000      0.000      0.300      0.000 
     106      0.000      0.000      0.300      0.000 
     107      0.000      0.000      0.300      0.000 
     108      0.000      0.000      0.300      0.000 
     109      0.000      0.000      0.300      0.000 
     110      0.000      0.000      0.366      0.000 
     111      0.000      0.000      0.300      0.000 
     112      0.000      0.000      0.300      0.000 
     113      0.000      0.000      0.300      0.000 
     114      0.000      0.000      0.300      0.000 
     115      0.000      0.000      0.300      0.000 
     116      0.000      0.000      0.300      0.000 
     117      0.000      0.000      0.366      0.000 
     118      0.000      0.000      0.300      0.000 
     119      0.000      0.000      0.300      0.000 
     120      1.300     -0.200      0.200      0.000 

Improper Coeffs 

       1      0.000      -1       2 
       2      0.000      -1       2 
       3      0.000      -1       2 
       4      0.000      -1       2 
       5      0.000      -1       2 
       6      0.000      -1       2 
       7      0.000      -1       2 
       8      0.000      -1       2 
       9      0.000      -1       2 
      10      0.000      -1       2 
      11      0.000      -1       2 
      12      0.000      -1       2 
      13      0.000      -1       2 
      14      0.000      -1       2 
      15      0.000      -1       2 
      16      0.000      -1       2 
      17      0.000      -1       2 
      18      0.000      -1       2 
      19      0.000      -1       2 
      20      0.000      -1       2 
      21      0.000      -1       2 
      22      0.000      -1       2 
      23      0.000      -1       2 
      24      0.000      -1       2 
      25      0.000      -1       2 
      26      0.000      -1       2 
      27      0.000      -1       2 
      28      0.000      -1       2 

Atoms 

     1      1      1 -0.24030000    1.000  1.00000  0.00000
     2      1      2 -0.17890000   -0.524  1.00000  0.00000
     3      1      3 -0.17630000   -1.059  1.00000  1.43567
     4      1      4 -0.10920000   -2.602  0.99822  1.55464
     5      1      5 -0.23410000   -3.212 -0.24609  0.88933
     6      1      6 -0.10090000   -3.068  1.17326  3.05214
     7      1      7 -0.23370000   -4.593  1.29523  3.10413
     8      1      8 -0.17140000   -2.494  0.05649  3.96137
     9      1      9 -0.09920000   -2.746  0.06764  5.48995
    10      1     10 -0.23570000   -4.219 -0.12333  5.86917
    11      1     11 -0.11380000   -1.887 -1.03213  6.21708
    12      1     12 -0.23630000   -2.210 -2.45545  5.72868
    13      1     13 -0.17220000   -0.354 -0.81636  6.13959
    14      1     14 -0.07280000    0.155  0.49867  6.74010
    15      1     15 0.16040000   -0.111  0.59257  8.18161
    16      1     16 -0.39180000   -0.322  0.66565  9.32181
    17      1     17 0.08070000    1.381  0.99870 -1.02521
    18      1     18 0.08070000    1.389  0.10980  0.50493
    19      1     19 0.08070000    1.393  1.88427  0.51214
    20      1     20 0.09040000   -0.859  0.10701 -0.53689
    21      1     21 0.09040000   -0.892  1.87656 -0.54252
    22      1     22 0.08700000   -0.668  1.88626  1.95435
    23      1     23 0.08700000   -0.643  0.12024  1.93690
    24      1     24 0.09570000   -2.968  1.87272  0.99764
    25      1     25 0.08150000   -2.846 -1.16962  1.34801
    26      1     26 0.08150000   -2.971 -0.28656 -0.17599
    27      1     27 0.08150000   -4.304 -0.24215  0.95478
    28      1     28 0.09000000   -2.659  2.13372  3.40042
    29      1     29 0.08220000   -5.077  0.31251  3.09510
    30      1     30 0.08220000   -4.978  1.86741  2.25324
    31      1     31 0.08220000   -4.912  1.83423  3.99855
    32      1     32 0.08800000   -1.409  0.10438  3.84595
    33      1     33 0.08800000   -2.812 -0.91009  3.55982
    34      1     34 0.09350000   -2.445  1.04747  5.87922
    35      1     35 0.08340000   -4.705 -0.87892  5.24415
    36      1     36 0.08340000   -4.774  0.81288  5.77988
    37      1     37 0.08340000   -4.325 -0.43069  6.91540
    38      1     38 0.10440000   -2.160 -1.00606  7.28096
    39      1     39 0.08420000   -1.933 -2.60007  4.67946
    40      1     40 0.08420000   -3.274 -2.68484  5.83820
    41      1     41 0.08420000   -1.656 -3.19705  6.31444
    42      1     42 0.10050000   -0.015 -0.88480  5.09898
    43      1     43 0.10050000    0.139 -1.64901  6.66260
    44      1     44 0.12760000   -0.276  1.35640  6.21415
    45      1     45 0.12760000    1.239  0.55025  6.57989

Bonds 

     1      1      2      1
     2      2      3      2
     3      3      4      3
     4      4      5      4
     5      5      6      4
     6      6      7      6
     7      7      8      6
     8      8      9      8
     9      9     10      9
    10     10     11      9
    11     11     12     11
    12     12     13     11
    13     13     14     13
    14     14     15     14
    15     15     16     15
    16     16     17      1
    17     17     18      1
    18     18     19      1
    19     19     20      2
    20     20     21      2
    21     21     22      3
    22     22     23      3
    23     23     24      4
    24     24     25      5
    25     25     26      5
    26     26     27      5
    27     27     28      6
    28     28     29      7
    29     29     30      7
    30     30     31      7
    31     31     32      8
    32     32     33      8
    33     33     34      9
    34     34     35     10
    35     35     36     10
    36     36     37     10
    37     37     38     11
    38     38     39     12
    39     39     40     12
    40     40     41     12
    41     41     42     13
    42     42     43     13
    43     43     44     14
    44     44     45     14

Angles 

     1      1      1      2      3
     2      2      2      3      4
     3      3      3      4      5
     4      4      3      4      6
     5      5      4      6      7
     6      6      4      6      8
     7      7      6      8      9
     8      8      8      9     10
     9      9      8      9     11
    10     10      9     11     12
    11     11      9     11     13
    12     12     11     13     14
    13     13     13     14     15
    14     14     14     15     16
    15     15      2      1     17
    16     16      2      1     18
    17     17      2      1     19
    18     18      1      2     20
    19     19      1      2     21
    20     20      2      3     22
    21     21      2      3     23
    22     22      3      4     24
    23     23      4      5     25
    24     24      4      5     26
    25     25      4      5     27
    26     26      4      6     28
    27     27      6      7     29
    28     28      6      7     30
    29     29      6      7     31
    30     30      6      8     32
    31     31      6      8     33
    32     32      8      9     34
    33     33      9     10     35
    34     34      9     10     36
    35     35      9     10     37
    36     36      9     11     38
    37     37     11     12     39
    38     38     11     12     40
    39     39     11     12     41
    40     40     11     13     42
    41     41     11     13     43
    42     42     13     14     44
    43     43     13     14     45
    44     44      6      4     24
    45     45      5      4      6
    46     46      3      2     20
    47     47      9      8     33
    48     48      3      2     21
    49     49     40     12     41
    50     50      5      4     24
    51     51     14     13     43
    52     52     39     12     40
    53     53      4      3     22
    54     54     39     12     41
    55     55      7      6     28
    56     56     10      9     11
    57     57     10      9     34
    58     58     29      7     30
    59     59     44     14     45
    60     60     29      7     31
    61     61      4      3     23
    62     62     17      1     18
    63     63     14     13     42
    64     64     18      1     19
    65     65     42     13     43
    66     66     26      5     27
    67     67     17      1     19
    68     68      9      8     32
    69     69     25      5     26
    70     70     32      8     33
    71     71     35     10     37
    72     72     15     14     44
    73     73      7      6      8
    74     74     13     11     38
    75     75     30      7     31
    76     76     20      2     21
    77     77     22      3     23
    78     78     11      9     34
    79     79     12     11     13
    80     80      8      6     28
    81     81     35     10     36
    82     82     12     11     38
    83     83     15     14     45
    84     84     25      5     27
    85     85     36     10     37

Dihedrals

     1      1      4      3      2      1 
     2      2      5      4      3      2 
     3      3      7      6      4      3 
     4      4      9      8      6      4 
     5      5     10      9      8      6 
     6      6     12     11      9      8 
     7      7     14     13     11      9 
     8      8     15     14     13     11 
     9      9     16     15     14     13 
    10     10     17      1      2      3 
    11     11     25      5      4      3 
    12     12     29      7      6      4 
    13     13     35     10      9      8 
    14     14     39     12     11      9 
    15     15     35     10      9     11 
    16     16     28      6      4      5 
    17     17     40     12     11      9 
    18     18     33      8      6      4 
    19     19     42     13     11      9 
    20     20     28      6      8      9 
    21     21     32      8      6     28 
    22     22     21      2      1     17 
    23     23     20      2      1     18 
    24     24     24      4      3     23 
    25     25     11      9      8      6 
    26     26      8      6      4      5 
    27     27     19      1      2      3 
    28     28     13     11      9     10 
    29     29     23      3      2     20 
    30     30     22      3      2     21 
    31     31     43     13     11     38 
    32     32     34      9     11     13 
    33     33     31      7      6      4 
    34     34     25      5      4      6 
    35     35     29      7      6     28 
    36     36     34      9      8      6 
    37     37     22      3      4      6 
    38     38     23      3      4      5 
    39     39     42     13     11     12 
    40     40     32      8      6      7 
    41     41     34      9      8     32 
    42     42     33      8      6      7 
    43     43     37     10      9     11 
    44     44     38     11      9     10 
    45     45      9      8      6      7 
    46     46     45     14     13     11 
    47     47     44     14     15     16 
    48     48     33      8      6     28 
    49     49     39     12     11     38 
    50     50     34      9     11     12 
    51     51     26      5      4     24 
    52     52      6      4      3      2 
    53     53     28      6      4     24 
    54     54     38     11      9      8 
    55     55     31      7      6     28 
    56     56     30      7      6      8 
    57     57     34      9      8     33 
    58     58     40     12     11     13 
    59     59     45     14     13     43 
    60     60     36     10      9     11 
    61     61     41     12     11      9 
    62     62     20      2      1     19 
    63     63     21      2      1     18 
    64     64     38     11     13     14 
    65     65     32      8      9     10 
    66     66     13     11      9      8 
    67     67     25      5      4     24 
    68     68     24      4      3     22 
    69     69     44     14     13     11 
    70     70     27      5      4      6 
    71     71     41     12     11     38 
    72     72     18      1      2      3 
    73     73     45     14     13     42 
    74     74     44     14     13     43 
    75     75     37     10      9      8 
    76     76     23      3      2     21 
    77     77     37     10      9     34 
    78     78     23      3      4      6 
    79     79     45     14     15     16 
    80     80     14     13     11     12 
    81     81     35     10      9     34 
    82     82     20      2      1     17 
    83     83     22      3      2     20 
    84     84     24      4      6      8 
    85     85     31      7      6      8 
    86     86     29      7      6      8 
    87     87     24      4      3      2 
    88     88     36     10      9      8 
    89     89     39     12     11     13 
    90     90     12     11      9     10 
    91     91     36     10      9     34 
    92     92     44     14     13     42 
    93     93     33      8      9     11 
    94     94     23      3      2      1 
    95     95     20      2      3      4 
    96     96     26      5      4      3 
    97     97     43     13     11      9 
    98     98     21      2      3      4 
    99     99     28      6      4      3 
   100    100     24      4      6      7 
   101    101      8      6      4      3 
   102    102     32      8      6      4 
   103    103     26      5      4      6 
   104    104     42     13     11     38 
   105    105     22      3      2      1 
   106    106     30      7      6      4 
   107    107     27      5      4      3 
   108    108     21      2      1     19 
   109    109     43     13     11     12 
   110    110     42     13     14     15 
   111    111     38     11      9     34 
   112    112     22      3      4      5 
   113    113     40     12     11     38 
   114    114     33      8      9     10 
   115    115     32      8      9     11 
   116    116     27      5      4     24 
   117    117     43     13     14     15 
   118    118     41     12     11     13 
   119    119     30      7      6     28 
   120    120      7      6      4      5 

Impropers

     1      1      4      3      5      6 
     2      2      6      4      7      8 
     3      3      9     10     11      8 
     4      4     11      9     12     13 
     5      5      1     18     17      2 
     6      6      1      2     19     17 
     7      7      2      1      3     20 
     8      8      2      1      3     21 
     9      9      3      2      4     22 
    10     10      3      2      4     23 
    11     11      4      3      5     24 
    12     12      5     25     26      4 
    13     13      5     25     27      4 
    14     14      6      4     28      7 
    15     15      7     29     30      6 
    16     16      7     29     31      6 
    17     17      8      9      6     32 
    18     18      8     33      9      6 
    19     19      9     34     10      8 
    20     20     10      9     35     36 
    21     21     10      9     35     37 
    22     22     11      9     12     38 
    23     23     12     11     39     40 
    24     24     12     41     11     39 
    25     25     13     42     11     14 
    26     26     13     43     11     14 
    27     27     14     44     13     15 
    28     28     14     13     45     15 

