LAMMPS data file Created by LigParGen - (Written by Leela S. Dodda)

      37 atoms
      36 bonds
      69 angles
      93 dihedrals
      23 impropers
 
      37 atom types
      36 bond types
      69 angle types
      93 dihedral types
      23 improper types
 
  -10.748730    39.251270 xlo xhi
   -0.458910    49.541090 ylo yhi
   -1.026660    48.973340 zlo zhi

Masses

       1     12.011  
       2     12.011  
       3     12.011  
       4     12.011  
       5     12.011  
       6     12.011  
       7     12.011  
       8     12.011  
       9     12.011  
      10     12.011  
      11     30.974  
      12     12.011  
      13      1.008  
      14      1.008  
      15      1.008  
      16      1.008  
      17      1.008  
      18      1.008  
      19      1.008  
      20      1.008  
      21      1.008  
      22      1.008  
      23      1.008  
      24      1.008  
      25      1.008  
      26      1.008  
      27      1.008  
      28      1.008  
      29      1.008  
      30      1.008  
      31      1.008  
      32      1.008  
      33      1.008  
      34      1.008  
      35      1.008  
      36      1.008  
      37      1.008  

Pair Coeffs 

       1      0.066  3.5000000 
       2      0.066  3.5000000 
       3      0.066  3.5000000 
       4      0.066  3.5000000 
       5      0.066  3.5000000 
       6      0.066  3.5000000 
       7      0.066  3.5000000 
       8      0.066  3.5000000 
       9      0.066  3.5000000 
      10      0.066  3.5000000 
      11      0.200  3.7400000 
      12      0.066  3.5000000 
      13      0.030  2.5000000 
      14      0.030  2.5000000 
      15      0.030  2.5000000 
      16      0.030  2.5000000 
      17      0.030  2.5000000 
      18      0.030  2.5000000 
      19      0.030  2.5000000 
      20      0.030  2.5000000 
      21      0.030  2.5000000 
      22      0.030  2.5000000 
      23      0.030  2.5000000 
      24      0.030  2.5000000 
      25      0.030  2.5000000 
      26      0.030  2.5000000 
      27      0.030  2.5000000 
      28      0.030  2.5000000 
      29      0.030  2.5000000 
      30      0.030  2.5000000 
      31      0.030  2.5000000 
      32      0.030  2.5000000 
      33      0.030  2.5000000 
      34      0.000  0.0000000 
      35      0.030  2.5000000 
      36      0.030  2.5000000 
      37      0.030  2.5000000 

Bond Coeffs 

       1   268.0000     1.5290 
       2   268.0000     1.5290 
       3   268.0000     1.5290 
       4   268.0000     1.5290 
       5   268.0000     1.5290 
       6   268.0000     1.5290 
       7   268.0000     1.5290 
       8   268.0000     1.5290 
       9   268.0000     1.5290 
      10   212.0000     1.8430 
      11   212.0000     1.8430 
      12   340.0000     1.0900 
      13   340.0000     1.0900 
      14   340.0000     1.0900 
      15   340.0000     1.0900 
      16   340.0000     1.0900 
      17   340.0000     1.0900 
      18   340.0000     1.0900 
      19   340.0000     1.0900 
      20   340.0000     1.0900 
      21   340.0000     1.0900 
      22   340.0000     1.0900 
      23   340.0000     1.0900 
      24   340.0000     1.0900 
      25   340.0000     1.0900 
      26   340.0000     1.0900 
      27   340.0000     1.0900 
      28   340.0000     1.0900 
      29   340.0000     1.0900 
      30   340.0000     1.0900 
      31   340.0000     1.0900 
      32   340.0000     1.0900 
      33   256.7000     1.3100 
      34   340.0000     1.0900 
      35   340.0000     1.0900 
      36   340.0000     1.0900 

Angle Coeffs 

       1     58.350    112.700
       2     58.350    112.700
       3     58.350    112.700
       4     58.350    112.700
       5     58.350    112.700
       6     58.350    112.700
       7     58.350    112.700
       8     58.350    112.700
       9     43.000    109.500
      10     62.000     98.900
      11     37.500    110.700
      12     37.500    110.700
      13     37.500    110.700
      14     37.500    110.700
      15     37.500    110.700
      16     37.500    110.700
      17     37.500    110.700
      18     37.500    110.700
      19     37.500    110.700
      20     37.500    110.700
      21     37.500    110.700
      22     37.500    110.700
      23     37.500    110.700
      24     37.500    110.700
      25     37.500    110.700
      26     37.500    110.700
      27     37.500    110.700
      28     37.500    110.700
      29     37.500    110.700
      30     37.500    110.700
      31     37.500    110.700
      32     63.570    108.400
      33     41.000    109.500
      34     41.000    109.500
      35     41.000    109.500
      36     37.500    110.700
      37     37.500    110.700
      38     37.500    110.700
      39     37.500    110.700
      40     33.000    107.800
      41     37.500    110.700
      42     37.500    110.700
      43     33.000    107.800
      44     33.000    107.800
      45     37.500    110.700
      46     33.000    107.800
      47     37.500    110.700
      48     33.000    107.800
      49     37.500    110.700
      50     33.000    107.800
      51     37.500    110.700
      52     33.000    107.800
      53     33.000    107.800
      54     37.500    110.700
      55     37.500    110.700
      56     33.000    107.800
      57     41.000    109.500
      58     33.000    107.800
      59     33.000    107.800
      60     33.000    107.800
      61     63.570    108.400
      62     37.500    110.700
      63     43.000    109.500
      64     33.000    107.800
      65     37.500    110.700
      66     33.000    107.800
      67     37.500    110.700
      68     33.000    107.800
      69     33.000    107.800

Dihedral Coeffs  

       1      1.300     -0.200      0.200      0.000 
       2      1.300     -0.200      0.200      0.000 
       3      1.300     -0.200      0.200      0.000 
       4      1.300     -0.200      0.200      0.000 
       5      1.300     -0.200      0.200      0.000 
       6      1.300     -0.200      0.200      0.000 
       7      1.300     -0.200      0.200      0.000 
       8      1.000     -0.500      0.500      0.000 
       9      0.000      0.000      0.300      0.000 
      10      0.000      0.000      0.300      0.000 
      11      0.000      0.000      0.300      0.000 
      12      0.000      0.000      0.300      0.000 
      13      0.000      0.000      0.300      0.000 
      14      0.000      0.000      0.300      0.000 
      15      0.000      0.000      0.300      0.000 
      16      0.000      0.000      0.300      0.000 
      17      0.000      0.000      0.300      0.000 
      18      0.000      0.000      0.300      0.000 
      19      0.000      0.000      0.300      0.000 
      20      0.000      0.000      0.300      0.000 
      21      0.000      0.000      0.300      0.000 
      22      0.000      0.000      0.300      0.000 
      23      0.000      0.000      0.300      0.000 
      24      0.845     -0.962      0.713      0.000 
      25      0.000      0.000      0.300      0.000 
      26      0.000      0.000      0.300      0.000 
      27      0.000      0.000      0.300      0.000 
      28      0.000      0.000      0.300      0.000 
      29      0.000      0.000      0.300      0.000 
      30      0.000      0.000      0.300      0.000 
      31      0.000      0.000      0.300      0.000 
      32      0.000      0.000      0.300      0.000 
      33      0.000      0.000      0.300      0.000 
      34      0.000      0.000      0.300      0.000 
      35      0.000      0.000      0.300      0.000 
      36      0.000      0.000      0.300      0.000 
      37      0.000      0.000      0.300      0.000 
      38      0.000      0.000      0.300      0.000 
      39      0.000      0.000      0.300      0.000 
      40      0.000      0.000      0.000      0.000 
      41      0.000      0.000      0.300      0.000 
      42      0.000      0.000      0.300      0.000 
      43      0.000      0.000      0.300      0.000 
      44      0.000      0.000      0.300      0.000 
      45      0.000      0.000      0.300      0.000 
      46      0.000      0.000      0.300      0.000 
      47      0.000      0.000      0.000      0.000 
      48      0.000      0.000      0.300      0.000 
      49      0.000      0.000      0.300      0.000 
      50      0.000      0.000      0.300      0.000 
      51      0.000      0.000      0.300      0.000 
      52      0.000      0.000      0.300      0.000 
      53      0.000      0.000      0.300      0.000 
      54      0.000      0.000      0.300      0.000 
      55      0.000      0.000      0.300      0.000 
      56      0.000      0.000      0.300      0.000 
      57      0.000      0.000      0.300      0.000 
      58      0.000      0.000      0.300      0.000 
      59      0.000      0.000      0.300      0.000 
      60      0.000      0.000      0.300      0.000 
      61      0.000      0.000      0.300      0.000 
      62      0.000      0.000      0.300      0.000 
      63      0.000      0.000      0.300      0.000 
      64      0.000      0.000      0.300      0.000 
      65      0.000      0.000      0.300      0.000 
      66      0.000      0.000      0.300      0.000 
      67      0.000      0.000      0.300      0.000 
      68      0.000      0.000      0.300      0.000 
      69      0.000      0.000      0.300      0.000 
      70      0.000      0.000      0.000      0.000 
      71      0.000      0.000      0.300      0.000 
      72      0.000      0.000      0.300      0.000 
      73      0.000      0.000      0.300      0.000 
      74      0.000      0.000      0.300      0.000 
      75      0.000      0.000      0.300      0.000 
      76      0.000      0.000      0.300      0.000 
      77      0.000      0.000      0.300      0.000 
      78      0.000      0.000      0.300      0.000 
      79      0.000      0.000      0.000      0.000 
      80      0.000      0.000      0.300      0.000 
      81      0.000      0.000      0.300      0.000 
      82      0.000      0.000      0.300      0.000 
      83      0.000      0.000      0.300      0.000 
      84      0.000      0.000      0.300      0.000 
      85      0.000      0.000      0.300      0.000 
      86      0.000      0.000      0.300      0.000 
      87      0.000      0.000      0.300      0.000 
      88      0.000      0.000      0.000      0.000 
      89      0.000      0.000      0.300      0.000 
      90      0.000      0.000      0.300      0.000 
      91      0.000      0.000      0.300      0.000 
      92      1.000     -0.500      0.500      0.000 
      93      0.000      0.000      0.000      0.000 

Improper Coeffs 

       1      0.000      -1       2 
       2      0.000      -1       2 
       3      0.000      -1       2 
       4      0.000      -1       2 
       5      0.000      -1       2 
       6      0.000      -1       2 
       7      0.000      -1       2 
       8      0.000      -1       2 
       9      0.000      -1       2 
      10      0.000      -1       2 
      11      0.000      -1       2 
      12      0.000      -1       2 
      13      0.000      -1       2 
      14      0.000      -1       2 
      15      0.000      -1       2 
      16      0.000      -1       2 
      17      0.000      -1       2 
      18      0.000      -1       2 
      19      0.000      -1       2 
      20      0.000      -1       2 
      21      0.000      -1       2 
      22      0.000      -1       2 
      23      0.000      -1       2 

Atoms 

     1      1      1 -0.23850000    1.000  1.00000  0.00000
     2      1      2 -0.17930000   -0.519  1.00000  0.00000
     3      1      3 -0.17850000   -1.077  1.00000  1.42295
     4      1      4 -0.17850000   -2.607  0.99820  1.42624
     5      1      5 -0.17890000   -3.152  0.99642  2.85459
     6      1      6 -0.17890000   -4.683  0.99280  2.87267
     7      1      7 -0.17870000   -5.212  0.99286  4.30968
     8      1      8 -0.17160000   -6.743  0.99107  4.34584
     9      1      9 -0.20170000   -7.331  0.98926  5.77523
    10      1     10 -0.23320000   -6.893  2.21294  6.58106
    11      1     11 0.14520000   -9.204  0.91639  5.64300
    12      1     12 -0.34800000   -9.691  0.80736  7.40684
    13      1     13 0.08080000    1.379  0.99870 -1.02666
    14      1     14 0.08080000    1.391  0.11239  0.50752
    15      1     15 0.08080000    1.391  1.88836  0.50632
    16      1     16 0.08830000   -0.879  0.11605 -0.54136
    17      1     17 0.08830000   -0.880  1.88237 -0.54182
    18      1     18 0.08900000   -0.710  1.88316  1.95857
    19      1     19 0.08900000   -0.708  0.11801  1.96065
    20      1     20 0.08990000   -2.975  0.11540  0.88851
    21      1     21 0.08990000   -2.975  1.88247  0.89186
    22      1     22 0.08900000   -2.783  1.88329  3.38543
    23      1     23 0.08900000   -2.777  0.11628  3.39109
    24      1     24 0.09100000   -5.056  0.11145  2.33751
    25      1     25 0.09100000   -5.057  1.87858  2.34425
    26      1     26 0.08920000   -4.820  1.88078  4.81666
    27      1     27 0.08920000   -4.830  0.11316  4.84295
    28      1     28 0.09690000   -7.099  0.10562  3.80106
    29      1     29 0.09690000   -7.110  1.86569  3.79200
    30      1     30 0.09080000   -7.000  0.08284  6.29756
    31      1     31 0.08750000   -7.191  3.14659  6.09127
    32      1     32 0.08750000   -5.807  2.23226  6.71552
    33      1     33 0.08750000   -7.322  2.21158  7.58797
    34      1     34 -0.01980000   -9.310 -0.45891  5.32421
    35      1     35 0.09260000   -9.558  1.77108  7.90678
    36      1     36 0.09260000   -9.106  0.05287  7.93996
    37      1     37 0.09260000  -10.749  0.54028  7.48519

Bonds 

     1      1      2      1
     2      2      3      2
     3      3      4      3
     4      4      5      4
     5      5      6      5
     6      6      7      6
     7      7      8      7
     8      8      9      8
     9      9     10      9
    10     10     11      9
    11     11     12     11
    12     12     13      1
    13     13     14      1
    14     14     15      1
    15     15     16      2
    16     16     17      2
    17     17     18      3
    18     18     19      3
    19     19     20      4
    20     20     21      4
    21     21     22      5
    22     22     23      5
    23     23     24      6
    24     24     25      6
    25     25     26      7
    26     26     27      7
    27     27     28      8
    28     28     29      8
    29     29     30      9
    30     30     31     10
    31     31     32     10
    32     32     33     10
    33     33     34     11
    34     34     35     12
    35     35     36     12
    36     36     37     12

Angles 

     1      1      1      2      3
     2      2      2      3      4
     3      3      3      4      5
     4      4      4      5      6
     5      5      5      6      7
     6      6      6      7      8
     7      7      7      8      9
     8      8      8      9     10
     9      9      8      9     11
    10     10      9     11     12
    11     11      2      1     13
    12     12      2      1     14
    13     13      2      1     15
    14     14      1      2     16
    15     15      1      2     17
    16     16      2      3     18
    17     17      2      3     19
    18     18      3      4     20
    19     19      3      4     21
    20     20      4      5     22
    21     21      4      5     23
    22     22      5      6     24
    23     23      5      6     25
    24     24      6      7     26
    25     25      6      7     27
    26     26      7      8     28
    27     27      7      8     29
    28     28      8      9     30
    29     29      9     10     31
    30     30      9     10     32
    31     31      9     10     33
    32     32      9     11     34
    33     33     11     12     35
    34     34     11     12     36
    35     35     11     12     37
    36     36     10      9     30
    37     37      8      7     27
    38     38      7      6     24
    39     39      9      8     28
    40     40     22      5     23
    41     41      6      5     22
    42     42      3      2     17
    43     43     24      6     25
    44     44     32     10     33
    45     45      7      6     25
    46     46     16      2     17
    47     47      4      3     19
    48     48     28      8     29
    49     49      8      7     26
    50     50     36     12     37
    51     51      3      2     16
    52     52     35     12     36
    53     53     26      7     27
    54     54      4      3     18
    55     55      9      8     29
    56     56     35     12     37
    57     57     11      9     30
    58     58     13      1     14
    59     59     14      1     15
    60     60     18      3     19
    61     61     12     11     34
    62     62      5      4     20
    63     63     10      9     11
    64     64     31     10     32
    65     65      6      5     23
    66     66     31     10     33
    67     67      5      4     21
    68     68     13      1     15
    69     69     20      4     21

Dihedrals

     1      1      4      3      2      1 
     2      2      5      4      3      2 
     3      3      6      5      4      3 
     4      4      7      6      5      4 
     5      5      8      7      6      5 
     6      6      9      8      7      6 
     7      7     10      9      8      7 
     8      8     12     11      9      8 
     9      9     13      1      2      3 
    10     10     31     10      9      8 
    11     11     35     12     11      9 
    12     12     28      8      9     10 
    13     13     25      6      7      8 
    14     14     24      6      5     22 
    15     15     29      8      9     11 
    16     16     32     10      9     11 
    17     17     26      7      6     25 
    18     18     27      7      6     24 
    19     19     20      4      3     18 
    20     20     36     12     11      9 
    21     21     16      2      1     13 
    22     22     18      3      2     17 
    23     23     19      3      2     16 
    24     24     11      9      8      7 
    25     25     23      5      6      7 
    26     26     30      9      8      7 
    27     27     29      8      7     27 
    28     28     17      2      3      4 
    29     29     16      2      3      4 
    30     30     23      5      4     20 
    31     31     27      7      8      9 
    32     32     19      3      2      1 
    33     33     25      6      5     23 
    34     34     28      8      7     26 
    35     35     33     10      9     30 
    36     36     32     10      9      8 
    37     37     21      4      3     19 
    38     38     32     10      9     30 
    39     39     17      2      1     15 
    40     40     34     11      9      8 
    41     41     22      5      4      3 
    42     42     23      5      4     21 
    43     43     30      9      8     29 
    44     44     17      2      1     13 
    45     45     26      7      6     24 
    46     46     16      2      1     14 
    47     47     35     12     11     34 
    48     48     28      8      7     27 
    49     49     29      8      7     26 
    50     50     18      3      2     16 
    51     51     30      9     11     12 
    52     52     18      3      2      1 
    53     53     23      5      4      3 
    54     54     14      1      2      3 
    55     55     20      4      5      6 
    56     56     21      4      3      2 
    57     57     31     10      9     11 
    58     58     18      3      4      5 
    59     59     30      9      8     28 
    60     60     29      8      9     10 
    61     61     28      8      9     11 
    62     62     24      6      5      4 
    63     63     22      5      4     21 
    64     64     22      5      6      7 
    65     65     33     10      9      8 
    66     66     20      4      3      2 
    67     67     33     10      9     11 
    68     68     24      6      5     23 
    69     69     25      6      5     22 
    70     70     37     12     11     34 
    71     71     27      7      6     25 
    72     72     15      1      2      3 
    73     73     27      7      6      5 
    74     74     24      6      7      8 
    75     75     25      6      5      4 
    76     76     22      5      4     20 
    77     77     29      8      7      6 
    78     78     26      7      8      9 
    79     79     36     12     11     34 
    80     80     19      3      2     17 
    81     81     20      4      3     19 
    82     82     21      4      3     18 
    83     83     21      4      5      6 
    84     84     19      3      4      5 
    85     85     26      7      6      5 
    86     86     37     12     11      9 
    87     87     31     10      9     30 
    88     88     34     11      9     30 
    89     89     28      8      7      6 
    90     90     16      2      1     15 
    91     91     17      2      1     14 
    92     92     12     11      9     10 
    93     93     34     11      9     10 

Impropers

     1      1      9     10     11      8 
     2      2      1      2     13     14 
     3      3      1      2     13     15 
     4      4      2      1      3     16 
     5      5      2     17      3      1 
     6      6      3     18      4      2 
     7      7      3      2     19      4 
     8      8      4      3     20      5 
     9      9      4      5      3     21 
    10     10      5      4     22      6 
    11     11      5      4      6     23 
    12     12      6      5      7     24 
    13     13      6     25      5      7 
    14     14      7     26      6      8 
    15     15      7     27      6      8 
    16     16      8      9     28      7 
    17     17      8      9     29      7 
    18     18      9     10     30      8 
    19     19     10      9     31     32 
    20     20     10     33     31      9 
    21     21     11      9     34     12 
    22     22     12     11     36     35 
    23     23     12     11     37     35 

