LAMMPS data file Created by LigParGen - (Written by Leela S. Dodda)

      33 atoms
      33 bonds
      63 angles
      93 dihedrals
      20 impropers
 
      33 atom types
      33 bond types
      63 angle types
      93 dihedral types
      20 improper types
 
   -5.767650    44.232350 xlo xhi
   -2.335740    47.664260 ylo yhi
   -5.077060    44.922940 zlo zhi

Masses

       1     12.011  
       2     12.011  
       3     15.999  
       4     12.011  
       5     12.011  
       6     12.011  
       7     12.011  
       8     15.999  
       9     12.011  
      10     12.011  
      11     12.011  
      12     12.011  
      13     15.999  
      14     12.011  
      15     12.011  
      16      1.008  
      17      1.008  
      18      1.008  
      19      1.008  
      20      1.008  
      21      1.008  
      22      1.008  
      23      1.008  
      24      1.008  
      25      1.008  
      26      1.008  
      27      1.008  
      28      1.008  
      29      1.008  
      30      1.008  
      31      1.008  
      32      1.008  
      33      1.008  

Pair Coeffs 

       1      0.066  3.5000000 
       2      0.070  3.5500000 
       3      0.210  2.9600000 
       4      0.066  3.5000000 
       5      0.066  3.5000000 
       6      0.066  3.5000000 
       7      0.070  3.5500000 
       8      0.210  2.9600000 
       9      0.066  3.5000000 
      10      0.066  3.5000000 
      11      0.066  3.5000000 
      12      0.070  3.5500000 
      13      0.210  2.9600000 
      14      0.066  3.5000000 
      15      0.066  3.5000000 
      16      0.030  2.5000000 
      17      0.030  2.5000000 
      18      0.030  2.5000000 
      19      0.030  2.5000000 
      20      0.030  2.5000000 
      21      0.030  2.5000000 
      22      0.030  2.5000000 
      23      0.030  2.5000000 
      24      0.030  2.5000000 
      25      0.030  2.5000000 
      26      0.030  2.5000000 
      27      0.030  2.5000000 
      28      0.030  2.5000000 
      29      0.030  2.5000000 
      30      0.030  2.5000000 
      31      0.030  2.5000000 
      32      0.030  2.5000000 
      33      0.030  2.5000000 

Bond Coeffs 

       1   317.0000     1.5220 
       2   570.0000     1.2290 
       3   317.0000     1.5220 
       4   268.0000     1.5290 
       5   268.0000     1.5290 
       6   317.0000     1.5220 
       7   570.0000     1.2290 
       8   317.0000     1.5220 
       9   268.0000     1.5290 
      10   268.0000     1.5290 
      11   317.0000     1.5220 
      12   570.0000     1.2290 
      13   268.0000     1.5290 
      14   268.0000     1.5290 
      15   340.0000     1.0900 
      16   340.0000     1.0900 
      17   340.0000     1.0900 
      18   340.0000     1.0900 
      19   340.0000     1.0900 
      20   340.0000     1.0900 
      21   340.0000     1.0900 
      22   340.0000     1.0900 
      23   340.0000     1.0900 
      24   340.0000     1.0900 
      25   340.0000     1.0900 
      26   340.0000     1.0900 
      27   340.0000     1.0900 
      28   340.0000     1.0900 
      29   340.0000     1.0900 
      30   340.0000     1.0900 
      31   340.0000     1.0900 
      32   340.0000     1.0900 
      33   268.0000     1.5290 

Angle Coeffs 

       1     80.000    120.400
       2     70.000    116.000
       3     63.000    111.100
       4     58.350    112.700
       5     63.000    111.100
       6     80.000    120.400
       7     70.000    116.000
       8     63.000    111.100
       9     58.350    112.700
      10     63.000    111.100
      11     80.000    120.400
      12     58.350    112.700
      13     58.350    112.700
      14     35.000    109.500
      15     35.000    109.500
      16     35.000    109.500
      17     35.000    109.500
      18     35.000    109.500
      19     37.500    110.700
      20     37.500    110.700
      21     37.500    110.700
      22     35.000    109.500
      23     35.000    109.500
      24     37.500    110.700
      25     37.500    110.700
      26     37.500    110.700
      27     35.000    115.000
      28     37.500    110.700
      29     37.500    110.700
      30     37.500    110.700
      31     37.500    110.700
      32     33.000    107.800
      33     33.000    107.800
      34     33.000    107.800
      35     33.000    107.800
      36     58.350    112.700
      37     33.000    107.800
      38     33.000    107.800
      39     35.000    123.000
      40     58.350    112.700
      41     80.000    120.400
      42     33.000    107.800
      43     58.350    112.700
      44     58.350    112.700
      45     37.500    110.700
      46     63.000    111.100
      47     80.000    120.400
      48     37.500    110.700
      49     37.500    110.700
      50     33.000    107.800
      51     33.000    107.800
      52     37.500    110.700
      53     37.500    110.700
      54     37.500    110.700
      55     33.000    107.800
      56     37.500    110.700
      57     33.000    107.800
      58     35.000    109.500
      59     37.500    110.700
      60     63.000    111.100
      61     33.000    107.800
      62     37.500    110.700
      63     63.000    111.100

Dihedral Coeffs  

       1      1.454     -0.144     -0.775      0.000 
       2     -2.060     -0.313      0.315      0.000 
       3      0.000      0.000      0.000      0.000 
       4      1.454     -0.144     -0.775      0.000 
       5     -2.060     -0.313      0.315      0.000 
       6     -2.060     -0.313      0.315      0.000 
       7      0.000      0.000      0.000      0.000 
       8      0.000      0.000      0.000      0.000 
       9      0.000      0.000      0.300      0.000 
      10      0.000      0.000      0.300      0.000 
      11     -2.060     -0.313      0.315      0.000 
      12      0.000      0.000      0.000      0.000 
      13      0.000      0.000      0.300      0.000 
      14     -2.060     -0.313      0.315      0.000 
      15      0.000      0.000      0.000      0.000 
      16      0.000      0.000      0.300      0.000 
      17      0.000      0.000     -0.100      0.000 
      18      1.300     -0.200      0.200      0.000 
      19      0.000      0.000      0.275      0.000 
      20      0.000      0.000      0.300      0.000 
      21      1.300     -0.200      0.200      0.000 
      22      0.000      0.000      0.275      0.000 
      23      0.000      0.000      0.300      0.000 
      24      0.000      0.000      0.300      0.000 
      25      0.000      0.000      0.360      0.000 
      26      0.000      0.000      0.300      0.000 
      27      0.000      0.000     -0.100      0.000 
      28      0.000      0.000      0.000      0.000 
      29      0.000      0.000     -0.100      0.000 
      30      0.000      0.000      0.300      0.000 
      31      0.000      0.000      0.300      0.000 
      32      1.454     -0.144     -0.775      0.000 
      33      0.000      0.000      0.000      0.000 
      34      1.300     -0.200      0.200      0.000 
      35      0.000      0.000      0.300      0.000 
      36      0.000      0.000      0.000      0.000 
      37      0.000      0.000     -0.100      0.000 
      38      0.000      0.000      0.000      0.000 
      39      0.000      0.000      0.000      0.000 
      40      0.000      0.000      0.300      0.000 
      41      0.000      0.000      0.300      0.000 
      42      0.000      0.000      0.300      0.000 
      43      0.000      0.000      0.300      0.000 
      44      0.000      0.000      0.000      0.000 
      45      0.000      0.000      0.300      0.000 
      46      0.000      0.000      0.300      0.000 
      47      1.300     -0.200      0.200      0.000 
      48     -2.060     -0.313      0.315      0.000 
      49      0.000      0.000      0.300      0.000 
      50     -2.060     -0.313      0.315      0.000 
      51      0.000      0.000     -0.100      0.000 
      52      0.000      0.000      0.300      0.000 
      53      0.000      0.000      0.000      0.000 
      54      0.000      0.000      0.000      0.000 
      55      0.000      0.000      0.275      0.000 
      56     -0.550      0.000      1.000      0.000 
      57      0.000      0.000      0.300      0.000 
      58      0.000      0.000     -0.100      0.000 
      59      0.000      0.000      0.300      0.000 
      60      0.000      0.000      0.300      0.000 
      61      0.000      0.000      0.300      0.000 
      62      0.000      0.000      0.300      0.000 
      63      0.000      0.000      0.300      0.000 
      64      0.000      0.000     -0.100      0.000 
      65      0.000      0.000      0.300      0.000 
      66      0.000      0.000      0.300      0.000 
      67      0.000      0.000      0.000      0.000 
      68      1.300     -0.200      0.200      0.000 
      69      1.300     -0.200      0.200      0.000 
      70      0.000      0.000      0.300      0.000 
      71      0.000      0.000      0.300      0.000 
      72      0.000      0.000     -0.100      0.000 
      73      0.000      0.000      0.300      0.000 
      74      0.000      0.000      0.275      0.000 
      75      0.000      0.000      0.000      0.000 
      76      0.000      0.000      0.300      0.000 
      77      0.000      0.000      0.300      0.000 
      78      1.454     -0.144     -0.775      0.000 
      79      0.000      0.000      0.300      0.000 
      80      0.000      0.000      0.275      0.000 
      81      0.000      0.000      0.000      0.000 
      82     -2.060     -0.313      0.315      0.000 
      83      0.000      0.000      0.000      0.000 
      84      0.000      0.000      0.300      0.000 
      85      0.000      0.000      0.300      0.000 
      86      0.000      0.000     -0.100      0.000 
      87      0.000      0.000      0.275      0.000 
      88      0.000      0.000     -0.100      0.000 
      89      1.300     -0.200      0.200      0.000 
      90      0.000      0.000      0.275      0.000 
      91      0.000      0.000      0.300      0.000 
      92      1.454     -0.144     -0.775      0.000 
      93      0.000      0.000     -0.100      0.000 

Improper Coeffs 

       1     10.500      -1       2 
       2      0.000      -1       2 
       3     10.500      -1       2 
       4      0.000      -1       2 
       5      0.000      -1       2 
       6      0.000      -1       2 
       7      0.000      -1       2 
       8      0.000      -1       2 
       9      0.000      -1       2 
      10      0.000      -1       2 
      11      0.000      -1       2 
      12      0.000      -1       2 
      13      0.000      -1       2 
      14      0.000      -1       2 
      15      0.000      -1       2 
      16      0.000      -1       2 
      17     10.500      -1       2 
      18      0.000      -1       2 
      19      0.000      -1       2 
      20      0.000      -1       2 

Atoms 

     1      1      1 -0.29920000    1.000  1.00000  0.00000
     2      1      2 0.36510000   -0.508  1.00000  0.00000
     3      1      3 -0.43890000   -1.153  1.00000  1.04784
     4      1      4 -0.22760000   -1.215  1.00170 -1.34439
     5      1      5 -0.06800000   -1.757 -0.36895 -1.82524
     6      1      6 -0.23130000   -0.569 -1.33035 -2.04327
     7      1      7 0.38150000   -2.709 -0.96880 -0.77238
     8      1      8 -0.43420000   -2.400 -1.95757 -0.10687
     9      1      9 -0.23010000   -4.050 -0.29207 -0.58126
    10      1     10 -0.15990000   -4.772 -0.10594 -1.90953
    11      1     11 -0.19170000   -3.881  0.56704 -2.95620
    12      1     12 0.31820000   -4.598  0.75646 -4.28302
    13      1     13 -0.43270000   -5.768  0.45469 -4.48597
    14      1     14 -0.08670000   -2.567 -0.17170 -3.16317
    15      1     15 -0.24430000   -2.816 -1.49755 -3.91378
    16      1     16 0.11950000    1.365  1.13799  1.02197
    17      1     17 0.11950000    1.365  1.82992 -0.61025
    18      1     18 0.11950000    1.383  0.05545 -0.38411
    19      1     19 0.11520000   -0.534  1.42615 -2.09230
    20      1     20 0.11520000   -2.019  1.73648 -1.23043
    21      1     21 0.09640000    0.012 -1.47054 -1.12706
    22      1     22 0.09640000    0.104 -0.95699 -2.82199
    23      1     23 0.09640000   -0.901 -2.33574 -2.32469
    24      1     24 0.13330000   -3.889  0.66867 -0.08303
    25      1     25 0.13330000   -4.664 -0.91099  0.08245
    26      1     26 0.11310000   -5.675  0.49500 -1.74388
    27      1     27 0.11310000   -5.119 -1.07866 -2.27890
    28      1     28 0.12280000   -3.675  1.59162 -2.62324
    29      1     29 0.10730000   -4.000  1.24050 -5.07706
    30      1     30 0.09810000   -1.957  0.44709 -3.83754
    31      1     31 0.09360000   -3.313 -2.24001 -3.28176
    32      1     32 0.09360000   -1.876 -1.92910 -4.27086
    33      1     33 0.09360000   -3.434 -1.34640 -4.80415

Bonds 

     1      1      2      1
     2      2      3      2
     3      3      4      2
     4      4      5      4
     5      5      6      5
     6      6      7      5
     7      7      8      7
     8      8      9      7
     9      9     10      9
    10     10     11     10
    11     11     12     11
    12     12     13     12
    13     13     14      5
    14     14     15     14
    15     15     16      1
    16     16     17      1
    17     17     18      1
    18     18     19      4
    19     19     20      4
    20     20     21      6
    21     21     22      6
    22     22     23      6
    23     23     24      9
    24     24     25      9
    25     25     26     10
    26     26     27     10
    27     27     28     11
    28     28     29     12
    29     29     30     14
    30     30     31     15
    31     31     32     15
    32     32     33     15
    33     33     14     11

Angles 

     1      1      1      2      3
     2      2      1      2      4
     3      3      2      4      5
     4      4      4      5      6
     5      5      4      5      7
     6      6      5      7      8
     7      7      5      7      9
     8      8      7      9     10
     9      9      9     10     11
    10     10     10     11     12
    11     11     11     12     13
    12     12      4      5     14
    13     13      5     14     15
    14     14      2      1     16
    15     15      2      1     17
    16     16      2      1     18
    17     17      2      4     19
    18     18      2      4     20
    19     19      5      6     21
    20     20      5      6     22
    21     21      5      6     23
    22     22      7      9     24
    23     23      7      9     25
    24     24      9     10     26
    25     25      9     10     27
    26     26     10     11     28
    27     27     11     12     29
    28     28      5     14     30
    29     29     14     15     31
    30     30     14     15     32
    31     31     14     15     33
    32     32     24      9     25
    33     33     21      6     22
    34     34     32     15     33
    35     35     21      6     23
    36     36      6      5     14
    37     37     16      1     17
    38     38     16      1     18
    39     39     13     12     29
    40     40     11     14     15
    41     41      8      7      9
    42     42     19      4     20
    43     43     10     11     14
    44     44      5     14     11
    45     45     11     10     27
    46     46      6      5      7
    47     47      3      2      4
    48     48      5      4     19
    49     49     10      9     25
    50     50     31     15     32
    51     51     31     15     33
    52     52     11     10     26
    53     53      5      4     20
    54     54     15     14     30
    55     55     17      1     18
    56     56     10      9     24
    57     57     22      6     23
    58     58     12     11     28
    59     59     14     11     28
    60     60     12     11     14
    61     61     26     10     27
    62     62     11     14     30
    63     63      7      5     14

Dihedrals

     1      1      5      4      2      1 
     2      2      6      5      4      2 
     3      3      8      7      5      4 
     4      4     10      9      7      5 
     5      5     11     10      9      7 
     6      6     12     11     10      9 
     7      7     13     12     11     10 
     8      8     16      1      2      3 
     9      9     21      6      5      4 
    10     10     31     15     14      5 
    11     11     12     11     14      5 
    12     12     14     11     12     13 
    13     13     23      6      5      4 
    14     14     15     14     11     12 
    15     15     28     11     12     13 
    16     16     33     15     14      5 
    17     17     26     10     11     12 
    18     18     11     14      5      6 
    19     19     19      4      2      1 
    20     20     22      6      5     14 
    21     21     11     14      5      4 
    22     22     18      1      2      4 
    23     23     22      6      5      4 
    24     24     30     14     11     10 
    25     25     29     12     11     28 
    26     26     33     15     14     30 
    27     27     26     10      9      7 
    28     28     25      9      7      8 
    29     29     23      6      5      7 
    30     30     26     10      9     25 
    31     31     27     10      9     24 
    32     32      9      7      5      6 
    33     33     10      9      7      8 
    34     34     15     14      5      6 
    35     35     28     11     14     15 
    36     36     29     12     11     10 
    37     37     27     10     11     12 
    38     38     14      5      7      8 
    39     39      5      4      2      3 
    40     40     25      9     10     11 
    41     41     21      6      5     14 
    42     42     31     15     14     11 
    43     43     28     11     10     27 
    44     44     29     12     11     14 
    45     45     19      4      5      6 
    46     46     31     15     14     30 
    47     47     10     11     14      5 
    48     48     11     14      5      7 
    49     49     19      4      5     14 
    50     50     15     14      5      7 
    51     51     21      6      5      7 
    52     52     27     10     11     14 
    53     53     18      1      2      3 
    54     54     20      4      2      3 
    55     55     24      9      7      5 
    56     56      7      5      4      2 
    57     57     28     11     10     26 
    58     58     19      4      5      7 
    59     59     20      4      5      6 
    60     60     32     15     14     11 
    61     61     27     10      9     25 
    62     62     32     15     14      5 
    63     63     30     14      5      6 
    64     64     22      6      5      7 
    65     65     24      9     10     11 
    66     66     28     11     10      9 
    67     67     19      4      2      3 
    68     68     15     14     11     10 
    69     69     15     14      5      4 
    70     70     33     15     14     11 
    71     71     23      6      5     14 
    72     72     27     10      9      7 
    73     73     30     14     11     28 
    74     74     16      1      2      4 
    75     75     17      1      2      3 
    76     76     30     14      5      4 
    77     77     26     10     11     14 
    78     78     14      5      7      9 
    79     79     32     15     14     30 
    80     80     25      9      7      5 
    81     81     24      9      7      8 
    82     82     14      5      4      2 
    83     83      8      7      5      6 
    84     84     26     10      9     24 
    85     85     28     11     14      5 
    86     86     30     14     11     12 
    87     87     17      1      2      4 
    88     88     20      4      5      7 
    89     89     14     11     10      9 
    90     90     20      4      2      1 
    91     91     20      4      5     14 
    92     92      9      7      5      4 
    93     93     30     14      5      7 

Impropers

     1      1      2      1      3      4 
     2      2      5      4      6      7 
     3      3      7      9      5      8 
     4      4      5      4     14      6 
     5      5     14     11      5     15 
     6      6      1     17     16      2 
     7      7      1     18     16      2 
     8      8      4      2     19      5 
     9      9      4      2     20      5 
    10     10      6     21      5     22 
    11     11      6     21      5     23 
    12     12      9     10      7     24 
    13     13      9     25      7     10 
    14     14     10      9     26     11 
    15     15     10      9     27     11 
    16     16     11     12     10     28 
    17     17     12     13     11     29 
    18     18     14     11      5     30 
    19     19     15     31     14     32 
    20     20     15     33     31     14 

