LAMMPS data file Created by LigParGen - (Written by Leela S. Dodda)

      37 atoms
      38 bonds
      78 angles
     126 dihedrals
      24 impropers
 
      37 atom types
      38 bond types
      78 angle types
     126 dihedral types
      24 improper types
 
   -8.004030    41.995970 xlo xhi
   -0.790390    49.209610 ylo yhi
   -1.023580    48.976420 zlo zhi

Masses

       1     12.011  
       2     12.011  
       3     12.011  
       4     12.011  
       5     12.011  
       6     12.011  
       7     12.011  
       8     12.011  
       9     12.011  
      10     12.011  
      11     12.011  
      12     35.450  
      13     12.011  
      14     12.011  
      15      1.008  
      16      1.008  
      17      1.008  
      18      1.008  
      19      1.008  
      20      1.008  
      21      1.008  
      22      1.008  
      23      1.008  
      24      1.008  
      25      1.008  
      26      1.008  
      27      1.008  
      28      1.008  
      29      1.008  
      30      1.008  
      31      1.008  
      32      1.008  
      33      1.008  
      34      1.008  
      35      1.008  
      36      1.008  
      37      1.008  

Pair Coeffs 

       1      0.066  3.5000000 
       2      0.066  3.5000000 
       3      0.066  3.5000000 
       4      0.066  3.5000000 
       5      0.066  3.5000000 
       6      0.066  3.5000000 
       7      0.066  3.5000000 
       8      0.066  3.5000000 
       9      0.066  3.5000000 
      10      0.066  3.5000000 
      11      0.066  3.5000000 
      12      0.300  3.4000000 
      13      0.066  3.5000000 
      14      0.066  3.5000000 
      15      0.030  2.5000000 
      16      0.030  2.5000000 
      17      0.030  2.5000000 
      18      0.030  2.5000000 
      19      0.030  2.5000000 
      20      0.030  2.5000000 
      21      0.030  2.5000000 
      22      0.030  2.5000000 
      23      0.030  2.5000000 
      24      0.030  2.5000000 
      25      0.030  2.5000000 
      26      0.030  2.5000000 
      27      0.030  2.5000000 
      28      0.030  2.5000000 
      29      0.030  2.5000000 
      30      0.030  2.5000000 
      31      0.030  2.5000000 
      32      0.030  2.5000000 
      33      0.030  2.5000000 
      34      0.030  2.5000000 
      35      0.030  2.5000000 
      36      0.030  2.5000000 
      37      0.030  2.5000000 

Bond Coeffs 

       1   268.0000     1.5290 
       2   268.0000     1.5290 
       3   268.0000     1.5290 
       4   268.0000     1.5290 
       5   268.0000     1.5290 
       6   268.0000     1.5290 
       7   268.0000     1.5290 
       8   268.0000     1.5290 
       9   268.0000     1.5290 
      10   268.0000     1.5290 
      11   245.0000     1.7810 
      12   268.0000     1.5290 
      13   268.0000     1.5290 
      14   340.0000     1.0900 
      15   340.0000     1.0900 
      16   340.0000     1.0900 
      17   340.0000     1.0900 
      18   340.0000     1.0900 
      19   340.0000     1.0900 
      20   340.0000     1.0900 
      21   340.0000     1.0900 
      22   340.0000     1.0900 
      23   340.0000     1.0900 
      24   340.0000     1.0900 
      25   340.0000     1.0900 
      26   340.0000     1.0900 
      27   340.0000     1.0900 
      28   340.0000     1.0900 
      29   340.0000     1.0900 
      30   340.0000     1.0900 
      31   340.0000     1.0900 
      32   340.0000     1.0900 
      33   340.0000     1.0900 
      34   340.0000     1.0900 
      35   340.0000     1.0900 
      36   340.0000     1.0900 
      37   268.0000     1.5290 
      38   268.0000     1.5290 

Angle Coeffs 

       1     58.350    112.700
       2     58.350    112.700
       3     58.350    112.700
       4     58.350    112.700
       5     58.350    112.700
       6     58.350    112.700
       7     58.350    112.700
       8     58.350    112.700
       9     58.350    112.700
      10     69.000    109.800
      11     58.350    112.700
      12     58.350    112.700
      13     37.500    110.700
      14     37.500    110.700
      15     37.500    110.700
      16     37.500    110.700
      17     37.500    110.700
      18     37.500    110.700
      19     37.500    110.700
      20     37.500    110.700
      21     37.500    110.700
      22     37.500    110.700
      23     37.500    110.700
      24     37.500    110.700
      25     37.500    110.700
      26     37.500    110.700
      27     37.500    110.700
      28     37.500    110.700
      29     37.500    110.700
      30     37.500    110.700
      31     37.500    110.700
      32     37.500    110.700
      33     37.500    110.700
      34     37.500    110.700
      35     37.500    110.700
      36     37.500    110.700
      37     58.350    112.700
      38     37.500    110.700
      39     37.500    110.700
      40     37.500    110.700
      41     37.500    110.700
      42     37.500    110.700
      43     37.500    110.700
      44     33.000    107.800
      45     37.500    110.700
      46     37.500    110.700
      47     37.500    110.700
      48     33.000    107.800
      49     58.350    112.700
      50     37.500    110.700
      51     58.350    112.700
      52     37.500    110.700
      53     58.350    112.700
      54     37.500    110.700
      55     58.350    112.700
      56     37.500    110.700
      57     37.500    110.700
      58     33.000    107.800
      59     51.000    107.600
      60     37.500    110.700
      61     33.000    107.800
      62     33.000    107.800
      63     33.000    107.800
      64     37.500    110.700
      65     33.000    107.800
      66     33.000    107.800
      67     69.000    109.800
      68     33.000    107.800
      69     58.350    112.700
      70     37.500    110.700
      71     58.350    112.700
      72     37.500    110.700
      73     33.000    107.800
      74     37.500    110.700
      75     37.500    110.700
      76     33.000    107.800
      77     33.000    107.800
      78     58.350    112.700

Dihedral Coeffs  

       1      1.300     -0.200      0.200      0.000 
       2      1.300     -0.200      0.200      0.000 
       3      1.300     -0.200      0.200      0.000 
       4      1.300     -0.200      0.200      0.000 
       5      1.300     -0.200      0.200      0.000 
       6      1.300     -0.200      0.200      0.000 
       7      1.300     -0.200      0.200      0.000 
       8      0.000      0.000      0.400      0.000 
       9      0.000      0.000      0.300      0.000 
      10      0.000      0.000      0.300      0.000 
      11      0.000      0.000      0.300      0.000 
      12      0.000      0.000      0.300      0.000 
      13      0.000      0.000      0.300      0.000 
      14      0.000      0.000      0.300      0.000 
      15      0.000      0.000      0.300      0.000 
      16      0.000      0.000      0.300      0.000 
      17      0.000      0.000      0.300      0.000 
      18      0.000      0.000      0.300      0.000 
      19      0.000      0.000      0.400      0.000 
      20      0.000      0.000      0.400      0.000 
      21      0.000      0.000      0.300      0.000 
      22      0.000      0.000      0.300      0.000 
      23      0.000      0.000      0.300      0.000 
      24      1.300     -0.200      0.200      0.000 
      25      0.000      0.000      0.300      0.000 
      26      0.000      0.000      0.300      0.000 
      27      1.300     -0.200      0.200      0.000 
      28      0.000      0.000      0.300      0.000 
      29      1.300     -0.200      0.200      0.000 
      30      0.000      0.000      0.300      0.000 
      31      0.000      0.000      0.300      0.000 
      32      0.000      0.000      0.300      0.000 
      33      0.000      0.000      0.300      0.000 
      34      1.300     -0.200      0.200      0.000 
      35      0.000      0.000      0.300      0.000 
      36      0.000      0.000      0.300      0.000 
      37      1.300     -0.200      0.200      0.000 
      38      0.000      0.000      0.300      0.000 
      39      0.000      0.000      0.300      0.000 
      40      1.300     -0.200      0.200      0.000 
      41      1.300     -0.200      0.200      0.000 
      42      0.000      0.000      0.300      0.000 
      43      0.000      0.000      0.300      0.000 
      44      0.000      0.000      0.300      0.000 
      45      0.000      0.000      0.400      0.000 
      46      1.300     -0.200      0.200      0.000 
      47      0.000      0.000      0.300      0.000 
      48      0.000      0.000      0.300      0.000 
      49      0.000      0.000      0.300      0.000 
      50      0.000      0.000      0.300      0.000 
      51      0.000      0.000      0.300      0.000 
      52      0.000      0.000      0.300      0.000 
      53      0.000      0.000      0.300      0.000 
      54      0.000      0.000      0.300      0.000 
      55      0.000      0.000      0.300      0.000 
      56      1.300     -0.200      0.200      0.000 
      57      0.000      0.000      0.300      0.000 
      58      0.000      0.000      0.300      0.000 
      59      0.000      0.000      0.300      0.000 
      60      1.300     -0.200      0.200      0.000 
      61      0.000      0.000      0.300      0.000 
      62      0.000      0.000      0.300      0.000 
      63      0.000      0.000      0.300      0.000 
      64      0.000      0.000      0.300      0.000 
      65      0.000      0.000      0.300      0.000 
      66      0.000      0.000      0.300      0.000 
      67      0.000      0.000      0.300      0.000 
      68      0.000      0.000      0.300      0.000 
      69      0.000      0.000      0.300      0.000 
      70      0.000      0.000      0.300      0.000 
      71      0.000      0.000      0.300      0.000 
      72      0.000      0.000      0.300      0.000 
      73      0.000      0.000      0.300      0.000 
      74      0.000      0.000      0.300      0.000 
      75      0.000      0.000      0.300      0.000 
      76      0.000      0.000      0.300      0.000 
      77      0.000      0.000      0.300      0.000 
      78      0.000      0.000      0.300      0.000 
      79      0.000      0.000      0.300      0.000 
      80      0.000      0.000      0.300      0.000 
      81      0.000      0.000      0.300      0.000 
      82      0.000      0.000      0.300      0.000 
      83      1.300     -0.200      0.200      0.000 
      84      1.300     -0.200      0.200      0.000 
      85      0.000      0.000      0.300      0.000 
      86      0.000      0.000      0.300      0.000 
      87      0.000      0.000      0.300      0.000 
      88      0.000      0.000      0.400      0.000 
      89      0.000      0.000      0.300      0.000 
      90      0.000      0.000      0.300      0.000 
      91      0.000      0.000      0.400      0.000 
      92      0.000      0.000      0.300      0.000 
      93      0.000      0.000      0.300      0.000 
      94      0.000      0.000      0.300      0.000 
      95      0.000      0.000      0.300      0.000 
      96      0.000      0.000      0.300      0.000 
      97      0.000      0.000      0.300      0.000 
      98      1.300     -0.200      0.200      0.000 
      99      0.000      0.000      0.300      0.000 
     100      0.000      0.000      0.300      0.000 
     101      0.000      0.000      0.300      0.000 
     102      0.000      0.000      0.300      0.000 
     103      0.000      0.000      0.300      0.000 
     104      0.000      0.000      0.300      0.000 
     105      1.300     -0.200      0.200      0.000 
     106      1.300     -0.200      0.200      0.000 
     107      0.000      0.000      0.300      0.000 
     108      0.000      0.000      0.300      0.000 
     109      0.000      0.000      0.300      0.000 
     110      0.000      0.000      0.300      0.000 
     111      0.000      0.000      0.300      0.000 
     112      0.000      0.000      0.300      0.000 
     113      0.000      0.000      0.300      0.000 
     114      0.000      0.000      0.300      0.000 
     115      0.000      0.000      0.300      0.000 
     116      0.000      0.000      0.300      0.000 
     117      1.300     -0.200      0.200      0.000 
     118      0.000      0.000      0.300      0.000 
     119      0.000      0.000      0.300      0.000 
     120      0.000      0.000      0.300      0.000 
     121      0.000      0.000      0.300      0.000 
     122      0.000      0.000      0.300      0.000 
     123      0.000      0.000      0.300      0.000 
     124      1.300     -0.200      0.200      0.000 
     125      0.000      0.000      0.300      0.000 
     126      0.000      0.000      0.300      0.000 

Improper Coeffs 

       1      0.000      -1       2 
       2      0.000      -1       2 
       3      0.000      -1       2 
       4      0.000      -1       2 
       5      0.000      -1       2 
       6      0.000      -1       2 
       7      0.000      -1       2 
       8      0.000      -1       2 
       9      0.000      -1       2 
      10      0.000      -1       2 
      11      0.000      -1       2 
      12      0.000      -1       2 
      13      0.000      -1       2 
      14      0.000      -1       2 
      15      0.000      -1       2 
      16      0.000      -1       2 
      17      0.000      -1       2 
      18      0.000      -1       2 
      19      0.000      -1       2 
      20      0.000      -1       2 
      21      0.000      -1       2 
      22      0.000      -1       2 
      23      0.000      -1       2 
      24      0.000      -1       2 

Atoms 

     1      1      1 -0.23750000    1.000  1.00000  0.00000
     2      1      2 -0.16980000   -0.522  1.00000  0.00000
     3      1      3 -0.12150000   -1.118  1.00000  1.40872
     4      1      4 -0.17860000   -0.748  2.22259  2.24490
     5      1      5 -0.17900000   -1.808  2.21503  3.33268
     6      1      6 -0.11290000   -3.099  1.89080  2.57725
     7      1      7 -0.11570000   -4.195  1.25389  3.44627
     8      1      8 -0.17870000   -4.354  1.85870  4.84201
     9      1      9 -0.12170000   -5.733  1.36763  5.29446
    10      1     10 -0.22950000   -5.669 -0.06162  5.83948
    11      1     11 0.07660000   -6.563  1.55621  4.01290
    12      1     12 -0.27820000   -8.004  0.52921  3.88935
    13      1     13 -0.18460000   -5.603  1.35890  2.83221
    14      1     14 -0.17620000   -2.657  0.98722  1.40540
    15      1     15 0.08110000    1.376  0.90691 -1.02358
    16      1     16 0.08110000    1.394  0.16158  0.58311
    17      1     17 0.08110000    1.397  1.92902  0.41933
    18      1     18 0.08850000   -0.873  0.11031 -0.53632
    19      1     19 0.08850000   -0.877  1.87269 -0.56177
    20      1     20 0.09960000   -0.769  0.10061  1.93589
    21      1     21 0.09580000   -0.814  3.14232  1.65089
    22      1     22 0.09580000    0.260  2.15258  2.66537
    23      1     23 0.09420000   -1.866  3.18014  3.84530
    24      1     24 0.09420000   -1.577  1.44215  4.07476
    25      1     25 0.09820000   -3.477  2.83246  2.15385
    26      1     26 0.10670000   -3.955  0.18826  3.57124
    27      1     27 0.10010000   -4.343  2.95412  4.78957
    28      1     28 0.10010000   -3.557  1.54201  5.52284
    29      1     29 0.10990000   -6.111  2.01491  6.09523
    30      1     30 0.08930000   -5.399 -0.79039  5.06862
    31      1     31 0.08930000   -6.633 -0.36051  6.26276
    32      1     32 0.08930000   -4.927 -0.13172  6.64259
    33      1     33 0.12070000   -6.931  2.58949  3.99043
    34      1     34 0.10860000   -5.683  2.22592  2.16469
    35      1     35 0.10860000   -5.828  0.46968  2.23419
    36      1     36 0.09330000   -3.065  1.37739  0.46767
    37      1     37 0.09330000   -3.018 -0.04211  1.51071

Bonds 

     1      1      2      1
     2      2      3      2
     3      3      4      3
     4      4      5      4
     5      5      6      5
     6      6      7      6
     7      7      8      7
     8      8      9      8
     9      9     10      9
    10     10     11      9
    11     11     12     11
    12     12     13      7
    13     13     14      3
    14     14     15      1
    15     15     16      1
    16     16     17      1
    17     17     18      2
    18     18     19      2
    19     19     20      3
    20     20     21      4
    21     21     22      4
    22     22     23      5
    23     23     24      5
    24     24     25      6
    25     25     26      7
    26     26     27      8
    27     27     28      8
    28     28     29      9
    29     29     30     10
    30     30     31     10
    31     31     32     10
    32     32     33     11
    33     33     34     13
    34     34     35     13
    35     35     36     14
    36     36     37     14
    37     37     14      6
    38     38     13     11

Angles 

     1      1      1      2      3
     2      2      2      3      4
     3      3      3      4      5
     4      4      4      5      6
     5      5      5      6      7
     6      6      6      7      8
     7      7      7      8      9
     8      8      8      9     10
     9      9      8      9     11
    10     10      9     11     12
    11     11      6      7     13
    12     12      2      3     14
    13     13      2      1     15
    14     14      2      1     16
    15     15      2      1     17
    16     16      1      2     18
    17     17      1      2     19
    18     18      2      3     20
    19     19      3      4     21
    20     20      3      4     22
    21     21      4      5     23
    22     22      4      5     24
    23     23      5      6     25
    24     24      6      7     26
    25     25      7      8     27
    26     26      7      8     28
    27     27      8      9     29
    28     28      9     10     30
    29     29      9     10     31
    30     30      9     10     32
    31     31      9     11     33
    32     32      7     13     34
    33     33      7     13     35
    34     34      3     14     36
    35     35      3     14     37
    36     36      6     14     37
    37     37      7      6     14
    38     38     14      6     25
    39     39     11     13     35
    40     40      6      5     24
    41     41      9      8     28
    42     42      3      2     18
    43     43     11      9     29
    44     44     18      2     19
    45     45     10      9     29
    46     46      6     14     36
    47     47      7      6     25
    48     48     23      5     24
    49     49     10      9     11
    50     50      8      7     26
    51     51      8      7     13
    52     52     11     13     34
    53     53      9     11     13
    54     54     13     11     33
    55     55      3     14      6
    56     56      9      8     27
    57     57      5      4     22
    58     58     30     10     31
    59     59     12     11     33
    60     60      3      2     19
    61     61     15      1     16
    62     62     21      4     22
    63     63     30     10     32
    64     64     13      7     26
    65     65     15      1     17
    66     66     16      1     17
    67     67     12     11     13
    68     68     31     10     32
    69     69      4      3     14
    70     70      6      5     23
    71     71      7     13     11
    72     72      5      4     21
    73     73     27      8     28
    74     74     14      3     20
    75     75      4      3     20
    76     76     34     13     35
    77     77     36     14     37
    78     78      5      6     14

Dihedrals

     1      1      4      3      2      1 
     2      2      5      4      3      2 
     3      3      6      5      4      3 
     4      4      7      6      5      4 
     5      5      8      7      6      5 
     6      6      9      8      7      6 
     7      7     10      9      8      7 
     8      8     12     11      9      8 
     9      9     15      1      2      3 
    10     10     30     10      9      8 
    11     11     27      8      9     11 
    12     12     28      8      9     10 
    13     13     33     11     13      7 
    14     14     26      7      6     14 
    15     15     34     13     11     33 
    16     16     21      4      3     14 
    17     17     36     14      3      4 
    18     18     32     10      9     11 
    19     19     12     11     13      7 
    20     20     34     13     11     12 
    21     21     26      7      6     25 
    22     22     25      6      5     24 
    23     23     19      2      3     14 
    24     24     13     11      9     10 
    25     25     35     13      7      8 
    26     26     37     14      3      4 
    27     27      9     11     13      7 
    28     28     25      6      7      8 
    29     29     11      9      8      7 
    30     30     20      3      2     18 
    31     31     20      3     14      6 
    32     32     29      9      8      7 
    33     33     24      5      6     14 
    34     34     14      6      7      8 
    35     35     23      5      6      7 
    36     36     36     14      6     25 
    37     37     13      7      6      5 
    38     38     18      2      1     15 
    39     39     27      8      7     26 
    40     40     14      3      4      5 
    41     41     11     13      7      6 
    42     42     36     14      3      2 
    43     43     37     14      3     20 
    44     44     25      6      5     23 
    45     45     35     13     11     12 
    46     46     13      7      8      9 
    47     47     28      8      7     26 
    48     48     32     10      9      8 
    49     49     20      3      2      1 
    50     50     19      2      1     17 
    51     51     35     13     11     33 
    52     52     34     13     11      9 
    53     53     22      4      3     20 
    54     54     18      2      1     17 
    55     55     18      2      3     14 
    56     56     14      6      7     13 
    57     57     34     13      7     26 
    58     58     27      8      7      6 
    59     59     29      9      8     28 
    60     60     13     11      9      8 
    61     61     37     14      6      5 
    62     62     29      9     11     13 
    63     63     23      5      4     21 
    64     64     27      8      9     10 
    65     65     30     10      9     29 
    66     66     22      4      3      2 
    67     67     35     13      7      6 
    68     68     25      6      7     13 
    69     69     34     13      7      6 
    70     70     20      3      4      5 
    71     71     33     11      9     29 
    72     72     36     14      6      5 
    73     73     24      5      6      7 
    74     74     23      5      4      3 
    75     75     36     14      3     20 
    76     76     21      4      3      2 
    77     77     19      2      1     16 
    78     78     31     10      9     11 
    79     79     28      8      9     11 
    80     80     28      8      7     13 
    81     81     37     14      3      2 
    82     82     22      4      3     14 
    83     83      6     14      3      4 
    84     84      7      6     14      3 
    85     85     30     10      9     11 
    86     86     32     10      9     29 
    87     87     33     11      9      8 
    88     88     29      9     11     12 
    89     89     37     14      6     25 
    90     90     25      6     14      3 
    91     91     12     11      9     10 
    92     92     20      3      2     19 
    93     93     24      5      4     22 
    94     94     29      9      8     27 
    95     95     34     13      7      8 
    96     96     23      5      6     14 
    97     97     28      8      7      6 
    98     98     14      3      2      1 
    99     99     17      1      2      3 
   100    100     25      6      5      4 
   101    101     35     13      7     26 
   102    102     21      4      3     20 
   103    103     37     14      6      7 
   104    104     19      2      3      4 
   105    105      6     14      3      2 
   106    106      5      6     14      3 
   107    107     26      7      8      9 
   108    108     26      7     13     11 
   109    109     31     10      9      8 
   110    110     21      4      5      6 
   111    111     27      8      7     13 
   112    112     18      2      3      4 
   113    113     24      5      4     21 
   114    114     23      5      4     22 
   115    115     26      7      6      5 
   116    116     22      4      5      6 
   117    117     14      6      5      4 
   118    118     36     14      6      7 
   119    119     35     13     11      9 
   120    120     24      5      4      3 
   121    121     31     10      9     29 
   122    122     16      1      2      3 
   123    123     33     11      9     10 
   124    124     11     13      7      8 
   125    125     18      2      1     16 
   126    126     19      2      1     15 

Impropers

     1      1      9     10     11      8 
     2      2      7     13      6      8 
     3      3      3      2      4     14 
     4      4      1      2     15     16 
     5      5      1     17     15      2 
     6      6      2      1     18      3 
     7      7      2      1     19      3 
     8      8      3      4      2     20 
     9      9      4      5      3     21 
    10     10      4      3      5     22 
    11     11      5      4      6     23 
    12     12      5      4      6     24 
    13     13      6     25      5      7 
    14     14      7     26      6      8 
    15     15      8      9     27      7 
    16     16      8      9     28      7 
    17     17      9     10     29      8 
    18     18     10      9     30     31 
    19     19     10      9     30     32 
    20     20     11     33      9     12 
    21     21     13     34     11      7 
    22     22     13     35     11      7 
    23     23     14      3     36      6 
    24     24     14      3     37      6 

