LAMMPS data file Created by LigParGen - (Written by Leela S. Dodda)

      45 atoms
      45 bonds
      88 angles
     126 dihedrals
      28 impropers
 
      45 atom types
      45 bond types
      88 angle types
     126 dihedral types
      28 improper types
 
   -7.151530    42.848470 xlo xhi
   -2.640990    47.359010 ylo yhi
   -1.122130    48.877870 zlo zhi

Masses

       1     12.011  
       2     12.011  
       3     12.011  
       4     12.011  
       5     12.011  
       6     12.011  
       7     12.011  
       8     12.011  
       9     12.011  
      10     12.011  
      11     15.999  
      12     12.011  
      13     12.011  
      14     12.011  
      15     12.011  
      16     12.011  
      17     15.999  
      18      1.008  
      19      1.008  
      20      1.008  
      21      1.008  
      22      1.008  
      23      1.008  
      24      1.008  
      25      1.008  
      26      1.008  
      27      1.008  
      28      1.008  
      29      1.008  
      30      1.008  
      31      1.008  
      32      1.008  
      33      1.008  
      34      1.008  
      35      1.008  
      36      1.008  
      37      1.008  
      38      1.008  
      39      1.008  
      40      1.008  
      41      1.008  
      42      1.008  
      43      1.008  
      44      1.008  
      45      1.008  

Pair Coeffs 

       1      0.066  3.5000000 
       2      0.066  3.5000000 
       3      0.066  3.5000000 
       4      0.066  3.5000000 
       5      0.066  3.5000000 
       6      0.066  3.5000000 
       7      0.066  3.5000000 
       8      0.066  3.5000000 
       9      0.066  3.5000000 
      10      0.066  3.5000000 
      11      0.140  2.9000000 
      12      0.066  3.5000000 
      13      0.066  3.5000000 
      14      0.066  3.5000000 
      15      0.066  3.5000000 
      16      0.070  3.5500000 
      17      0.210  2.9600000 
      18      0.030  2.5000000 
      19      0.030  2.5000000 
      20      0.030  2.5000000 
      21      0.030  2.5000000 
      22      0.030  2.5000000 
      23      0.030  2.5000000 
      24      0.030  2.5000000 
      25      0.030  2.5000000 
      26      0.030  2.5000000 
      27      0.030  2.5000000 
      28      0.030  2.5000000 
      29      0.030  2.5000000 
      30      0.030  2.5000000 
      31      0.030  2.5000000 
      32      0.030  2.5000000 
      33      0.030  2.5000000 
      34      0.030  2.5000000 
      35      0.030  2.5000000 
      36      0.030  2.5000000 
      37      0.030  2.5000000 
      38      0.030  2.5000000 
      39      0.030  2.5000000 
      40      0.030  2.5000000 
      41      0.030  2.5000000 
      42      0.030  2.5000000 
      43      0.030  2.5000000 
      44      0.030  2.5000000 
      45      0.030  2.5000000 

Bond Coeffs 

       1   268.0000     1.5290 
       2   268.0000     1.5290 
       3   268.0000     1.5290 
       4   268.0000     1.5290 
       5   268.0000     1.5290 
       6   268.0000     1.5290 
       7   268.0000     1.5290 
       8   268.0000     1.5290 
       9   268.0000     1.5290 
      10   320.0000     1.4100 
      11   320.0000     1.4100 
      12   268.0000     1.5290 
      13   268.0000     1.5290 
      14   268.0000     1.5290 
      15   317.0000     1.5220 
      16   570.0000     1.2290 
      17   340.0000     1.0900 
      18   340.0000     1.0900 
      19   340.0000     1.0900 
      20   340.0000     1.0900 
      21   340.0000     1.0900 
      22   340.0000     1.0900 
      23   340.0000     1.0900 
      24   340.0000     1.0900 
      25   340.0000     1.0900 
      26   340.0000     1.0900 
      27   340.0000     1.0900 
      28   340.0000     1.0900 
      29   340.0000     1.0900 
      30   340.0000     1.0900 
      31   340.0000     1.0900 
      32   340.0000     1.0900 
      33   340.0000     1.0900 
      34   340.0000     1.0900 
      35   340.0000     1.0900 
      36   340.0000     1.0900 
      37   340.0000     1.0900 
      38   340.0000     1.0900 
      39   340.0000     1.0900 
      40   340.0000     1.0900 
      41   340.0000     1.0900 
      42   340.0000     1.0900 
      43   340.0000     1.0900 
      44   340.0000     1.0900 
      45   317.0000     1.5220 

Angle Coeffs 

       1     58.350    112.700
       2     58.350    112.700
       3     58.350    112.700
       4     58.350    112.700
       5     58.350    112.700
       6     58.350    112.700
       7     58.350    112.700
       8     58.350    112.700
       9     50.000    109.500
      10     60.000    109.500
      11     50.000    109.500
      12     58.350    112.700
      13     58.350    112.700
      14     63.000    111.100
      15     80.000    120.400
      16     37.500    110.700
      17     37.500    110.700
      18     37.500    110.700
      19     37.500    110.700
      20     37.500    110.700
      21     37.500    110.700
      22     37.500    110.700
      23     37.500    110.700
      24     37.500    110.700
      25     37.500    110.700
      26     37.500    110.700
      27     37.500    110.700
      28     37.500    110.700
      29     37.500    110.700
      30     37.500    110.700
      31     37.500    110.700
      32     37.500    110.700
      33     37.500    110.700
      34     37.500    110.700
      35     37.500    110.700
      36     35.000    109.500
      37     37.500    110.700
      38     37.500    110.700
      39     37.500    110.700
      40     37.500    110.700
      41     37.500    110.700
      42     37.500    110.700
      43     37.500    110.700
      44     33.000    107.800
      45     33.000    107.800
      46     37.500    110.700
      47     58.350    112.700
      48     37.500    110.700
      49     35.000    109.500
      50     63.000    111.100
      51     33.000    107.800
      52     33.000    107.800
      53     33.000    107.800
      54     33.000    107.800
      55     58.350    112.700
      56     33.000    107.800
      57     33.000    107.800
      58     33.000    107.800
      59     37.500    110.700
      60     37.500    110.700
      61     58.350    112.700
      62     58.350    112.700
      63     33.000    107.800
      64     33.000    107.800
      65     33.000    107.800
      66     33.000    107.800
      67     33.000    107.800
      68     33.000    107.800
      69     70.000    116.000
      70     37.500    110.700
      71     37.500    110.700
      72     37.500    110.700
      73     33.000    107.800
      74     37.500    110.700
      75     80.000    120.400
      76     33.000    107.800
      77     33.000    107.800
      78     63.000    111.100
      79     37.500    110.700
      80     58.350    112.700
      81     33.000    107.800
      82     50.000    109.500
      83     37.500    110.700
      84     35.000    109.500
      85     35.000    109.500
      86     33.000    107.800
      87     33.000    107.800
      88     35.000    109.500

Dihedral Coeffs  

       1      1.300     -0.200      0.200      0.000 
       2      1.300     -0.200      0.200      0.000 
       3      1.300     -0.200      0.200      0.000 
       4      1.300     -0.200      0.200      0.000 
       5      1.711     -0.500      0.663      0.000 
       6      0.650     -0.250      0.670      0.000 
       7      0.650     -0.250      0.670      0.000 
       8      1.711     -0.500      0.663      0.000 
       9      0.000      0.000      0.300      0.000 
      10      0.000      0.000      0.300      0.000 
      11      0.000      0.000      0.300      0.000 
      12      0.000      0.000      0.300      0.000 
      13      0.000      0.000      0.300      0.000 
      14      0.000      0.000      0.300      0.000 
      15      0.000      0.000      0.300      0.000 
      16      0.000      0.000      0.300      0.000 
      17      0.000      0.000      0.300      0.000 
      18      0.000      0.000      0.300      0.000 
      19      0.000      0.000     -0.100      0.000 
      20      0.000      0.000      0.300      0.000 
      21     -2.060     -0.313      0.315      0.000 
      22      0.000      0.000      0.300      0.000 
      23      0.000      0.000      0.000      0.000 
      24      0.000      0.000     -0.100      0.000 
      25      1.711     -0.500      0.663      0.000 
      26      0.000      0.000      0.300      0.000 
      27      1.454     -0.144     -0.775      0.000 
      28      0.000      0.000      0.300      0.000 
      29      0.000      0.000      0.300      0.000 
      30      0.000      0.000      0.300      0.000 
      31      0.000      0.000      0.275      0.000 
      32      0.000      0.000      0.300      0.000 
      33      0.000      0.000      0.300      0.000 
      34     -2.060     -0.313      0.315      0.000 
      35      0.000      0.000      0.300      0.000 
      36      0.000      0.000      0.300      0.000 
      37      0.650     -0.250      0.670      0.000 
      38      0.000      0.000      0.300      0.000 
      39      0.000      0.000      0.300      0.000 
      40     -2.060     -0.313      0.315      0.000 
      41      0.000      0.000      0.000      0.000 
      42      0.000      0.000      0.300      0.000 
      43      0.000      0.000      0.300      0.000 
      44      1.711     -0.500      0.663      0.000 
      45      0.000      0.000      0.300      0.000 
      46      0.000      0.000      0.300      0.000 
      47      0.000      0.000      0.300      0.000 
      48      0.000      0.000      0.300      0.000 
      49      0.000      0.000      0.300      0.000 
      50      0.000      0.000      0.300      0.000 
      51      0.000      0.000      0.300      0.000 
      52      0.000      0.000      0.300      0.000 
      53      1.300     -0.200      0.200      0.000 
      54      0.000      0.000      0.000      0.000 
      55      0.000      0.000      0.300      0.000 
      56      0.000      0.000      0.300      0.000 
      57      0.000      0.000      0.300      0.000 
      58      0.000      0.000      0.300      0.000 
      59      0.000      0.000      0.300      0.000 
      60      0.000      0.000      0.300      0.000 
      61      0.000      0.000      0.300      0.000 
      62      0.000      0.000     -0.100      0.000 
      63      0.000      0.000      0.300      0.000 
      64      0.000      0.000      0.300      0.000 
      65      1.711     -0.500      0.663      0.000 
      66      0.000      0.000      0.300      0.000 
      67      0.000      0.000      0.300      0.000 
      68      0.000      0.000      0.300      0.000 
      69      0.000      0.000      0.300      0.000 
      70      0.000      0.000      0.300      0.000 
      71      0.000      0.000      0.760      0.000 
      72      0.000      0.000      0.300      0.000 
      73      0.000      0.000      0.300      0.000 
      74      0.000      0.000      0.300      0.000 
      75      0.000      0.000      0.300      0.000 
      76      0.000      0.000      0.300      0.000 
      77      0.000      0.000      0.300      0.000 
      78      0.000      0.000      0.300      0.000 
      79      1.300     -0.200      0.200      0.000 
      80      0.000      0.000      0.300      0.000 
      81      0.000      0.000      0.300      0.000 
      82      0.000      0.000      0.300      0.000 
      83      1.300     -0.200      0.200      0.000 
      84      0.000      0.000      0.300      0.000 
      85      0.000      0.000      0.300      0.000 
      86      0.000      0.000      0.300      0.000 
      87      0.000      0.000      0.300      0.000 
      88      0.000      0.000      0.300      0.000 
      89      0.000      0.000      0.300      0.000 
      90      0.000      0.000      0.300      0.000 
      91      0.000      0.000      0.300      0.000 
      92      0.000      0.000      0.000      0.000 
      93      0.000      0.000     -0.100      0.000 
      94      0.000      0.000      0.300      0.000 
      95      0.000      0.000      0.275      0.000 
      96      0.000      0.000      0.300      0.000 
      97      0.000      0.000      0.300      0.000 
      98      0.000      0.000      0.300      0.000 
      99     -2.060     -0.313      0.315      0.000 
     100      0.000      0.000      0.300      0.000 
     101      0.000      0.000      0.300      0.000 
     102      1.300     -0.200      0.200      0.000 
     103      0.000      0.000      0.300      0.000 
     104      0.000      0.000      0.300      0.000 
     105     -2.060     -0.313      0.315      0.000 
     106      0.000      0.000      0.300      0.000 
     107      1.711     -0.500      0.663      0.000 
     108      0.000      0.000      0.300      0.000 
     109      0.000      0.000      0.300      0.000 
     110      0.000      0.000      0.760      0.000 
     111      0.000      0.000      0.300      0.000 
     112      0.000      0.000      0.300      0.000 
     113      0.000      0.000      0.760      0.000 
     114      0.000      0.000      0.300      0.000 
     115      0.000      0.000      0.300      0.000 
     116      0.000      0.000      0.300      0.000 
     117      0.000      0.000      0.300      0.000 
     118      0.000      0.000      0.300      0.000 
     119      1.454     -0.144     -0.775      0.000 
     120      0.000      0.000      0.468      0.000 
     121      0.000      0.000      0.300      0.000 
     122      0.000      0.000      0.300      0.000 
     123      0.000      0.000      0.300      0.000 
     124      1.454     -0.144     -0.775      0.000 
     125      0.000      0.000      0.000      0.000 
     126      0.000      0.000      0.000      0.000 

Improper Coeffs 

       1      0.000      -1       2 
       2      0.000      -1       2 
       3      0.000      -1       2 
       4      0.000      -1       2 
       5      0.000      -1       2 
       6     10.500      -1       2 
       7      0.000      -1       2 
       8      0.000      -1       2 
       9      0.000      -1       2 
      10      0.000      -1       2 
      11      0.000      -1       2 
      12      0.000      -1       2 
      13      0.000      -1       2 
      14      0.000      -1       2 
      15      0.000      -1       2 
      16      0.000      -1       2 
      17      0.000      -1       2 
      18      0.000      -1       2 
      19      0.000      -1       2 
      20      0.000      -1       2 
      21      0.000      -1       2 
      22      0.000      -1       2 
      23      0.000      -1       2 
      24      0.000      -1       2 
      25      0.000      -1       2 
      26      0.000      -1       2 
      27      0.000      -1       2 
      28      0.000      -1       2 

Atoms 

     1      1      1 -0.23750000    1.000  1.00000  0.00000
     2      1      2 -0.17690000   -0.524  1.00000  0.00000
     3      1      3 -0.10170000   -1.157  1.00000  1.41072
     4      1      4 -0.24020000   -0.622  2.19888  2.21925
     5      1      5 -0.16030000   -2.728  1.00363  1.32727
     6      1      6 -0.16180000   -3.302 -0.23253  0.60726
     7      1      7 -0.08220000   -4.854 -0.46418  0.59335
     8      1      8 -0.23580000   -5.063 -1.84361 -0.08651
     9      1      9 -0.23600000   -5.617  0.55623 -0.28268
    10      1     10 0.01180000   -5.432 -0.53234  2.03297
    11      1     11 -0.36350000   -5.768  0.72967  2.61160
    12      1     12 0.03510000   -4.720  1.66543  2.87352
    13      1     13 -0.13240000   -4.994  2.95250  2.04709
    14      1     14 -0.23140000   -6.378  3.53915  2.35997
    15      1     15 -0.24190000   -3.949  4.05956  2.18479
    16      1     16 0.35750000   -3.318  1.05975  2.73082
    17      1     17 -0.43120000   -2.761  0.51105  3.68835
    18      1     18 0.08300000    1.371  0.90678 -1.02499
    19      1     19 0.08300000    1.392  0.16015  0.58268
    20      1     20 0.08300000    1.407  1.93044  0.40722
    21      1     21 0.08640000   -0.846  0.11116 -0.55012
    22      1     22 0.08640000   -0.878  1.87457 -0.56151
    23      1     23 0.11660000   -0.835  0.08652  1.93024
    24      1     24 0.08650000   -0.782  3.13837  1.68182
    25      1     25 0.08650000    0.453  2.09873  2.40894
    26      1     26 0.08650000   -1.090  2.29077  3.20281
    27      1     27 0.12460000   -3.010  1.88907  0.76960
    28      1     28 0.10100000   -2.833 -1.12037  1.05261
    29      1     29 0.10100000   -2.972 -0.20405 -0.43895
    30      1     30 0.08660000   -4.700 -1.82211 -1.12213
    31      1     31 0.08660000   -6.126 -2.11388 -0.12113
    32      1     32 0.08660000   -4.530 -2.64099  0.44013
    33      1     33 0.09000000   -4.940  1.21328 -0.83047
    34      1     34 0.09000000   -6.303  1.18217  0.30020
    35      1     35 0.09000000   -6.264  0.06726 -1.02154
    36      1     36 0.10900000   -4.776 -1.09629  2.70814
    37      1     37 0.10900000   -6.375 -1.09145  2.00800
    38      1     38 0.12910000   -4.816  1.94212  3.93222
    39      1     39 0.10270000   -5.014  2.68455  0.98986
    40      1     40 0.08800000   -6.368  4.08476  3.30933
    41      1     41 0.08800000   -7.152  2.76802  2.41918
    42      1     42 0.08800000   -6.674  4.24012  1.57150
    43      1     43 0.08670000   -3.975  4.52694  3.17187
    44      1     44 0.08670000   -4.138  4.83635  1.43299
    45      1     45 0.08670000   -2.937  3.69940  2.00860

Bonds 

     1      1      2      1
     2      2      3      2
     3      3      4      3
     4      4      5      3
     5      5      6      5
     6      6      7      6
     7      7      8      7
     8      8      9      7
     9      9     10      7
    10     10     11     10
    11     11     12     11
    12     12     13     12
    13     13     14     13
    14     14     15     13
    15     15     16      5
    16     16     17     16
    17     17     18      1
    18     18     19      1
    19     19     20      1
    20     20     21      2
    21     21     22      2
    22     22     23      3
    23     23     24      4
    24     24     25      4
    25     25     26      4
    26     26     27      5
    27     27     28      6
    28     28     29      6
    29     29     30      8
    30     30     31      8
    31     31     32      8
    32     32     33      9
    33     33     34      9
    34     34     35      9
    35     35     36     10
    36     36     37     10
    37     37     38     12
    38     38     39     13
    39     39     40     14
    40     40     41     14
    41     41     42     14
    42     42     43     15
    43     43     44     15
    44     44     45     15
    45     45     16     12

Angles 

     1      1      1      2      3
     2      2      2      3      4
     3      3      2      3      5
     4      4      3      5      6
     5      5      5      6      7
     6      6      6      7      8
     7      7      6      7      9
     8      8      6      7     10
     9      9      7     10     11
    10     10     10     11     12
    11     11     11     12     13
    12     12     12     13     14
    13     13     12     13     15
    14     14      3      5     16
    15     15      5     16     17
    16     16      2      1     18
    17     17      2      1     19
    18     18      2      1     20
    19     19      1      2     21
    20     20      1      2     22
    21     21      2      3     23
    22     22      3      4     24
    23     23      3      4     25
    24     24      3      4     26
    25     25      3      5     27
    26     26      5      6     28
    27     27      5      6     29
    28     28      7      8     30
    29     29      7      8     31
    30     30      7      8     32
    31     31      7      9     33
    32     32      7      9     34
    33     33      7      9     35
    34     34      7     10     36
    35     35      7     10     37
    36     36     11     12     38
    37     37     12     13     39
    38     38     13     14     40
    39     39     13     14     41
    40     40     13     14     42
    41     41     13     15     43
    42     42     13     15     44
    43     43     13     15     45
    44     44     44     15     45
    45     45     31      8     32
    46     46     13     12     38
    47     47     14     13     15
    48     48      4      3     23
    49     49     11     10     36
    50     50      6      5     16
    51     51     43     15     45
    52     52     30      8     31
    53     53     24      4     26
    54     54     40     14     41
    55     55      9      7     10
    56     56     43     15     44
    57     57     24      4     25
    58     58     33      9     35
    59     59     14     13     39
    60     60      5      3     23
    61     61      8      7      9
    62     62      4      3      5
    63     63     18      1     19
    64     64     40     14     42
    65     65     21      2     22
    66     66     25      4     26
    67     67     41     14     42
    68     68     28      6     29
    69     69      5     16     12
    70     70      7      6     28
    71     71      6      5     27
    72     72     15     13     39
    73     73     30      8     32
    74     74      7      6     29
    75     75     12     16     17
    76     76     18      1     20
    77     77     34      9     35
    78     78     13     12     16
    79     79      3      2     21
    80     80      8      7     10
    81     81     33      9     34
    82     82     11     12     16
    83     83      3      2     22
    84     84     11     10     37
    85     85     16     12     38
    86     86     19      1     20
    87     87     36     10     37
    88     88     16      5     27

Dihedrals

     1      1      4      3      2      1 
     2      2      6      5      3      2 
     3      3      7      6      5      3 
     4      4      8      7      6      5 
     5      5     11     10      7      6 
     6      6     12     11     10      7 
     7      7     13     12     11     10 
     8      8     14     13     12     11 
     9      9     18      1      2      3 
    10     10     24      4      3      2 
    11     11     30      8      7      6 
    12     12     33      9      7      6 
    13     13     40     14     13     12 
    14     14     43     15     13     12 
    15     15     30      8      7     10 
    16     16     31      8      7      9 
    17     17     28      6      7      8 
    18     18     24      4      3     23 
    19     19     29      6      5     16 
    20     20     25      4      3      5 
    21     21     16      5      3      2 
    22     22     39     13     12     38 
    23     23     27      5     16     17 
    24     24     28      6      5     16 
    25     25     11     10      7      9 
    26     26     26      4      3     23 
    27     27     12     16      5      3 
    28     28     36     10      7      8 
    29     29     35      9      7      8 
    30     30     19      1      2      3 
    31     31     38     12     16      5 
    32     32     29      6      5      3 
    33     33     27      5      3     23 
    34     34     16     12     13     15 
    35     35     22      2      3      5 
    36     36     42     14     13     12 
    37     37     16     12     11     10 
    38     38     42     14     13     39 
    39     39     34      9      7      6 
    40     40     16      5      3      4 
    41     41     17     16      5      6 
    42     42     35      9      7     10 
    43     43     23      3      5      6 
    44     44     11     10      7      8 
    45     45     44     15     13     14 
    46     46     27      5      3      4 
    47     47     29      6      5     27 
    48     48     23      3      2     22 
    49     49     22      2      1     18 
    50     50     26      4      3      2 
    51     51     45     15     13     12 
    52     52     43     15     13     14 
    53     53      6      5      3      4 
    54     54     17     16      5      3 
    55     55     31      8      7      6 
    56     56     36     10      7      6 
    57     57     29      6      7      9 
    58     58     38     12     13     14 
    59     59     22      2      1     20 
    60     60     22      2      1     19 
    61     61     21      2      1     18 
    62     62     23      3      5     16 
    63     63     26      4      3      5 
    64     64     33      9      7     10 
    65     65     11     12     16      5 
    66     66     37     10      7      6 
    67     67     40     14     13     15 
    68     68     41     14     13     39 
    69     69     28      6      7     10 
    70     70     27      5      6      7 
    71     71     36     10     11     12 
    72     72     30      8      7      9 
    73     73     29      6      7     10 
    74     74     28      6      5      3 
    75     75     32      8      7      6 
    76     76     24      4      3      5 
    77     77     41     14     13     12 
    78     78     21      2      1     20 
    79     79      9      7      6      5 
    80     80     34      9      7     10 
    81     81     28      6      7      9 
    82     82     29      6      7      8 
    83     83     10      7      6      5 
    84     84     27      5      3      2 
    85     85     25      4      3     23 
    86     86     45     15     13     39 
    87     87     37     10      7      8 
    88     88     36     10      7      9 
    89     89     31      8      7     10 
    90     90     32      8      7      9 
    91     91     41     14     13     15 
    92     92     17     16     12     13 
    93     93     39     13     12     16 
    94     94     23      3      2      1 
    95     95     27      5     16     12 
    96     96     35      9      7      6 
    97     97     33      9      7      8 
    98     98     23      3      2     21 
    99     99     16      5      6      7 
   100    100     21      2      3      4 
   101    101     32      8      7     10 
   102    102      5      3      2      1 
   103    103     20      1      2      3 
   104    104     43     15     13     39 
   105    105     16     12     13     14 
   106    106     45     15     13     14 
   107    107     15     13     12     11 
   108    108     21      2      3      5 
   109    109     22      2      3      4 
   110    110     37     10     11     12 
   111    111     44     15     13     12 
   112    112     21      2      1     19 
   113    113     38     12     11     10 
   114    114     28      6      5     27 
   115    115     42     14     13     15 
   116    116     37     10      7      9 
   117    117     25      4      3      2 
   118    118     40     14     13     39 
   119    119     12     16      5      6 
   120    120     39     13     12     11 
   121    121     44     15     13     39 
   122    122     38     12     13     15 
   123    123     34      9      7      8 
   124    124     13     12     16      5 
   125    125     17     16     12     11 
   126    126     38     12     16     17 

Impropers

     1      1      3      2      4      5 
     2      2      7      9      6      8 
     3      3      7     10      6      8 
     4      4     13     12     14     15 
     5      5      5      3      6     16 
     6      6     16     17     12      5 
     7      7      1      2     19     18 
     8      8      1      2     20     18 
     9      9      2      1      3     21 
    10     10      2      1      3     22 
    11     11      3      2      4     23 
    12     12      4     25      3     24 
    13     13      4     26      3     24 
    14     14      5     27      3      6 
    15     15      6     28      5      7 
    16     16      6      5     29      7 
    17     17      8     30      7     31 
    18     18      8     30      7     32 
    19     19      9     34      7     33 
    20     20      9     33     35      7 
    21     21     10     11     36      7 
    22     22     10     11     37      7 
    23     23     12     11     13     38 
    24     24     13     12     14     39 
    25     25     14     41     13     40 
    26     26     14     42     13     40 
    27     27     15     43     44     13 
    28     28     15     13     43     45 

