LAMMPS data file Created by LigParGen - (Written by Leela S. Dodda)

      28 atoms
      30 bonds
      63 angles
     111 dihedrals
      20 impropers
 
      28 atom types
      30 bond types
      63 angle types
     111 dihedral types
      20 improper types
 
   -4.709670    45.290330 xlo xhi
   -0.398640    49.601360 ylo yhi
   -2.010280    47.989720 zlo zhi

Masses

       1     12.011  
       2     12.011  
       3     12.011  
       4     12.011  
       5     12.011  
       6     12.011  
       7     12.011  
       8     12.011  
       9     12.011  
      10     12.011  
      11     12.011  
      12     15.999  
      13      1.008  
      14      1.008  
      15      1.008  
      16      1.008  
      17      1.008  
      18      1.008  
      19      1.008  
      20      1.008  
      21      1.008  
      22      1.008  
      23      1.008  
      24      1.008  
      25      1.008  
      26      1.008  
      27      1.008  
      28      1.008  

Pair Coeffs 

       1      0.066  3.5000000 
       2      0.066  3.5000000 
       3      0.066  3.5000000 
       4      0.066  3.5000000 
       5      0.066  3.5000000 
       6      0.066  3.5000000 
       7      0.066  3.5000000 
       8      0.066  3.5000000 
       9      0.066  3.5000000 
      10      0.066  3.5000000 
      11      0.070  3.5500000 
      12      0.210  2.9600000 
      13      0.030  2.5000000 
      14      0.030  2.5000000 
      15      0.030  2.5000000 
      16      0.030  2.5000000 
      17      0.030  2.5000000 
      18      0.030  2.5000000 
      19      0.030  2.5000000 
      20      0.030  2.5000000 
      21      0.030  2.5000000 
      22      0.030  2.5000000 
      23      0.030  2.5000000 
      24      0.030  2.5000000 
      25      0.030  2.5000000 
      26      0.030  2.5000000 
      27      0.030  2.5000000 
      28      0.030  2.5000000 

Bond Coeffs 

       1   268.0000     1.5290 
       2   268.0000     1.5290 
       3   268.0000     1.5290 
       4   268.0000     1.5290 
       5   268.0000     1.5290 
       6   268.0000     1.5290 
       7   268.0000     1.5290 
       8   268.0000     1.5290 
       9   268.0000     1.5290 
      10   317.0000     1.5220 
      11   570.0000     1.2290 
      12   340.0000     1.0900 
      13   340.0000     1.0900 
      14   340.0000     1.0900 
      15   340.0000     1.0900 
      16   340.0000     1.0900 
      17   340.0000     1.0900 
      18   340.0000     1.0900 
      19   340.0000     1.0900 
      20   340.0000     1.0900 
      21   340.0000     1.0900 
      22   340.0000     1.0900 
      23   340.0000     1.0900 
      24   340.0000     1.0900 
      25   340.0000     1.0900 
      26   340.0000     1.0900 
      27   340.0000     1.0900 
      28   268.0000     1.5290 
      29   268.0000     1.5290 
      30   317.0000     1.5220 

Angle Coeffs 

       1     58.350    112.700
       2     58.350    112.700
       3     58.350    112.700
       4     58.350    112.700
       5     58.350    112.700
       6     58.350    112.700
       7     58.350    112.700
       8     58.350    112.700
       9     63.000    111.100
      10     80.000    120.400
      11     37.500    110.700
      12     37.500    110.700
      13     37.500    110.700
      14     37.500    110.700
      15     37.500    110.700
      16     37.500    110.700
      17     37.500    110.700
      18     37.500    110.700
      19     37.500    110.700
      20     37.500    110.700
      21     37.500    110.700
      22     37.500    110.700
      23     37.500    110.700
      24     37.500    110.700
      25     37.500    110.700
      26     37.500    110.700
      27     33.000    107.800
      28     33.000    107.800
      29     70.000    116.000
      30     37.500    110.700
      31     37.500    110.700
      32     33.000    107.800
      33     37.500    110.700
      34     58.350    112.700
      35     37.500    110.700
      36     37.500    110.700
      37     58.350    112.700
      38     58.350    112.700
      39     33.000    107.800
      40     58.350    112.700
      41     63.000    111.100
      42     58.350    112.700
      43     37.500    110.700
      44     37.500    110.700
      45     33.000    107.800
      46     37.500    110.700
      47     37.500    110.700
      48     80.000    120.400
      49     58.350    112.700
      50     63.000    111.100
      51     63.000    111.100
      52     37.500    110.700
      53     33.000    107.800
      54     37.500    110.700
      55     37.500    110.700
      56     33.000    107.800
      57     58.350    112.700
      58     37.500    110.700
      59     33.000    107.800
      60     37.500    110.700
      61     35.000    109.500
      62     35.000    109.500
      63     58.350    112.700

Dihedral Coeffs  

       1      1.300     -0.200      0.200      0.000 
       2      1.300     -0.200      0.200      0.000 
       3      1.300     -0.200      0.200      0.000 
       4      1.300     -0.200      0.200      0.000 
       5      0.000      0.000      0.300      0.000 
       6      0.000      0.000      0.300      0.000 
       7      0.000      0.000      0.000      0.000 
       8      0.000      0.000      0.300      0.000 
       9      0.000      0.000      0.300      0.000 
      10      0.000      0.000      0.300      0.000 
      11      0.000      0.000     -0.100      0.000 
      12      1.300     -0.200      0.200      0.000 
      13      1.300     -0.200      0.200      0.000 
      14      0.000      0.000      0.300      0.000 
      15      0.000      0.000      0.300      0.000 
      16      0.000      0.000      0.300      0.000 
      17      0.000      0.000      0.300      0.000 
      18      0.000      0.000      0.300      0.000 
      19      1.454     -0.144     -0.775      0.000 
      20      0.000      0.000      0.300      0.000 
      21      0.000      0.000      0.300      0.000 
      22      0.000      0.000      0.300      0.000 
      23      0.000      0.000      0.300      0.000 
      24      0.000      0.000      0.300      0.000 
      25      1.300     -0.200      0.200      0.000 
      26      1.454     -0.144     -0.775      0.000 
      27      0.000      0.000      0.300      0.000 
      28      1.300     -0.200      0.200      0.000 
      29      0.000      0.000      0.300      0.000 
      30      0.000      0.000      0.300      0.000 
      31      1.300     -0.200      0.200      0.000 
      32     -2.060     -0.313      0.315      0.000 
      33      1.300     -0.200      0.200      0.000 
      34      0.000      0.000      0.000      0.000 
      35      0.000      0.000     -0.100      0.000 
      36      0.000      0.000      0.300      0.000 
      37      0.000      0.000      0.300      0.000 
      38      0.000      0.000      0.300      0.000 
      39      0.000      0.000      0.300      0.000 
      40      0.000      0.000      0.300      0.000 
      41      0.000      0.000      0.300      0.000 
      42      0.000      0.000      0.300      0.000 
      43      0.000      0.000      0.300      0.000 
      44      0.000      0.000      0.275      0.000 
      45      0.000      0.000      0.300      0.000 
      46      1.300     -0.200      0.200      0.000 
      47      0.000      0.000      0.300      0.000 
      48      0.000      0.000      0.300      0.000 
      49      0.000      0.000      0.300      0.000 
      50      1.300     -0.200      0.200      0.000 
      51      0.000      0.000      0.300      0.000 
      52      0.000      0.000      0.300      0.000 
      53      0.000      0.000      0.300      0.000 
      54      0.000      0.000      0.300      0.000 
      55      1.454     -0.144     -0.775      0.000 
      56      1.300     -0.200      0.200      0.000 
      57      1.300     -0.200      0.200      0.000 
      58      0.000      0.000      0.300      0.000 
      59      1.454     -0.144     -0.775      0.000 
      60      0.000      0.000      0.300      0.000 
      61      0.000      0.000      0.300      0.000 
      62      1.300     -0.200      0.200      0.000 
      63      0.000      0.000      0.300      0.000 
      64      0.000      0.000      0.300      0.000 
      65      1.300     -0.200      0.200      0.000 
      66     -2.060     -0.313      0.315      0.000 
      67      0.000      0.000      0.300      0.000 
      68      0.000      0.000      0.300      0.000 
      69      0.000      0.000      0.300      0.000 
      70      0.000      0.000      0.300      0.000 
      71      0.000      0.000      0.275      0.000 
      72      0.000      0.000      0.000      0.000 
      73      0.000      0.000      0.300      0.000 
      74      0.000      0.000      0.300      0.000 
      75      0.000      0.000      0.000      0.000 
      76      0.000      0.000      0.300      0.000 
      77      0.000      0.000      0.300      0.000 
      78      0.000      0.000      0.300      0.000 
      79      1.300     -0.200      0.200      0.000 
      80      0.000      0.000      0.300      0.000 
      81     -2.060     -0.313      0.315      0.000 
      82      0.000      0.000     -0.100      0.000 
      83      0.000      0.000     -0.100      0.000 
      84      0.000      0.000     -0.100      0.000 
      85      0.000      0.000      0.300      0.000 
      86      0.000      0.000      0.300      0.000 
      87      1.300     -0.200      0.200      0.000 
      88      0.000      0.000      0.300      0.000 
      89      0.000      0.000      0.300      0.000 
      90      0.000      0.000     -0.100      0.000 
      91      0.000      0.000      0.300      0.000 
      92      0.000      0.000      0.300      0.000 
      93      0.000      0.000      0.000      0.000 
      94      0.000      0.000      0.300      0.000 
      95      0.000      0.000      0.300      0.000 
      96      0.000      0.000      0.300      0.000 
      97      0.000      0.000      0.300      0.000 
      98     -2.060     -0.313      0.315      0.000 
      99      0.000      0.000      0.300      0.000 
     100      0.000      0.000      0.300      0.000 
     101      0.000      0.000      0.300      0.000 
     102      0.000      0.000      0.300      0.000 
     103      0.000      0.000      0.000      0.000 
     104      0.000      0.000      0.300      0.000 
     105      0.000      0.000      0.300      0.000 
     106      0.000      0.000     -0.100      0.000 
     107      0.000      0.000      0.300      0.000 
     108      0.000      0.000      0.300      0.000 
     109      1.300     -0.200      0.200      0.000 
     110      0.000      0.000      0.300      0.000 
     111     -2.060     -0.313      0.315      0.000 

Improper Coeffs 

       1      0.000      -1       2 
       2      0.000      -1       2 
       3      0.000      -1       2 
       4      0.000      -1       2 
       5     10.500      -1       2 
       6      0.000      -1       2 
       7      0.000      -1       2 
       8      0.000      -1       2 
       9      0.000      -1       2 
      10      0.000      -1       2 
      11      0.000      -1       2 
      12      0.000      -1       2 
      13      0.000      -1       2 
      14      0.000      -1       2 
      15      0.000      -1       2 
      16      0.000      -1       2 
      17      0.000      -1       2 
      18      0.000      -1       2 
      19      0.000      -1       2 
      20      0.000      -1       2 

Atoms 

     1      1      1 -0.19540000    1.000  1.00000  0.00000
     2      1      2 -0.08270000   -0.539  1.00000  0.00000
     3      1      3 -0.16870000   -0.798  1.00000  1.54588
     4      1      4 -0.16320000   -1.629  2.18134  1.99603
     5      1      5 -0.16760000   -3.103  1.79799  2.12171
     6      1      6 -0.17420000   -3.841  1.89505  0.79249
     7      1      7 -0.11600000   -2.905  1.66822 -0.42272
     8      1      8 -0.12540000   -1.919  0.36187 -0.43616
     9      1      9 -0.18280000   -1.912  2.84742 -0.43506
    10      1     10 -0.18050000   -0.723  2.18135 -0.99790
    11      1     11 0.39910000   -1.519  3.26912  0.97087
    12      1     12 -0.44600000   -1.017  4.35890  1.21215
    13      1     13 0.08340000    1.265  1.88109  0.64435
    14      1     14 0.08340000    1.493  1.28970 -0.93610
    15      1     15 0.08340000    1.521  0.16904  0.46483
    16      1     16 0.09440000    0.136  0.93843  2.14287
    17      1     17 0.09440000   -1.227  0.03509  1.86088
    18      1     18 0.13060000   -1.254  2.49834  2.98449
    19      1     19 0.09530000   -3.568  2.45508  2.85762
    20      1     20 0.09530000   -3.231  0.76414  2.51968
    21      1     21 0.09560000   -4.213  2.94615  0.71130
    22      1     22 0.09560000   -4.710  1.26377  0.76395
    23      1     23 0.11010000   -3.505  1.65855 -1.34438
    24      1     24 0.09470000   -1.901 -0.08018 -1.44369
    25      1     25 0.09470000   -2.351 -0.39864  0.22488
    26      1     26 0.13780000   -2.235  3.71775 -1.00815
    27      1     27 0.10730000    0.122  2.85804 -1.14651
    28      1     28 0.10730000   -0.913  1.76685 -2.01028

Bonds 

     1      1      2      1
     2      2      3      2
     3      3      4      3
     4      4      5      4
     5      5      6      5
     6      6      7      6
     7      7      8      2
     8      8      9      7
     9      9     10      2
    10     10     11      4
    11     11     12     11
    12     12     13      1
    13     13     14      1
    14     14     15      1
    15     15     16      3
    16     16     17      3
    17     17     18      4
    18     18     19      5
    19     19     20      5
    20     20     21      6
    21     21     22      6
    22     22     23      7
    23     23     24      8
    24     24     25      8
    25     25     26      9
    26     26     27     10
    27     27     28     10
    28     28      8      7
    29     29     10      9
    30     30     11      9

Angles 

     1      1      1      2      3
     2      2      2      3      4
     3      3      3      4      5
     4      4      4      5      6
     5      5      5      6      7
     6      6      1      2      8
     7      7      6      7      9
     8      8      1      2     10
     9      9      3      4     11
    10     10      4     11     12
    11     11      2      1     13
    12     12      2      1     14
    13     13      2      1     15
    14     14      2      3     16
    15     15      2      3     17
    16     16      3      4     18
    17     17      4      5     19
    18     18      4      5     20
    19     19      5      6     21
    20     20      5      6     22
    21     21      6      7     23
    22     22      2      8     24
    23     23      2      8     25
    24     24      7      9     26
    25     25      2     10     27
    26     26      2     10     28
    27     27     27     10     28
    28     28     13      1     14
    29     29      4     11      9
    30     30      9     10     27
    31     31      7      6     22
    32     32     21      6     22
    33     33      7      8     24
    34     34      2      8      7
    35     35      6      5     19
    36     36     10      9     26
    37     37      8      7      9
    38     38      8      2     10
    39     39     14      1     15
    40     40      6      7      8
    41     41      7      9     11
    42     42      3      2      8
    43     43      8      7     23
    44     44      9      7     23
    45     45     19      5     20
    46     46      6      5     20
    47     47      9     10     28
    48     48      9     11     12
    49     49      2     10      9
    50     50      5      4     11
    51     51     10      9     11
    52     52      7      8     25
    53     53     24      8     25
    54     54      4      3     16
    55     55      4      3     17
    56     56     16      3     17
    57     57      7      9     10
    58     58      5      4     18
    59     59     13      1     15
    60     60      7      6     21
    61     61     11      4     18
    62     62     11      9     26
    63     63      3      2     10

Dihedrals

     1      1      4      3      2      1 
     2      2      5      4      3      2 
     3      3      6      5      4      3 
     4      4      7      6      5      4 
     5      5     13      1      2      3 
     6      6     22      6      7      9 
     7      7     26      9     11     12 
     8      8     16      3      2     10 
     9      9     18      4      3      2 
    10     10     25      8      2      1 
    11     11     16      3      4     11 
    12     12      9      7      6      5 
    13     13      7      8      2      3 
    14     14     19      5      6      7 
    15     15     22      6      5      4 
    16     16     16      3      2      1 
    17     17     16      3      2      8 
    18     18     26      9      7      8 
    19     19      9     11      4      3 
    20     20     25      8      2      3 
    21     21     28     10      9     26 
    22     22     25      8      7      6 
    23     23     23      7      6     21 
    24     24     14      1      2      8 
    25     25      6      7      8      2 
    26     26     10      9     11      4 
    27     27     21      6      7      8 
    28     28     10      9      7      8 
    29     29     27     10      9     26 
    30     30     28     10      2      8 
    31     31      9     10      2      3 
    32     32     11      9      7      6 
    33     33      9     10      2      1 
    34     34     12     11      4      5 
    35     35     23      7      9     11 
    36     36     24      8      2      3 
    37     37     23      7      8      2 
    38     38     20      5      4      3 
    39     39     17      3      2     10 
    40     40     25      8      7     23 
    41     41     20      5      4     18 
    42     42     27     10      2      8 
    43     43     20      5      6      7 
    44     44     18      4     11      9 
    45     45     23      7      9     10 
    46     46      7      8      2      1 
    47     47     14      1      2     10 
    48     48     15      1      2      3 
    49     49     24      8      7      9 
    50     50      9     10      2      8 
    51     51     21      6      7      9 
    52     52     22      6      7      8 
    53     53     24      8      2      1 
    54     54     25      8      2     10 
    55     55      9     11      4      5 
    56     56      7      9     10      2 
    57     57      8      7      6      5 
    58     58     13      1      2      8 
    59     59      7      9     11      4 
    60     60     18      4      3     16 
    61     61     27     10      2      3 
    62     62      8      2      3      4 
    63     63     28     10      2      1 
    64     64     19      5      4      3 
    65     65      9      7      8      2 
    66     66     11      9      7      8 
    67     67     23      7      6      5 
    68     68     17      3      4      5 
    69     69     28     10      2      3 
    70     70     28     10      9      7 
    71     71     26      9     11      4 
    72     72     12     11      9     10 
    73     73     24      8      7      6 
    74     74     24      8      7     23 
    75     75     12     11      4      3 
    76     76     23      7      6     22 
    77     77     27     10      9      7 
    78     78     26      9     10      2 
    79     79     10      9      7      6 
    80     80     15      1      2     10 
    81     81     11      4      5      6 
    82     82     19      5      4     11 
    83     83     17      3      4     11 
    84     84     27     10      9     11 
    85     85     17      3      2      8 
    86     86     21      6      5      4 
    87     87     10      2      8      7 
    88     88     19      5      4     18 
    89     89     26      9      7      6 
    90     90     20      5      4     11 
    91     91     15      1      2      8 
    92     92     22      6      5     20 
    93     93     18      4     11     12 
    94     94     18      4      5      6 
    95     95     21      6      5     20 
    96     96     21      6      5     19 
    97     97     22      6      5     19 
    98     98     11      4      3      2 
    99     99     17      3      2      1 
   100    100     13      1      2     10 
   101    101     14      1      2      3 
   102    102     18      4      3     17 
   103    103     12     11      9      7 
   104    104     24      8      2     10 
   105    105     25      8      7      9 
   106    106     28     10      9     11 
   107    107     16      3      4      5 
   108    108     26      9      7     23 
   109    109     10      2      3      4 
   110    110     27     10      2      1 
   111    111     11      9     10      2 

Impropers

     1      1      2      1      3      8 
     2      2      7      9      6      8 
     3      3      2      1     10      3 
     4      4      4     11      5      3 
     5      5     11      4      9     12 
     6      6      1      2     13     14 
     7      7      1      2     13     15 
     8      8      3      2      4     16 
     9      9      3     17      2      4 
    10     10      4     18      3      5 
    11     11      5     19      4      6 
    12     12      5      4     20      6 
    13     13      6      5     21      7 
    14     14      6      5     22      7 
    15     15      7      8     23      6 
    16     16      8      2      7     24 
    17     17      8     25      2      7 
    18     18      9     26      7     10 
    19     19     10      9     27      2 
    20     20     10      9     28      2 

