LAMMPS data file Created by LigParGen - (Written by Leela S. Dodda)

      37 atoms
      36 bonds
      69 angles
      90 dihedrals
      23 impropers
 
      37 atom types
      36 bond types
      69 angle types
      90 dihedral types
      23 improper types
 
   -3.363340    46.636660 xlo xhi
   -0.218070    49.781930 ylo yhi
   -1.022870    48.977130 zlo zhi

Masses

       1     12.011  
       2     12.011  
       3     12.011  
       4     14.007  
       5     12.011  
       6     12.011  
       7     12.011  
       8     12.011  
       9     12.011  
      10     12.011  
      11     12.011  
      12     12.011  
      13      1.008  
      14      1.008  
      15      1.008  
      16      1.008  
      17      1.008  
      18      1.008  
      19      1.008  
      20      1.008  
      21      1.008  
      22      1.008  
      23      1.008  
      24      1.008  
      25      1.008  
      26      1.008  
      27      1.008  
      28      1.008  
      29      1.008  
      30      1.008  
      31      1.008  
      32      1.008  
      33      1.008  
      34      1.008  
      35      1.008  
      36      1.008  
      37      1.008  

Pair Coeffs 

       1      0.066  3.5000000 
       2      0.066  3.5000000 
       3      0.066  3.5000000 
       4      0.170  3.3000000 
       5      0.066  3.5000000 
       6      0.066  3.5000000 
       7      0.066  3.5000000 
       8      0.066  3.5000000 
       9      0.066  3.5000000 
      10      0.066  3.5000000 
      11      0.066  3.5000000 
      12      0.066  3.5000000 
      13      0.030  2.5000000 
      14      0.030  2.5000000 
      15      0.030  2.5000000 
      16      0.030  2.5000000 
      17      0.030  2.5000000 
      18      0.030  2.5000000 
      19      0.030  2.5000000 
      20      0.030  2.5000000 
      21      0.030  2.5000000 
      22      0.030  2.5000000 
      23      0.030  2.5000000 
      24      0.030  2.5000000 
      25      0.030  2.5000000 
      26      0.030  2.5000000 
      27      0.030  2.5000000 
      28      0.030  2.5000000 
      29      0.030  2.5000000 
      30      0.030  2.5000000 
      31      0.030  2.5000000 
      32      0.030  2.5000000 
      33      0.030  2.5000000 
      34      0.030  2.5000000 
      35      0.030  2.5000000 
      36      0.030  2.5000000 
      37      0.030  2.5000000 

Bond Coeffs 

       1   268.0000     1.5290 
       2   268.0000     1.5290 
       3   382.0000     1.4480 
       4   382.0000     1.4480 
       5   268.0000     1.5290 
       6   268.0000     1.5290 
       7   268.0000     1.5290 
       8   268.0000     1.5290 
       9   382.0000     1.4480 
      10   268.0000     1.5290 
      11   268.0000     1.5290 
      12   340.0000     1.0900 
      13   340.0000     1.0900 
      14   340.0000     1.0900 
      15   340.0000     1.0900 
      16   340.0000     1.0900 
      17   340.0000     1.0900 
      18   340.0000     1.0900 
      19   340.0000     1.0900 
      20   340.0000     1.0900 
      21   340.0000     1.0900 
      22   340.0000     1.0900 
      23   340.0000     1.0900 
      24   340.0000     1.0900 
      25   340.0000     1.0900 
      26   340.0000     1.0900 
      27   340.0000     1.0900 
      28   340.0000     1.0900 
      29   340.0000     1.0900 
      30   340.0000     1.0900 
      31   340.0000     1.0900 
      32   340.0000     1.0900 
      33   340.0000     1.0900 
      34   340.0000     1.0900 
      35   340.0000     1.0900 
      36   340.0000     1.0900 

Angle Coeffs 

       1     58.350    112.700
       2     56.200    109.470
       3     51.800    107.200
       4     56.200    109.470
       5     58.350    112.700
       6     58.350    112.700
       7     58.350    112.700
       8     51.800    107.200
       9     56.200    109.470
      10     56.200    109.470
      11     37.500    110.700
      12     37.500    110.700
      13     37.500    110.700
      14     37.500    110.700
      15     37.500    110.700
      16     37.500    110.700
      17     37.500    110.700
      18     35.000    109.500
      19     35.000    109.500
      20     37.500    110.700
      21     37.500    110.700
      22     37.500    110.700
      23     37.500    110.700
      24     37.500    110.700
      25     37.500    110.700
      26     37.500    110.700
      27     37.500    110.700
      28     37.500    110.700
      29     35.000    109.500
      30     37.500    110.700
      31     37.500    110.700
      32     37.500    110.700
      33     37.500    110.700
      34     37.500    110.700
      35     37.500    110.700
      36     33.000    107.800
      37     58.350    112.700
      38     33.000    107.800
      39     33.000    107.800
      40     33.000    107.800
      41     37.500    110.700
      42     33.000    107.800
      43     58.350    112.700
      44     37.500    110.700
      45     37.500    110.700
      46     35.000    109.500
      47     37.500    110.700
      48     33.000    107.800
      49     33.000    107.800
      50     33.000    107.800
      51     33.000    107.800
      52     37.500    110.700
      53     33.000    107.800
      54     33.000    107.800
      55     33.000    107.800
      56     35.000    109.500
      57     33.000    107.800
      58     33.000    107.800
      59     37.500    110.700
      60     37.500    110.700
      61     33.000    107.800
      62     37.500    110.700
      63     37.500    110.700
      64     33.000    107.800
      65     37.500    110.700
      66     33.000    107.800
      67     33.000    107.800
      68     51.800    107.200
      69     33.000    107.800

Dihedral Coeffs  

       1      2.392     -0.674      0.550      0.000 
       2      0.416     -0.128      0.695      0.000 
       3      0.416     -0.128      0.695      0.000 
       4      2.392     -0.674      0.550      0.000 
       5      1.300     -0.200      0.200      0.000 
       6      0.416     -0.128      0.695      0.000 
       7      0.000      0.000      0.300      0.000 
       8      0.000      0.000      0.300      0.000 
       9      0.000      0.000      0.300      0.000 
      10     -1.013     -0.709      0.473      0.000 
      11     -1.013     -0.709      0.473      0.000 
      12      0.000      0.000      0.300      0.000 
      13      0.000      0.000      0.300      0.000 
      14     -1.013     -0.709      0.473      0.000 
      15      0.000      0.000      0.300      0.000 
      16      0.000      0.000      0.300      0.000 
      17      0.000      0.000      0.300      0.000 
      18      0.000      0.000      0.300      0.000 
      19      1.300     -0.200      0.200      0.000 
      20     -1.013     -0.709      0.473      0.000 
      21      0.000      0.000      0.300      0.000 
      22     -1.013     -0.709      0.473      0.000 
      23      0.416     -0.128      0.695      0.000 
      24      0.000      0.000      0.300      0.000 
      25      0.000      0.000      0.560      0.000 
      26      0.000      0.000      0.560      0.000 
      27      0.000      0.000      0.300      0.000 
      28      0.000      0.000      0.300      0.000 
      29      0.000      0.000      0.300      0.000 
      30      0.000      0.000      0.300      0.000 
      31     -1.013     -0.709      0.473      0.000 
      32     -1.013     -0.709      0.473      0.000 
      33      0.000      0.000      0.300      0.000 
      34      0.000      0.000      0.300      0.000 
      35      0.000      0.000      0.300      0.000 
      36      0.000      0.000      0.300      0.000 
      37      0.000      0.000      0.560      0.000 
      38      0.000      0.000      0.560      0.000 
      39      0.000      0.000      0.300      0.000 
      40      0.000      0.000      0.300      0.000 
      41      0.000      0.000      0.300      0.000 
      42      0.000      0.000      0.300      0.000 
      43      0.000      0.000      0.300      0.000 
      44      0.000      0.000      0.300      0.000 
      45      0.000      0.000      0.300      0.000 
      46      0.000      0.000      0.300      0.000 
      47      0.000      0.000      0.300      0.000 
      48      0.000      0.000      0.300      0.000 
      49      0.000      0.000      0.300      0.000 
      50      0.000      0.000      0.300      0.000 
      51      0.000      0.000      0.560      0.000 
      52      0.000      0.000      0.300      0.000 
      53      0.000      0.000      0.300      0.000 
      54      0.000      0.000      0.560      0.000 
      55      0.000      0.000      0.560      0.000 
      56      0.000      0.000      0.300      0.000 
      57     -1.013     -0.709      0.473      0.000 
      58      0.000      0.000      0.300      0.000 
      59      0.416     -0.128      0.695      0.000 
      60      0.000      0.000      0.560      0.000 
      61      0.000      0.000      0.300      0.000 
      62     -1.013     -0.709      0.473      0.000 
      63      0.000      0.000      0.300      0.000 
      64      0.000      0.000      0.300      0.000 
      65      0.000      0.000      0.300      0.000 
      66      0.000      0.000      0.300      0.000 
      67      0.000      0.000      0.300      0.000 
      68      0.000      0.000      0.300      0.000 
      69      0.000      0.000      0.300      0.000 
      70      0.000      0.000      0.560      0.000 
      71      0.000      0.000      0.300      0.000 
      72      0.000      0.000      0.300      0.000 
      73      0.416     -0.128      0.695      0.000 
      74      0.000      0.000      0.300      0.000 
      75      0.000      0.000      0.300      0.000 
      76      0.000      0.000      0.300      0.000 
      77      0.000      0.000      0.300      0.000 
      78      0.000      0.000      0.300      0.000 
      79      0.000      0.000      0.300      0.000 
      80      0.000      0.000      0.300      0.000 
      81      0.416     -0.128      0.695      0.000 
      82      0.000      0.000      0.560      0.000 
      83     -1.013     -0.709      0.473      0.000 
      84      0.000      0.000      0.300      0.000 
      85      0.000      0.000      0.300      0.000 
      86      0.416     -0.128      0.695      0.000 
      87      0.000      0.000      0.300      0.000 
      88      0.000      0.000      0.300      0.000 
      89      0.000      0.000      0.300      0.000 
      90      0.000      0.000      0.300      0.000 

Improper Coeffs 

       1      0.000      -1       2 
       2      0.000      -1       2 
       3      0.000      -1       2 
       4      0.000      -1       2 
       5      0.000      -1       2 
       6      0.000      -1       2 
       7      0.000      -1       2 
       8      0.000      -1       2 
       9      0.000      -1       2 
      10      0.000      -1       2 
      11      0.000      -1       2 
      12      0.000      -1       2 
      13      0.000      -1       2 
      14      0.000      -1       2 
      15      0.000      -1       2 
      16      0.000      -1       2 
      17      0.000      -1       2 
      18      0.000      -1       2 
      19      0.000      -1       2 
      20      0.000      -1       2 
      21      0.000      -1       2 
      22      0.000      -1       2 
      23      0.000      -1       2 

Atoms 

     1      1      1 -0.23080000    1.000  1.00000  0.00000
     2      1      2 -0.17550000   -0.520  1.00000  0.00000
     3      1      3 0.01970000   -1.143  1.00000  1.40539
     4      1      4 -0.58900000   -0.820  2.13982  2.29405
     5      1      5 0.01990000   -1.249  3.42899  1.69520
     6      1      6 -0.17740000   -0.866  4.67222  2.52366
     7      1      7 -0.11570000   -1.306  6.01561  1.90727
     8      1      8 -0.23560000   -2.826  6.11376  1.75519
     9      1      9 -0.23590000   -0.810  7.16311  2.79691
    10      1     10 0.07650000   -1.357  1.94228  3.67440
    11      1     11 -0.27280000   -2.890  1.86924  3.77042
    12      1     12 -0.23430000   -0.731  0.73950  4.39501
    13      1     13 0.08310000    1.373  0.87707 -1.02287
    14      1     14 0.08310000    1.393  0.17312  0.59963
    15      1     15 0.08310000    1.400  1.93792  0.39366
    16      1     16 0.08610000   -0.858  0.09013 -0.51319
    17      1     17 0.08610000   -0.893  1.83827 -0.59728
    18      1     18 0.08070000   -0.800  0.06892  1.87373
    19      1     19 0.08070000   -2.227  0.91110  1.28081
    20      1     20 0.08300000   -2.328  3.41045  1.50684
    21      1     21 0.08300000   -0.761  3.55119  0.72219
    22      1     22 0.09570000    0.226  4.67957  2.64766
    23      1     23 0.09570000   -1.304  4.61989  3.52488
    24      1     24 0.09800000   -0.849  6.12325  0.91714
    25      1     25 0.08110000   -3.332  5.92305  2.70794
    26      1     26 0.08110000   -3.201  5.39751  1.01807
    27      1     27 0.08110000   -3.117  7.11358  1.41491
    28      1     28 0.08200000   -1.249  7.10780  3.79986
    29      1     29 0.08200000   -1.077  8.13376  2.36643
    30      1     30 0.08200000    0.279  7.12950  2.90369
    31      1     31 0.10800000   -1.037  2.79198  4.28579
    32      1     32 0.08580000   -3.296  1.01219  3.22488
    33      1     33 0.08580000   -3.363  2.77826  3.38735
    34      1     34 0.08580000   -3.201  1.76446  4.81582
    35      1     35 0.08600000   -1.014 -0.21807  3.94988
    36      1     36 0.08600000   -1.064  0.71503  5.43972
    37      1     37 0.08600000    0.362  0.81756  4.40196

Bonds 

     1      1      2      1
     2      2      3      2
     3      3      4      3
     4      4      5      4
     5      5      6      5
     6      6      7      6
     7      7      8      7
     8      8      9      7
     9      9     10      4
    10     10     11     10
    11     11     12     10
    12     12     13      1
    13     13     14      1
    14     14     15      1
    15     15     16      2
    16     16     17      2
    17     17     18      3
    18     18     19      3
    19     19     20      5
    20     20     21      5
    21     21     22      6
    22     22     23      6
    23     23     24      7
    24     24     25      8
    25     25     26      8
    26     26     27      8
    27     27     28      9
    28     28     29      9
    29     29     30      9
    30     30     31     10
    31     31     32     11
    32     32     33     11
    33     33     34     11
    34     34     35     12
    35     35     36     12
    36     36     37     12

Angles 

     1      1      1      2      3
     2      2      2      3      4
     3      3      3      4      5
     4      4      4      5      6
     5      5      5      6      7
     6      6      6      7      8
     7      7      6      7      9
     8      8      3      4     10
     9      9      4     10     11
    10     10      4     10     12
    11     11      2      1     13
    12     12      2      1     14
    13     13      2      1     15
    14     14      1      2     16
    15     15      1      2     17
    16     16      2      3     18
    17     17      2      3     19
    18     18      4      5     20
    19     19      4      5     21
    20     20      5      6     22
    21     21      5      6     23
    22     22      6      7     24
    23     23      7      8     25
    24     24      7      8     26
    25     25      7      8     27
    26     26      7      9     28
    27     27      7      9     29
    28     28      7      9     30
    29     29      4     10     31
    30     30     10     11     32
    31     31     10     11     33
    32     32     10     11     34
    33     33     10     12     35
    34     34     10     12     36
    35     35     10     12     37
    36     36     25      8     27
    37     37      8      7      9
    38     38     29      9     30
    39     39     33     11     34
    40     40     13      1     14
    41     41      9      7     24
    42     42     32     11     34
    43     43     11     10     12
    44     44      7      6     22
    45     45      3      2     17
    46     46      4      3     19
    47     47      7      6     23
    48     48     13      1     15
    49     49     28      9     29
    50     50     25      8     26
    51     51     36     12     37
    52     52      3      2     16
    53     53     32     11     33
    54     54     28      9     30
    55     55     14      1     15
    56     56      4      3     18
    57     57     35     12     37
    58     58     16      2     17
    59     59      6      5     20
    60     60     12     10     31
    61     61     35     12     36
    62     62     11     10     31
    63     63      6      5     21
    64     64     22      6     23
    65     65      8      7     24
    66     66     26      8     27
    67     67     18      3     19
    68     68      5      4     10
    69     69     20      5     21

Dihedrals

     1      1      4      3      2      1 
     2      2      5      4      3      2 
     3      3      6      5      4      3 
     4      4      7      6      5      4 
     5      5      8      7      6      5 
     6      6     11     10      4      3 
     7      7     13      1      2      3 
     8      8     25      8      7      6 
     9      9     28      9      7      6 
    10     10     32     11     10      4 
    11     11     35     12     10      4 
    12     12     22      6      7      9 
    13     13     23      6      7      8 
    14     14     23      6      5      4 
    15     15     36     12     10     31 
    16     16     35     12     10     31 
    17     17     29      9      7      8 
    18     18     30      9      7     24 
    19     19      9      7      6      5 
    20     20     22      6      5      4 
    21     21     34     11     10     12 
    22     22     34     11     10      4 
    23     23     11     10      4      5 
    24     24     24      7      6     23 
    25     25     18      3      4     10 
    26     26     21      5      4      3 
    27     27     18      3      2     17 
    28     28     19      3      2     16 
    29     29     37     12     10     11 
    30     30     27      8      7     24 
    31     31     17      2      3      4 
    32     32     16      2      3      4 
    33     33     27      8      7      9 
    34     34     32     11     10     12 
    35     35     28      9      7      8 
    36     36     19      3      2      1 
    37     37     21      5      4     10 
    38     38     20      5      4      3 
    39     39     23      6      5     20 
    40     40     22      6      5     21 
    41     41     23      6      5     21 
    42     42     35     12     10     11 
    43     43     37     12     10     31 
    44     44     20      5      6      7 
    45     45     17      2      1     15 
    46     46     27      8      7      6 
    47     47     22      6      7      8 
    48     48     28      9      7     24 
    49     49     17      2      1     13 
    50     50     16      2      1     14 
    51     51     31     10      4      3 
    52     52     30      9      7      8 
    53     53     18      3      2      1 
    54     54     19      3      4     10 
    55     55     18      3      4      5 
    56     56     24      7      6     22 
    57     57     36     12     10      4 
    58     58     26      8      7     24 
    59     59     12     10      4      3 
    60     60     31     10      4      5 
    61     61     33     11     10     12 
    62     62     33     11     10      4 
    63     63     33     11     10     31 
    64     64     24      7      6      5 
    65     65     30      9      7      6 
    66     66     29      9      7     24 
    67     67     15      1      2      3 
    68     68     23      6      7      9 
    69     69     25      8      7     24 
    70     70     20      5      4     10 
    71     71     18      3      2     16 
    72     72     17      2      1     14 
    73     73     10      4      3      2 
    74     74     29      9      7      6 
    75     75     26      8      7      6 
    76     76     22      6      5     20 
    77     77     26      8      7      9 
    78     78     21      5      6      7 
    79     79     16      2      1     13 
    80     80     19      3      2     17 
    81     81     12     10      4      5 
    82     82     19      3      4      5 
    83     83     37     12     10      4 
    84     84     34     11     10     31 
    85     85     14      1      2      3 
    86     86     10      4      5      6 
    87     87     16      2      1     15 
    88     88     25      8      7      9 
    89     89     36     12     10     11 
    90     90     32     11     10     31 

Impropers

     1      1      7      9      6      8 
     2      2      4     10      3      5 
     3      3     10      4     11     12 
     4      4      1      2     13     14 
     5      5      1      2     13     15 
     6      6      2      1      3     16 
     7      7      2     17      3      1 
     8      8      3     18      4      2 
     9      9      3      2     19      4 
    10     10      5      4     20      6 
    11     11      5      4     21      6 
    12     12      6      5     22      7 
    13     13      6      7      5     23 
    14     14      7      8      6     24 
    15     15      8     25     26      7 
    16     16      8     25     27      7 
    17     17      9     28     29      7 
    18     18      9     28     30      7 
    19     19     10     11      4     31 
    20     20     11     33     10     32 
    21     21     11     34     32     10 
    22     22     12     10     35     36 
    23     23     12     10     35     37 

