LAMMPS data file Created by LigParGen - (Written by Leela S. Dodda)

      27 atoms
      27 bonds
      52 angles
      74 dihedrals
      17 impropers
 
      27 atom types
      27 bond types
      52 angle types
      74 dihedral types
      17 improper types
 
   -6.241960    43.758040 xlo xhi
   -0.014300    49.985700 ylo yhi
   -1.562210    48.437790 zlo zhi

Masses

       1     12.011  
       2     15.999  
       3     12.011  
       4     15.999  
       5     12.011  
       6     12.011  
       7     12.011  
       8     12.011  
       9     18.998  
      10     12.011  
      11     12.011  
      12     12.011  
      13     18.998  
      14      1.008  
      15      1.008  
      16      1.008  
      17      1.008  
      18      1.008  
      19      1.008  
      20      1.008  
      21      1.008  
      22      1.008  
      23      1.008  
      24      1.008  
      25      1.008  
      26      1.008  
      27      1.008  

Pair Coeffs 

       1      0.066  3.5000000 
       2      0.140  2.9000000 
       3      0.070  3.5500000 
       4      0.210  2.9600000 
       5      0.066  3.5000000 
       6      0.066  3.5000000 
       7      0.066  3.5000000 
       8      0.066  3.5000000 
       9      0.060  2.9000000 
      10      0.066  3.5000000 
      11      0.066  3.5000000 
      12      0.066  3.5000000 
      13      0.060  2.9000000 
      14      0.030  2.5000000 
      15      0.030  2.5000000 
      16      0.030  2.5000000 
      17      0.030  2.5000000 
      18      0.030  2.5000000 
      19      0.030  2.5000000 
      20      0.030  2.5000000 
      21      0.030  2.5000000 
      22      0.030  2.5000000 
      23      0.030  2.5000000 
      24      0.030  2.5000000 
      25      0.030  2.5000000 
      26      0.030  2.5000000 
      27      0.030  2.5000000 

Bond Coeffs 

       1   320.0000     1.4100 
       2   214.0000     1.3270 
       3   570.0000     1.2290 
       4   317.0000     1.5220 
       5   268.0000     1.5290 
       6   268.0000     1.5290 
       7   268.0000     1.5290 
       8   367.0000     1.3600 
       9   268.0000     1.5290 
      10   268.0000     1.5290 
      11   268.0000     1.5290 
      12   367.0000     1.3600 
      13   340.0000     1.0900 
      14   340.0000     1.0900 
      15   340.0000     1.0900 
      16   340.0000     1.0900 
      17   340.0000     1.0900 
      18   340.0000     1.0900 
      19   340.0000     1.0900 
      20   340.0000     1.0900 
      21   340.0000     1.0900 
      22   340.0000     1.0900 
      23   340.0000     1.0900 
      24   340.0000     1.0900 
      25   340.0000     1.0900 
      26   340.0000     1.0900 
      27   268.0000     1.5290 

Angle Coeffs 

       1     83.000    116.900
       2     83.000    123.400
       3     81.000    111.400
       4     63.000    111.100
       5     58.350    112.700
       6     58.350    112.700
       7     50.000    109.500
       8     58.350    112.700
       9     63.000    111.100
      10     58.350    112.700
      11     50.000    109.500
      12     35.000    109.500
      13     35.000    109.500
      14     35.000    109.500
      15     35.000    109.500
      16     37.500    110.700
      17     37.500    110.700
      18     37.500    110.700
      19     37.500    110.700
      20     37.500    110.700
      21     37.500    110.700
      22     37.500    110.700
      23     37.500    110.700
      24     37.500    110.700
      25     37.500    110.700
      26     50.000    109.500
      27     58.350    112.700
      28     37.500    110.700
      29     33.000    107.800
      30     58.350    112.700
      31     58.350    112.700
      32     50.000    109.500
      33     37.500    110.700
      34     80.000    120.400
      35     33.000    107.800
      36     58.350    112.700
      37     33.000    107.800
      38     33.000    107.800
      39     58.350    112.700
      40     37.500    110.700
      41     37.500    110.700
      42     33.000    107.800
      43     33.000    107.800
      44     33.000    107.800
      45     33.000    107.800
      46     33.000    107.800
      47     37.500    110.700
      48     37.500    110.700
      49     40.000    107.000
      50     40.000    107.000
      51     37.500    110.700
      52     37.500    110.700

Dihedral Coeffs  

       1      0.000      5.124      0.000      0.000 
       2      0.000      0.000     -0.553      0.000 
       3     -2.060     -0.313      0.315      0.000 
       4      1.300     -0.200      0.200      0.000 
       5      0.300     -0.400      0.400      0.000 
       6      0.000      0.000      0.198      0.000 
       7      0.000      0.000      0.300      0.000 
       8      0.000      0.000      0.300      0.000 
       9      0.000      0.000      0.300      0.000 
      10      0.000      0.000      0.300      0.000 
      11     -2.060     -0.313      0.315      0.000 
      12      0.000      0.000      0.300      0.000 
      13      1.300     -0.200      0.200      0.000 
      14      0.000      0.000      0.300      0.000 
      15      0.000      0.000      0.132      0.000 
      16      0.000      0.000      0.000      0.000 
      17      0.000      0.000     -0.100      0.000 
      18      4.669      5.124      0.000      0.000 
      19      0.000      0.000      0.300      0.000 
      20      0.000      0.000      0.400      0.000 
      21      0.000      0.000      0.300      0.000 
      22      1.300     -0.200      0.200      0.000 
      23     -2.060     -0.313      0.315      0.000 
      24      0.000      0.000      0.300      0.000 
      25      0.000      0.000      0.300      0.000 
      26      0.000      0.000      0.400      0.000 
      27      0.000      0.000      0.300      0.000 
      28      0.000      0.000      0.300      0.000 
      29      0.300     -0.400      0.400      0.000 
      30      1.300     -0.200      0.200      0.000 
      31      0.000      0.000      0.000      0.000 
      32      0.000      0.000      0.000      0.000 
      33      1.300     -0.200      0.200      0.000 
      34      0.300     -0.400      0.400      0.000 
      35      0.000      0.000      0.300      0.000 
      36      0.000      0.000      0.300      0.000 
      37      0.000      0.000      0.300      0.000 
      38      0.000      0.000      0.300      0.000 
      39      0.000      0.000      0.300      0.000 
      40      0.000      0.000      0.300      0.000 
      41      0.000      0.000     -0.100      0.000 
      42      0.000      0.000      0.300      0.000 
      43      0.000      0.000      0.400      0.000 
      44      1.300     -0.200      0.200      0.000 
      45      0.000      0.000      0.300      0.000 
      46      1.300     -0.200      0.200      0.000 
      47      0.000      0.000      0.300      0.000 
      48      0.000      0.000      0.300      0.000 
      49      0.000      0.000      0.300      0.000 
      50      1.300     -0.200      0.200      0.000 
      51      0.000      0.000     -0.553      0.000 
      52      0.000      0.000      0.400      0.000 
      53      0.000      0.000      0.300      0.000 
      54      0.000      0.000      0.300      0.000 
      55      0.000      0.000      0.400      0.000 
      56      0.000      0.000      0.300      0.000 
      57      1.300     -0.200      0.200      0.000 
      58      0.000      0.000      0.300      0.000 
      59      0.000      0.000      0.300      0.000 
      60      0.000      0.000      0.300      0.000 
      61      0.000      0.000      0.198      0.000 
      62      0.000      0.000      0.300      0.000 
      63      0.000      0.000      0.300      0.000 
      64      0.300     -0.400      0.400      0.000 
      65      0.000      0.000      0.300      0.000 
      66      0.000      0.000      0.300      0.000 
      67      0.000      0.000     -0.100      0.000 
      68      0.000      0.000      0.198      0.000 
      69      0.000      0.000      0.400      0.000 
      70      0.000      0.000      0.300      0.000 
      71      0.000      0.000      0.300      0.000 
      72      0.000      0.000      0.400      0.000 
      73      0.000      0.000      0.400      0.000 
      74      0.000      0.000      0.300      0.000 

Improper Coeffs 

       1     10.500      -1       2 
       2      0.000      -1       2 
       3      0.000      -1       2 
       4      0.000      -1       2 
       5      0.000      -1       2 
       6      0.000      -1       2 
       7      0.000      -1       2 
       8      0.000      -1       2 
       9      0.000      -1       2 
      10      0.000      -1       2 
      11      0.000      -1       2 
      12      0.000      -1       2 
      13      0.000      -1       2 
      14      0.000      -1       2 
      15      0.000      -1       2 
      16      0.000      -1       2 
      17      0.000      -1       2 

Atoms 

     1      1      1 -0.05920000    1.000  1.00000  0.00000
     2      1      2 -0.35600000   -0.430  1.00000  0.00000
     3      1      3 0.44120000   -0.976  1.00000  1.24686
     4      1      4 -0.44110000   -0.338  1.00000  2.29023
     5      1      5 -0.12600000   -2.488  0.99820  1.15546
     6      1      6 -0.20690000   -3.131  0.99997  2.54495
     7      1      7 0.11920000   -4.519  1.55044  2.27707
     8      1      8 -0.26550000   -5.252  1.98487  3.53071
     9      1      9 -0.17660000   -5.245  0.57476  1.66026
    10      1     10 -0.21220000   -4.288  2.67415  1.27523
    11      1     11 -0.14800000   -3.038  2.26776  0.47953
    12      1     12 0.01320000   -3.346  2.05113 -0.99654
    13      1     13 -0.18640000   -3.824  3.21627 -1.51372
    14      1     14 0.10400000    1.339  0.93302 -1.03706
    15      1     15 0.10400000    1.387  0.13382  0.54689
    16      1     16 0.10400000    1.378  1.93290  0.43001
    17      1     17 0.15250000   -2.795  0.08867  0.62109
    18      1     18 0.12980000   -2.581  1.64186  3.24441
    19      1     19 0.12980000   -3.165 -0.01430  2.95690
    20      1     20 0.10210000   -5.403  1.13267  4.20154
    21      1     21 0.10210000   -6.242  2.37896  3.28156
    22      1     22 0.10210000   -4.697  2.75724  4.07361
    23      1     23 0.12290000   -4.089  3.62220  1.78890
    24      1     24 0.12290000   -5.164  2.81316  0.63132
    25      1     25 0.12540000   -2.317  3.09218  0.55164
    26      1     26 0.10130000   -4.105  1.27760 -1.14977
    27      1     27 0.10130000   -2.449  1.78506 -1.56221

Bonds 

     1      1      2      1
     2      2      3      2
     3      3      4      3
     4      4      5      3
     5      5      6      5
     6      6      7      6
     7      7      8      7
     8      8      9      7
     9      9     10      7
    10     10     11      5
    11     11     12     11
    12     12     13     12
    13     13     14      1
    14     14     15      1
    15     15     16      1
    16     16     17      5
    17     17     18      6
    18     18     19      6
    19     19     20      8
    20     20     21      8
    21     21     22      8
    22     22     23     10
    23     23     24     10
    24     24     25     11
    25     25     26     12
    26     26     27     12
    27     27     11     10

Angles 

     1      1      1      2      3
     2      2      2      3      4
     3      3      2      3      5
     4      4      3      5      6
     5      5      5      6      7
     6      6      6      7      8
     7      7      6      7      9
     8      8      6      7     10
     9      9      3      5     11
    10     10      5     11     12
    11     11     11     12     13
    12     12      2      1     14
    13     13      2      1     15
    14     14      2      1     16
    15     15      3      5     17
    16     16      5      6     18
    17     17      5      6     19
    18     18      7      8     20
    19     19      7      8     21
    20     20      7      8     22
    21     21      7     10     23
    22     22      7     10     24
    23     23      5     11     25
    24     24     11     12     26
    25     25     11     12     27
    26     26      9      7     10
    27     27      6      5     11
    28     28     12     11     25
    29     29     18      6     19
    30     30      8      7     10
    31     31      7     10     11
    32     32      8      7      9
    33     33      6      5     17
    34     34      4      3      5
    35     35     20      8     22
    36     36      5     11     10
    37     37     15      1     16
    38     38     14      1     15
    39     39     10     11     12
    40     40      7      6     18
    41     41      7      6     19
    42     42     23     10     24
    43     43     21      8     22
    44     44     20      8     21
    45     45     14      1     16
    46     46     26     12     27
    47     47     10     11     25
    48     48     11     10     23
    49     49     13     12     26
    50     50     13     12     27
    51     51     11     10     24
    52     52     11      5     17

Dihedrals

     1      1      4      3      2      1 
     2      2      6      5      3      2 
     3      3      7      6      5      3 
     4      4      8      7      6      5 
     5      5     13     12     11      5 
     6      6     14      1      2      3 
     7      7     20      8      7      6 
     8      8     25     11     10      7 
     9      9     17      5      6      7 
    10     10     25     11     10     24 
    11     11     10     11      5      3 
    12     12     23     10      7      6 
    13     13     12     11     10      7 
    14     14     17      5     11     12 
    15     15     17      5      3      2 
    16     16     17      5      3      4 
    17     17     19      6      5      3 
    18     18      5      3      2      1 
    19     19     22      8      7     10 
    20     20     19      6      7      9 
    21     21     27     12     11      5 
    22     22     11     10      7      6 
    23     23     12     11      5      3 
    24     24     24     10     11      5 
    25     25     19      6      5     17 
    26     26     20      8      7      9 
    27     27     21      8      7     10 
    28     28     17      5     11     10 
    29     29     11     10      7      9 
    30     30     11     10      7      8 
    31     31      6      5      3      4 
    32     32     11      5      3      4 
    33     33     11      5      6      7 
    34     34      9      7      6      5 
    35     35     26     12     11     10 
    36     36     21      8      7      6 
    37     37     25     11      5      6 
    38     38     25     11     10     23 
    39     39     26     12     11     25 
    40     40     19      6      7     10 
    41     41     18      6      5      3 
    42     42     18      6      5     11 
    43     43     18      6      7      9 
    44     44     10      7      6      5 
    45     45     23     10     11      5 
    46     46     12     11      5      6 
    47     47     19      6      7      8 
    48     48     26     12     11      5 
    49     49     24     10      7      6 
    50     50      7     10     11      5 
    51     51     11      5      3      2 
    52     52     24     10      7      9 
    53     53     24     10     11     12 
    54     54     27     12     11     25 
    55     55     21      8      7      9 
    56     56     20      8      7     10 
    57     57     10     11      5      6 
    58     58     18      6      7     10 
    59     59     18      6      5     17 
    60     60     19      6      5     11 
    61     61     16      1      2      3 
    62     62     23     10     11     12 
    63     63     22      8      7      6 
    64     64     13     12     11     10 
    65     65     18      6      7      8 
    66     66     25     11      5     17 
    67     67     25     11      5      3 
    68     68     15      1      2      3 
    69     69     22      8      7      9 
    70     70     24     10      7      8 
    71     71     27     12     11     10 
    72     72     23     10      7      9 
    73     73     25     11     12     13 
    74     74     23     10      7      8 

Impropers

     1      1      3      2      4      5 
     2      2      7      9      6      8 
     3      3      7     10      6      8 
     4      4      5     11      3      6 
     5      5     11     10     12      5 
     6      6      1      2     14     15 
     7      7      1      2     14     16 
     8      8      5     17      3      6 
     9      9      6     18      5      7 
    10     10      6     19      5      7 
    11     11      8     20     21      7 
    12     12      8     20     22      7 
    13     13     10     11      7     23 
    14     14     10     11      7     24 
    15     15     11     25     10      5 
    16     16     12     26     11     13 
    17     17     12     27     13     11 

