LAMMPS data file Created by LigParGen - (Written by Leela S. Dodda)

      37 atoms
      37 bonds
      70 angles
     101 dihedrals
      23 impropers
 
      37 atom types
      37 bond types
      70 angle types
     101 dihedral types
      23 improper types
 
   -4.574430    45.425570 xlo xhi
   -0.410430    49.589570 ylo yhi
   -1.023920    48.976080 zlo zhi

Masses

       1     12.011  
       2     12.011  
       3     12.011  
       4     15.999  
       5     12.011  
       6     15.999  
       7     12.011  
       8     12.011  
       9     12.011  
      10     12.011  
      11     12.011  
      12     15.999  
      13     12.011  
      14     12.011  
      15     12.011  
      16     12.011  
      17     15.999  
      18      1.008  
      19      1.008  
      20      1.008  
      21      1.008  
      22      1.008  
      23      1.008  
      24      1.008  
      25      1.008  
      26      1.008  
      27      1.008  
      28      1.008  
      29      1.008  
      30      1.008  
      31      1.008  
      32      1.008  
      33      1.008  
      34      1.008  
      35      1.008  
      36      1.008  
      37      1.008  

Pair Coeffs 

       1      0.066  3.5000000 
       2      0.066  3.5000000 
       3      0.066  3.5000000 
       4      0.140  2.9000000 
       5      0.070  3.5500000 
       6      0.210  2.9600000 
       7      0.066  3.5000000 
       8      0.066  3.5000000 
       9      0.066  3.5000000 
      10      0.066  3.5000000 
      11      0.070  3.5500000 
      12      0.210  2.9600000 
      13      0.066  3.5000000 
      14      0.066  3.5000000 
      15      0.066  3.5000000 
      16      0.070  3.5500000 
      17      0.210  2.9600000 
      18      0.030  2.5000000 
      19      0.030  2.5000000 
      20      0.030  2.5000000 
      21      0.030  2.5000000 
      22      0.030  2.5000000 
      23      0.030  2.5000000 
      24      0.030  2.5000000 
      25      0.030  2.5000000 
      26      0.030  2.5000000 
      27      0.030  2.5000000 
      28      0.030  2.5000000 
      29      0.030  2.5000000 
      30      0.030  2.5000000 
      31      0.030  2.5000000 
      32      0.030  2.5000000 
      33      0.030  2.5000000 
      34      0.030  2.5000000 
      35      0.030  2.5000000 
      36      0.030  2.5000000 
      37      0.030  2.5000000 

Bond Coeffs 

       1   268.0000     1.5290 
       2   268.0000     1.5290 
       3   320.0000     1.4100 
       4   214.0000     1.3270 
       5   570.0000     1.2290 
       6   317.0000     1.5220 
       7   268.0000     1.5290 
       8   268.0000     1.5290 
       9   268.0000     1.5290 
      10   317.0000     1.5220 
      11   570.0000     1.2290 
      12   268.0000     1.5290 
      13   268.0000     1.5290 
      14   268.0000     1.5290 
      15   317.0000     1.5220 
      16   570.0000     1.2290 
      17   340.0000     1.0900 
      18   340.0000     1.0900 
      19   340.0000     1.0900 
      20   340.0000     1.0900 
      21   340.0000     1.0900 
      22   340.0000     1.0900 
      23   340.0000     1.0900 
      24   340.0000     1.0900 
      25   340.0000     1.0900 
      26   340.0000     1.0900 
      27   340.0000     1.0900 
      28   340.0000     1.0900 
      29   340.0000     1.0900 
      30   340.0000     1.0900 
      31   340.0000     1.0900 
      32   340.0000     1.0900 
      33   340.0000     1.0900 
      34   340.0000     1.0900 
      35   340.0000     1.0900 
      36   340.0000     1.0900 
      37   317.0000     1.5220 

Angle Coeffs 

       1     58.350    112.700
       2     50.000    109.500
       3     83.000    116.900
       4     83.000    123.400
       5     81.000    111.400
       6     63.000    111.100
       7     58.350    112.700
       8     58.350    112.700
       9     63.000    111.100
      10     80.000    120.400
      11     63.000    111.100
      12     58.350    112.700
      13     58.350    112.700
      14     63.000    111.100
      15     80.000    120.400
      16     37.500    110.700
      17     37.500    110.700
      18     37.500    110.700
      19     37.500    110.700
      20     37.500    110.700
      21     37.500    110.700
      22     35.000    109.500
      23     37.500    110.700
      24     37.500    110.700
      25     37.500    110.700
      26     37.500    110.700
      27     37.500    110.700
      28     37.500    110.700
      29     35.000    115.000
      30     37.500    110.700
      31     37.500    110.700
      32     37.500    110.700
      33     37.500    110.700
      34     37.500    110.700
      35     37.500    110.700
      36     33.000    107.800
      37     80.000    120.400
      38     35.000    123.000
      39     37.500    110.700
      40     37.500    110.700
      41     35.000    109.500
      42     35.000    109.500
      43     33.000    107.800
      44     37.500    110.700
      45     33.000    107.800
      46     35.000    109.500
      47     33.000    107.800
      48     33.000    107.800
      49     63.000    111.100
      50     58.350    112.700
      51     58.350    112.700
      52     35.000    109.500
      53     37.500    110.700
      54     33.000    107.800
      55     37.500    110.700
      56     33.000    107.800
      57     80.000    120.400
      58     70.000    116.000
      59     33.000    107.800
      60     33.000    107.800
      61     33.000    107.800
      62     35.000    109.500
      63     37.500    110.700
      64     50.000    109.500
      65     33.000    107.800
      66     37.500    110.700
      67     33.000    107.800
      68     37.500    110.700
      69     37.500    110.700
      70     63.000    111.100

Dihedral Coeffs  

       1      1.711     -0.500      0.663      0.000 
       2     -1.220     -0.126      0.422      0.000 
       3      0.000      5.124      0.000      0.000 
       4      0.000      0.000     -0.553      0.000 
       5     -2.060     -0.313      0.315      0.000 
       6      1.300     -0.200      0.200      0.000 
       7      0.000      0.000      0.000      0.000 
       8     -2.060     -0.313      0.315      0.000 
       9      0.000      0.000      0.300      0.000 
      10      0.000      0.000      0.300      0.000 
      11      0.000      0.000      0.300      0.000 
      12      1.300     -0.200      0.200      0.000 
      13      0.000      0.000      0.132      0.000 
      14      1.300     -0.200      0.200      0.000 
      15      0.000      0.000      0.300      0.000 
      16      0.000      0.000     -0.100      0.000 
      17      0.000      0.000      0.275      0.000 
      18     -2.060     -0.313      0.315      0.000 
      19      0.000      0.000      0.300      0.000 
      20      0.000      0.000      0.198      0.000 
      21     -2.060     -0.313      0.315      0.000 
      22      0.000      0.000      0.000      0.000 
      23      0.000      0.000      0.300      0.000 
      24      0.000      0.000     -0.100      0.000 
      25      0.000      0.000      0.300      0.000 
      26      0.000      0.000      0.000      0.000 
      27      0.000      0.000      0.300      0.000 
      28      0.000      0.000     -0.100      0.000 
      29      0.000      0.000      0.300      0.000 
      30      0.000      0.000      0.300      0.000 
      31      0.000      0.000      0.300      0.000 
      32      0.000      0.000      0.300      0.000 
      33      0.000      0.000      0.300      0.000 
      34      1.300     -0.200      0.200      0.000 
      35      0.000      0.000      0.300      0.000 
      36      0.000      0.000      0.300      0.000 
      37      0.000      0.000     -0.100      0.000 
      38      0.000      0.000      0.300      0.000 
      39     -2.060     -0.313      0.315      0.000 
      40      0.000      0.000      0.300      0.000 
      41      0.000      0.000      0.300      0.000 
      42      0.000      0.000      0.300      0.000 
      43      0.000      0.000      0.300      0.000 
      44      0.000      0.000      0.300      0.000 
      45      0.000      0.000      0.300      0.000 
      46      0.000      0.000      0.300      0.000 
      47      0.000      0.000     -0.100      0.000 
      48      0.000      0.000      0.275      0.000 
      49      0.000      0.000      0.000      0.000 
      50      1.711     -0.500      0.663      0.000 
      51      1.454     -0.144     -0.775      0.000 
      52      0.000      0.000      0.300      0.000 
      53      0.000      0.000      0.300      0.000 
      54     -2.060     -0.313      0.315      0.000 
      55      1.454     -0.144     -0.775      0.000 
      56      0.000      0.000     -0.100      0.000 
      57      0.000      0.000      0.000      0.000 
      58      0.000      0.000      0.300      0.000 
      59      0.000      0.000      0.300      0.000 
      60      0.000      0.000      0.360      0.000 
      61      0.000      0.000      0.000      0.000 
      62      0.000      0.000      0.300      0.000 
      63      0.000      0.000      0.300      0.000 
      64      0.000      0.000      0.300      0.000 
      65      0.000      0.000     -0.100      0.000 
      66      0.000      0.000      0.000      0.000 
      67      0.000      0.000      0.300      0.000 
      68      0.000      0.000      0.300      0.000 
      69      0.000      0.000      0.275      0.000 
      70      0.000      0.000      0.000      0.000 
      71      0.000      0.000      0.300      0.000 
      72      0.000      0.000      0.300      0.000 
      73      0.000      0.000     -0.100      0.000 
      74      0.000      0.000      0.000      0.000 
      75      0.000      0.000      0.300      0.000 
      76      0.000      0.000     -0.553      0.000 
      77      0.000      0.000      0.300      0.000 
      78      0.000      0.000      0.300      0.000 
      79      0.000      0.000      0.300      0.000 
      80      0.000      0.000      0.468      0.000 
      81     -2.060     -0.313      0.315      0.000 
      82      0.000      0.000      0.300      0.000 
      83      0.000      0.000     -0.100      0.000 
      84      0.000      0.000      0.300      0.000 
      85      0.000      0.000      0.000      0.000 
      86      0.000      0.000      0.300      0.000 
      87      0.000      0.000      0.000      0.000 
      88      0.000      0.000     -0.100      0.000 
      89      4.669      5.124      0.000      0.000 
      90      0.000      0.000      0.300      0.000 
      91      0.000      0.000      0.468      0.000 
      92      0.000      0.000      0.300      0.000 
      93      0.000      0.000      0.300      0.000 
      94      0.000      0.000      0.300      0.000 
      95      0.000      0.000      0.300      0.000 
      96      0.000      0.000      0.000      0.000 
      97      0.000      0.000      0.300      0.000 
      98      0.000      0.000      0.000      0.000 
      99      0.000      0.000      0.000      0.000 
     100      0.000      0.000     -0.100      0.000 
     101     -1.220     -0.126      0.422      0.000 

Improper Coeffs 

       1     10.500      -1       2 
       2      0.000      -1       2 
       3      0.000      -1       2 
       4      0.000      -1       2 
       5      0.000      -1       2 
       6     10.500      -1       2 
       7      0.000      -1       2 
       8      0.000      -1       2 
       9      0.000      -1       2 
      10      0.000      -1       2 
      11      0.000      -1       2 
      12      0.000      -1       2 
      13      0.000      -1       2 
      14      0.000      -1       2 
      15      0.000      -1       2 
      16      0.000      -1       2 
      17      0.000      -1       2 
      18     10.500      -1       2 
      19      0.000      -1       2 
      20      0.000      -1       2 
      21      0.000      -1       2 
      22      0.000      -1       2 
      23      0.000      -1       2 

Atoms 

     1      1      1 -0.24020000    1.000  1.00000  0.00000
     2      1      2 -0.17390000   -0.521  1.00000  0.00000
     3      1      3 0.04740000   -1.114  1.00000  1.41442
     4      1      4 -0.38000000   -0.755  2.20740  2.09596
     5      1      5 0.45750000   -1.173  2.25981  3.39171
     6      1      6 -0.37390000   -0.441  1.99158  4.33114
     7      1      7 -0.15840000   -2.629  2.68594  3.50692
     8      1      8 -0.15840000   -2.843  3.67837  4.67211
     9      1      9 -0.18880000   -2.069  5.00877  4.62679
    10      1     10 -0.23680000   -2.372  5.86718  3.40338
    11      1     11 0.31730000   -2.397  5.83704  5.86558
    12      1     12 -0.44100000   -3.162  5.48561  6.75587
    13      1     13 -0.08720000   -3.575  1.44758  3.60653
    14      1     14 -0.24570000   -3.702  0.84985  5.01604
    15      1     15 -0.24590000   -3.238  0.29647  2.64464
    16      1     16 0.33300000   -2.636  0.81429  1.34657
    17      1     17 -0.40500000   -3.314  1.11993  0.36776
    18      1     18 0.09000000    1.375  0.89596 -1.02392
    19      1     19 0.09000000    1.393  0.16431  0.58722
    20      1     20 0.09000000    1.396  1.93239  0.41290
    21      1     21 0.11690000   -0.871  0.11354 -0.54433
    22      1     22 0.11690000   -0.867  1.88094 -0.55388
    23      1     23 0.11820000   -0.688  0.14533  1.95731
    24      1     24 0.13640000   -2.882  3.21931  2.58057
    25      1     25 0.11750000   -2.564  3.18661  5.61250
    26      1     26 0.11750000   -3.917  3.89865  4.73968
    27      1     27 0.13750000   -0.992  4.80922  4.66637
    28      1     28 0.09350000   -3.439  6.10703  3.33834
    29      1     29 0.09350000   -2.068  5.37072  2.47811
    30      1     30 0.09350000   -1.831  6.82041  3.45804
    31      1     31 0.11000000   -1.887  6.81500  5.92765
    32      1     32 0.11760000   -4.574  1.81453  3.33392
    33      1     33 0.09640000   -2.748  0.43621  5.36018
    34      1     34 0.09640000   -4.438  0.03748  5.01648
    35      1     35 0.09640000   -4.046  1.58382  5.74930
    36      1     36 0.12580000   -4.140 -0.28670  2.42147
    37      1     37 0.12580000   -2.532 -0.41043  3.09883

Bonds 

     1      1      2      1
     2      2      3      2
     3      3      4      3
     4      4      5      4
     5      5      6      5
     6      6      7      5
     7      7      8      7
     8      8      9      8
     9      9     10      9
    10     10     11      9
    11     11     12     11
    12     12     13      7
    13     13     14     13
    14     14     15     13
    15     15     16      3
    16     16     17     16
    17     17     18      1
    18     18     19      1
    19     19     20      1
    20     20     21      2
    21     21     22      2
    22     22     23      3
    23     23     24      7
    24     24     25      8
    25     25     26      8
    26     26     27      9
    27     27     28     10
    28     28     29     10
    29     29     30     10
    30     30     31     11
    31     31     32     13
    32     32     33     14
    33     33     34     14
    34     34     35     14
    35     35     36     15
    36     36     37     15
    37     37     16     15

Angles 

     1      1      1      2      3
     2      2      2      3      4
     3      3      3      4      5
     4      4      4      5      6
     5      5      4      5      7
     6      6      5      7      8
     7      7      7      8      9
     8      8      8      9     10
     9      9      8      9     11
    10     10      9     11     12
    11     11      5      7     13
    12     12      7     13     14
    13     13      7     13     15
    14     14      2      3     16
    15     15      3     16     17
    16     16      2      1     18
    17     17      2      1     19
    18     18      2      1     20
    19     19      1      2     21
    20     20      1      2     22
    21     21      2      3     23
    22     22      5      7     24
    23     23      7      8     25
    24     24      7      8     26
    25     25      8      9     27
    26     26      9     10     28
    27     27      9     10     29
    28     28      9     10     30
    29     29      9     11     31
    30     30      7     13     32
    31     31     13     14     33
    32     32     13     14     34
    33     33     13     14     35
    34     34     13     15     36
    35     35     13     15     37
    36     36     33     14     34
    37     37     15     16     17
    38     38     12     11     31
    39     39      9      8     25
    40     40     14     13     32
    41     41     16     15     36
    42     42     16     15     37
    43     43     34     14     35
    44     44      3      2     21
    45     45     29     10     30
    46     46     11      9     27
    47     47     28     10     29
    48     48     33     14     35
    49     49     10      9     11
    50     50      8      7     13
    51     51     14     13     15
    52     52      4      3     23
    53     53      3      2     22
    54     54     36     15     37
    55     55     13      7     24
    56     56     18      1     19
    57     57      6      5      7
    58     58      3     16     15
    59     59     21      2     22
    60     60     25      8     26
    61     61     18      1     20
    62     62     16      3     23
    63     63      9      8     26
    64     64      4      3     16
    65     65     19      1     20
    66     66      8      7     24
    67     67     28     10     30
    68     68     15     13     32
    69     69     10      9     27
    70     70     13     15     16

Dihedrals

     1      1      4      3      2      1 
     2      2      5      4      3      2 
     3      3      6      5      4      3 
     4      4      8      7      5      4 
     5      5      9      8      7      5 
     6      6     10      9      8      7 
     7      7     12     11      9      8 
     8      8     14     13      7      5 
     9      9     18      1      2      3 
    10     10     28     10      9      8 
    11     11     33     14     13      7 
    12     12     14     13      7      8 
    13     13     24      7      5      4 
    14     14     15     13      7      8 
    15     15     19      1      2      3 
    16     16     26      8      7      5 
    17     17     37     15     16      3 
    18     18     16      3      2      1 
    19     19     36     15     13     32 
    20     20     23      3      4      5 
    21     21     11      9      8      7 
    22     22     24      7      5      6 
    23     23     33     14     13     15 
    24     24     25      8      9     11 
    25     25     26      8      9     10 
    26     26     36     15     16     17 
    27     27     37     15     13      7 
    28     28     32     13     15     16 
    29     29     35     14     13     32 
    30     30     34     14     13     32 
    31     31     23      3      2     22 
    32     32     27      9      8      7 
    33     33     27      9      8     25 
    34     34     13      7      8      9 
    35     35     35     14     13      7 
    36     36     24      7     13     15 
    37     37     22      2      3     16 
    38     38     24      7     13     14 
    39     39     16     15     13     14 
    40     40     22      2      1     20 
    41     41     24      7      8      9 
    42     42     29     10      9      8 
    43     43     21      2      1     18 
    44     44     26      8      7     13 
    45     45     37     15     13     32 
    46     46     32     13      7     24 
    47     47     29     10      9     11 
    48     48     23      3     16     15 
    49     49     17     16      3      2 
    50     50     15     16      3      4 
    51     51     15     16      3      2 
    52     52     36     15     13      7 
    53     53     33     14     13     32 
    54     54     15     13      7      5 
    55     55     13     15     16      3 
    56     56     26      8      9     11 
    57     57     13      7      5      6 
    58     58     21      2      1     20 
    59     59     22      2      1     19 
    60     60     31     11      9     27 
    61     61     27      9     11     12 
    62     62     34     14     13      7 
    63     63     26      8      7     24 
    64     64     28     10      9     27 
    65     65     30     10      9     11 
    66     66     31     11      9     10 
    67     67     25      8      9     10 
    68     68     25      8      7     13 
    69     69     36     15     16      3 
    70     70     12     11      9     10 
    71     71     36     15     13     14 
    72     72     27      9      8     26 
    73     73     32     13      7      5 
    74     74     31     11      9      8 
    75     75     23      3      2      1 
    76     76     13      7      5      4 
    77     77     29     10      9     27 
    78     78     25      8      7     24 
    79     79     23      3      2     21 
    80     80     21      2      3      4 
    81     81     16     15     13      7 
    82     82     20      1      2      3 
    83     83     25      8      7      5 
    84     84     35     14     13     15 
    85     85     17     16     15     13 
    86     86     37     15     13     14 
    87     87      8      7      5      6 
    88     88     21      2      3     16 
    89     89      7      5      4      3 
    90     90     34     14     13     15 
    91     91     22      2      3      4 
    92     92     22      2      1     18 
    93     93     21      2      1     19 
    94     94     30     10      9      8 
    95     95     32     13      7      8 
    96     96     23      3     16     17 
    97     97     30     10      9     27 
    98     98     37     15     16     17 
    99     99     17     16      3      4 
   100    100     28     10      9     11 
   101    101     16      3      4      5 

Impropers

     1      1      5      4      6      7 
     2      2      9     10     11      8 
     3      3      7      5     13      8 
     4      4     13      7     15     14 
     5      5      3      2      4     16 
     6      6     16     17      3     15 
     7      7      1      2     19     18 
     8      8      1      2     20     18 
     9      9      2      1      3     21 
    10     10      2      1      3     22 
    11     11      3      2      4     23 
    12     12      7      8      5     24 
    13     13      8     25      9      7 
    14     14      8      9     26      7 
    15     15      9     10     27      8 
    16     16     10      9     28     29 
    17     17     10      9     28     30 
    18     18     11      9     12     31 
    19     19     13     14      7     32 
    20     20     14     33     34     13 
    21     21     14     33     35     13 
    22     22     15     36     13     16 
    23     23     15     13     37     16 

