LAMMPS data file Created by LigParGen - (Written by Leela S. Dodda)

      40 atoms
      39 bonds
      75 angles
     102 dihedrals
      25 impropers
 
      40 atom types
      39 bond types
      75 angle types
     102 dihedral types
      25 improper types
 
   -6.443340    43.556660 xlo xhi
   -1.940700    48.059300 ylo yhi
   -2.123380    47.876620 zlo zhi

Masses

       1     12.011  
       2     12.011  
       3     12.011  
       4     12.011  
       5     12.011  
       6     15.999  
       7     12.011  
       8     12.011  
       9     12.011  
      10     12.011  
      11     12.011  
      12     12.011  
      13     12.011  
      14     12.011  
      15      1.008  
      16      1.008  
      17      1.008  
      18      1.008  
      19      1.008  
      20      1.008  
      21      1.008  
      22      1.008  
      23      1.008  
      24      1.008  
      25      1.008  
      26      1.008  
      27      1.008  
      28      1.008  
      29      1.008  
      30      1.008  
      31      1.008  
      32      1.008  
      33      1.008  
      34      1.008  
      35      1.008  
      36      1.008  
      37      1.008  
      38      1.008  
      39      1.008  
      40      1.008  

Pair Coeffs 

       1      0.066  3.5000000 
       2      0.066  3.5000000 
       3      0.066  3.5000000 
       4      0.066  3.5000000 
       5      0.070  3.5500000 
       6      0.210  2.9600000 
       7      0.066  3.5000000 
       8      0.066  3.5000000 
       9      0.066  3.5000000 
      10      0.066  3.5000000 
      11      0.066  3.5000000 
      12      0.066  3.5000000 
      13      0.066  3.5000000 
      14      0.066  3.5000000 
      15      0.030  2.5000000 
      16      0.030  2.5000000 
      17      0.030  2.5000000 
      18      0.030  2.5000000 
      19      0.030  2.5000000 
      20      0.030  2.5000000 
      21      0.030  2.5000000 
      22      0.030  2.5000000 
      23      0.030  2.5000000 
      24      0.030  2.5000000 
      25      0.030  2.5000000 
      26      0.030  2.5000000 
      27      0.030  2.5000000 
      28      0.030  2.5000000 
      29      0.030  2.5000000 
      30      0.030  2.5000000 
      31      0.030  2.5000000 
      32      0.030  2.5000000 
      33      0.030  2.5000000 
      34      0.030  2.5000000 
      35      0.030  2.5000000 
      36      0.030  2.5000000 
      37      0.030  2.5000000 
      38      0.030  2.5000000 
      39      0.030  2.5000000 
      40      0.030  2.5000000 

Bond Coeffs 

       1   268.0000     1.5290 
       2   268.0000     1.5290 
       3   268.0000     1.5290 
       4   317.0000     1.5220 
       5   570.0000     1.2290 
       6   317.0000     1.5220 
       7   268.0000     1.5290 
       8   268.0000     1.5290 
       9   268.0000     1.5290 
      10   268.0000     1.5290 
      11   268.0000     1.5290 
      12   268.0000     1.5290 
      13   268.0000     1.5290 
      14   340.0000     1.0900 
      15   340.0000     1.0900 
      16   340.0000     1.0900 
      17   340.0000     1.0900 
      18   340.0000     1.0900 
      19   340.0000     1.0900 
      20   340.0000     1.0900 
      21   340.0000     1.0900 
      22   340.0000     1.0900 
      23   340.0000     1.0900 
      24   340.0000     1.0900 
      25   340.0000     1.0900 
      26   340.0000     1.0900 
      27   340.0000     1.0900 
      28   340.0000     1.0900 
      29   340.0000     1.0900 
      30   340.0000     1.0900 
      31   340.0000     1.0900 
      32   340.0000     1.0900 
      33   340.0000     1.0900 
      34   340.0000     1.0900 
      35   340.0000     1.0900 
      36   340.0000     1.0900 
      37   340.0000     1.0900 
      38   340.0000     1.0900 
      39   340.0000     1.0900 

Angle Coeffs 

       1     58.350    112.700
       2     58.350    112.700
       3     63.000    111.100
       4     80.000    120.400
       5     70.000    116.000
       6     63.000    111.100
       7     58.350    112.700
       8     58.350    112.700
       9     58.350    112.700
      10     58.350    112.700
      11     58.350    112.700
      12     58.350    112.700
      13     37.500    110.700
      14     37.500    110.700
      15     37.500    110.700
      16     37.500    110.700
      17     37.500    110.700
      18     37.500    110.700
      19     37.500    110.700
      20     37.500    110.700
      21     35.000    109.500
      22     35.000    109.500
      23     37.500    110.700
      24     37.500    110.700
      25     37.500    110.700
      26     37.500    110.700
      27     37.500    110.700
      28     37.500    110.700
      29     37.500    110.700
      30     37.500    110.700
      31     37.500    110.700
      32     37.500    110.700
      33     37.500    110.700
      34     37.500    110.700
      35     37.500    110.700
      36     37.500    110.700
      37     37.500    110.700
      38     37.500    110.700
      39     37.500    110.700
      40     33.000    107.800
      41     33.000    107.800
      42     33.000    107.800
      43     37.500    110.700
      44     37.500    110.700
      45     58.350    112.700
      46     37.500    110.700
      47     37.500    110.700
      48     37.500    110.700
      49     33.000    107.800
      50     33.000    107.800
      51     63.000    111.100
      52     37.500    110.700
      53     33.000    107.800
      54     33.000    107.800
      55     58.350    112.700
      56     37.500    110.700
      57     33.000    107.800
      58     33.000    107.800
      59     37.500    110.700
      60     35.000    109.500
      61     33.000    107.800
      62     37.500    110.700
      63     33.000    107.800
      64     33.000    107.800
      65     37.500    110.700
      66     33.000    107.800
      67     37.500    110.700
      68     33.000    107.800
      69     37.500    110.700
      70     33.000    107.800
      71     33.000    107.800
      72     33.000    107.800
      73     33.000    107.800
      74     80.000    120.400
      75     33.000    107.800

Dihedral Coeffs  

       1      1.300     -0.200      0.200      0.000 
       2     -2.060     -0.313      0.315      0.000 
       3      0.000      0.000      0.000      0.000 
       4      1.454     -0.144     -0.775      0.000 
       5      1.300     -0.200      0.200      0.000 
       6      1.300     -0.200      0.200      0.000 
       7      1.300     -0.200      0.200      0.000 
       8      0.000      0.000      0.300      0.000 
       9      0.000      0.000     -0.100      0.000 
      10      0.000      0.000      0.300      0.000 
      11      0.000      0.000      0.300      0.000 
      12      0.000      0.000      0.300      0.000 
      13      0.000      0.000      0.275      0.000 
      14      0.000      0.000      0.300      0.000 
      15      0.000      0.000      0.300      0.000 
      16      0.000      0.000      0.300      0.000 
      17      0.000      0.000      0.300      0.000 
      18      0.000      0.000      0.300      0.000 
      19      0.000      0.000      0.300      0.000 
      20      0.000      0.000      0.300      0.000 
      21      1.300     -0.200      0.200      0.000 
      22      0.000      0.000      0.300      0.000 
      23      0.000      0.000      0.300      0.000 
      24      0.000      0.000      0.300      0.000 
      25      0.000      0.000      0.275      0.000 
      26      0.000      0.000      0.000      0.000 
      27      0.000      0.000     -0.100      0.000 
      28      0.000      0.000      0.300      0.000 
      29      0.000      0.000      0.300      0.000 
      30      0.000      0.000      0.300      0.000 
      31      0.000      0.000      0.300      0.000 
      32      0.000      0.000      0.300      0.000 
      33      0.000      0.000      0.000      0.000 
      34      0.000      0.000      0.300      0.000 
      35     -2.060     -0.313      0.315      0.000 
      36      0.000      0.000      0.300      0.000 
      37      0.000      0.000      0.300      0.000 
      38      0.000      0.000      0.300      0.000 
      39      0.000      0.000      0.275      0.000 
      40      0.000      0.000      0.300      0.000 
      41      0.000      0.000      0.300      0.000 
      42      0.000      0.000      0.300      0.000 
      43      0.000      0.000      0.300      0.000 
      44      0.000      0.000      0.300      0.000 
      45      0.000      0.000      0.300      0.000 
      46      1.300     -0.200      0.200      0.000 
      47      0.000      0.000      0.300      0.000 
      48      0.000      0.000      0.300      0.000 
      49      0.000      0.000      0.300      0.000 
      50      1.300     -0.200      0.200      0.000 
      51      0.000      0.000      0.300      0.000 
      52      0.000      0.000      0.300      0.000 
      53      0.000      0.000      0.300      0.000 
      54      0.000      0.000     -0.100      0.000 
      55      0.000      0.000      0.300      0.000 
      56      0.000      0.000      0.300      0.000 
      57      0.000      0.000      0.300      0.000 
      58      0.000      0.000      0.300      0.000 
      59      0.000      0.000      0.300      0.000 
      60      0.000      0.000      0.300      0.000 
      61      0.000      0.000      0.300      0.000 
      62      0.000      0.000      0.300      0.000 
      63      0.000      0.000      0.300      0.000 
      64      0.000      0.000      0.300      0.000 
      65      0.000      0.000     -0.100      0.000 
      66      1.300     -0.200      0.200      0.000 
      67      0.000      0.000      0.300      0.000 
      68      0.000      0.000     -0.100      0.000 
      69      0.000      0.000      0.300      0.000 
      70     -2.060     -0.313      0.315      0.000 
      71      1.300     -0.200      0.200      0.000 
      72      0.000      0.000      0.300      0.000 
      73      1.300     -0.200      0.200      0.000 
      74      0.000      0.000      0.300      0.000 
      75      0.000      0.000      0.300      0.000 
      76      0.000      0.000      0.300      0.000 
      77      0.000      0.000      0.300      0.000 
      78      0.000      0.000      0.300      0.000 
      79      0.000      0.000      0.300      0.000 
      80      0.000      0.000      0.000      0.000 
      81      0.000      0.000     -0.100      0.000 
      82      0.000      0.000      0.300      0.000 
      83      0.000      0.000      0.300      0.000 
      84      0.000      0.000      0.300      0.000 
      85      0.000      0.000      0.300      0.000 
      86      0.000      0.000      0.300      0.000 
      87      0.000      0.000      0.300      0.000 
      88      0.000      0.000      0.000      0.000 
      89      1.454     -0.144     -0.775      0.000 
      90      0.000      0.000      0.300      0.000 
      91      0.000      0.000      0.300      0.000 
      92      0.000      0.000      0.300      0.000 
      93      0.000      0.000      0.300      0.000 
      94      0.000      0.000      0.000      0.000 
      95      0.000      0.000      0.300      0.000 
      96      0.000      0.000      0.300      0.000 
      97      1.454     -0.144     -0.775      0.000 
      98      0.000      0.000      0.300      0.000 
      99      0.000      0.000      0.300      0.000 
     100      0.000      0.000      0.300      0.000 
     101      0.000      0.000      0.300      0.000 
     102      0.000      0.000      0.300      0.000 

Improper Coeffs 

       1     10.500      -1       2 
       2      0.000      -1       2 
       3      0.000      -1       2 
       4      0.000      -1       2 
       5      0.000      -1       2 
       6      0.000      -1       2 
       7      0.000      -1       2 
       8      0.000      -1       2 
       9      0.000      -1       2 
      10      0.000      -1       2 
      11      0.000      -1       2 
      12      0.000      -1       2 
      13      0.000      -1       2 
      14      0.000      -1       2 
      15      0.000      -1       2 
      16      0.000      -1       2 
      17      0.000      -1       2 
      18      0.000      -1       2 
      19      0.000      -1       2 
      20      0.000      -1       2 
      21      0.000      -1       2 
      22      0.000      -1       2 
      23      0.000      -1       2 
      24      0.000      -1       2 
      25      0.000      -1       2 

Atoms 

     1      1      1 -0.23860000    1.000  1.00000  0.00000
     2      1      2 -0.18360000   -0.524  1.00000  0.00000
     3      1      3 -0.17290000   -1.071  1.00000  1.43368
     4      1      4 -0.15380000   -2.623  0.99822  1.55027
     5      1      5 0.37070000   -3.116 -0.22530  0.77564
     6      1      6 -0.45070000   -2.873 -1.36951  1.16403
     7      1      7 -0.23350000   -3.864  0.05372 -0.52483
     8      1      8 -0.23300000   -4.409 -1.21105 -1.16618
     9      1      9 -0.08590000   -3.108  0.99297  3.05416
    10      1     10 -0.17670000   -2.430  2.14225  3.86617
    11      1     11 -0.23710000   -2.856  3.55215  3.46756
    12      1     12 -0.10850000   -4.671  1.00704  3.26326
    13      1     13 -0.24420000   -5.400 -0.22946  2.71948
    14      1     14 -0.23580000   -5.052  1.09669  4.75515
    15      1     15 0.08340000    1.382  1.00130 -1.02553
    16      1     16 0.08340000    1.387  0.11036  0.50299
    17      1     17 0.08340000    1.398  1.88186  0.51236
    18      1     18 0.08920000   -0.861  0.11654 -0.55111
    19      1     19 0.08920000   -0.884  1.88660 -0.53446
    20      1     20 0.10310000   -0.664  1.89509  1.91230
    21      1     21 0.10310000   -0.668  0.13259  1.97005
    22      1     22 0.10950000   -3.016  1.89147  1.05035
    23      1     23 0.11760000   -3.179  0.54908 -1.21863
    24      1     24 0.11760000   -4.692  0.73874 -0.31324
    25      1     25 0.09130000   -3.613 -1.94070 -1.34343
    26      1     26 0.09130000   -4.883 -0.97751 -2.12338
    27      1     27 0.09130000   -5.157 -1.68248 -0.52021
    28      1     28 0.11200000   -2.742  0.05569  3.49864
    29      1     29 0.08990000   -1.342  2.06611  3.79397
    30      1     30 0.08990000   -2.619  2.00811  4.93733
    31      1     31 0.08050000   -2.905  3.68408  2.38400
    32      1     32 0.08050000   -2.137  4.28114  3.85717
    33      1     33 0.08050000   -3.835  3.80290  3.88627
    34      1     34 0.09300000   -5.086  1.88705  2.75534
    35      1     35 0.08570000   -4.923 -1.15465  3.06001
    36      1     36 0.08570000   -5.450 -0.23129  1.63278
    37      1     37 0.08570000   -6.443 -0.25202  3.05423
    38      1     38 0.08230000   -4.557  0.30615  5.33110
    39      1     39 0.08230000   -6.133  0.98645  4.89533
    40      1     40 0.08230000   -4.785  2.06298  5.19015

Bonds 

     1      1      2      1
     2      2      3      2
     3      3      4      3
     4      4      5      4
     5      5      6      5
     6      6      7      5
     7      7      8      7
     8      8      9      4
     9      9     10      9
    10     10     11     10
    11     11     12      9
    12     12     13     12
    13     13     14     12
    14     14     15      1
    15     15     16      1
    16     16     17      1
    17     17     18      2
    18     18     19      2
    19     19     20      3
    20     20     21      3
    21     21     22      4
    22     22     23      7
    23     23     24      7
    24     24     25      8
    25     25     26      8
    26     26     27      8
    27     27     28      9
    28     28     29     10
    29     29     30     10
    30     30     31     11
    31     31     32     11
    32     32     33     11
    33     33     34     12
    34     34     35     13
    35     35     36     13
    36     36     37     13
    37     37     38     14
    38     38     39     14
    39     39     40     14

Angles 

     1      1      1      2      3
     2      2      2      3      4
     3      3      3      4      5
     4      4      4      5      6
     5      5      4      5      7
     6      6      5      7      8
     7      7      3      4      9
     8      8      4      9     10
     9      9      9     10     11
    10     10      4      9     12
    11     11      9     12     13
    12     12      9     12     14
    13     13      2      1     15
    14     14      2      1     16
    15     15      2      1     17
    16     16      1      2     18
    17     17      1      2     19
    18     18      2      3     20
    19     19      2      3     21
    20     20      3      4     22
    21     21      5      7     23
    22     22      5      7     24
    23     23      7      8     25
    24     24      7      8     26
    25     25      7      8     27
    26     26      4      9     28
    27     27      9     10     29
    28     28      9     10     30
    29     29     10     11     31
    30     30     10     11     32
    31     31     10     11     33
    32     32      9     12     34
    33     33     12     13     35
    34     34     12     13     36
    35     35     12     13     37
    36     36     12     14     38
    37     37     12     14     39
    38     38     12     14     40
    39     39     11     10     30
    40     40     35     13     36
    41     41     25      8     27
    42     42     39     14     40
    43     43      8      7     24
    44     44     14     12     34
    45     45     13     12     14
    46     46     13     12     34
    47     47     10      9     28
    48     48      3      2     18
    49     49     31     11     32
    50     50     15      1     17
    51     51      5      4      9
    52     52     12      9     28
    53     53     29     10     30
    54     54     18      2     19
    55     55     10      9     12
    56     56     11     10     29
    57     57     32     11     33
    58     58     35     13     37
    59     59      8      7     23
    60     60      5      4     22
    61     61     23      7     24
    62     62      3      2     19
    63     63     15      1     16
    64     64     38     14     40
    65     65      4      3     21
    66     66     25      8     26
    67     67      9      4     22
    68     68     16      1     17
    69     69      4      3     20
    70     70     38     14     39
    71     71     31     11     33
    72     72     26      8     27
    73     73     36     13     37
    74     74      6      5      7
    75     75     20      3     21

Dihedrals

     1      1      4      3      2      1 
     2      2      5      4      3      2 
     3      3      6      5      4      3 
     4      4      8      7      5      4 
     5      5     10      9      4      3 
     6      6     11     10      9      4 
     7      7     13     12      9      4 
     8      8     15      1      2      3 
     9      9     25      8      7      5 
    10     10     31     11     10      9 
    11     11     35     13     12      9 
    12     12     38     14     12      9 
    13     13     24      7      5      4 
    14     14     28      9     12     13 
    15     15     36     13     12      9 
    16     16     38     14     12     34 
    17     17     33     11     10     29 
    18     18     40     14     12     34 
    19     19     28      9     12     14 
    20     20     32     11     10     30 
    21     21     14     12      9      4 
    22     22     20      3      2     19 
    23     23     21      3      2     18 
    24     24     39     14     12      9 
    25     25     23      7      5      4 
    26     26     24      7      5      6 
    27     27     26      8      7      5 
    28     28     32     11     10      9 
    29     29     18      2      1     15 
    30     30     27      8      7     24 
    31     31     30     10      9     28 
    32     32     38     14     12     13 
    33     33      9      4      5      6 
    34     34     35     13     12     34 
    35     35     12      9      4      5 
    36     36     34     12      9      4 
    37     37     29     10      9      4 
    38     38     37     13     12     34 
    39     39     22      4      5      7 
    40     40     25      8      7     23 
    41     41     18      2      3      4 
    42     42     20      3      2      1 
    43     43     20      3      2     18 
    44     44     22      4      3     20 
    45     45     22      4      9     12 
    46     46     14     12      9     10 
    47     47     34     12      9     28 
    48     48     21      3      2      1 
    49     49     39     14     12     34 
    50     50     12      9     10     11 
    51     51     34     12      9     10 
    52     52     36     13     12     34 
    53     53     22      4      3      2 
    54     54     20      3      4      5 
    55     55     32     11     10     29 
    56     56     31     11     10     30 
    57     57     20      3      4      9 
    58     58     18      2      1     17 
    59     59     19      2      1     16 
    60     60     35     13     12     14 
    61     61     30     10      9     12 
    62     62     26      8      7     24 
    63     63     27      8      7     23 
    64     64     21      3      2     19 
    65     65     28      9      4      5 
    66     66     13     12      9     10 
    67     67     29     10      9     12 
    68     68     21      3      4      5 
    69     69     28      9      4      3 
    70     70     10      9      4      5 
    71     71     12      9      4      3 
    72     72     16      1      2      3 
    73     73      9      4      3      2 
    74     74     39     14     12     13 
    75     75     33     11     10      9 
    76     76     30     10      9      4 
    77     77     17      1      2      3 
    78     78     25      8      7     24 
    79     79     26      8      7     23 
    80     80     23      7      5      6 
    81     81     27      8      7      5 
    82     82     28      9     10     11 
    83     83     22      4      9     10 
    84     84     37     13     12      9 
    85     85     31     11     10     29 
    86     86     28      9      4     22 
    87     87     19      2      3      4 
    88     88      8      7      5      6 
    89     89      7      5      4      3 
    90     90     22      4      3     21 
    91     91     21      3      4      9 
    92     92     19      2      1     17 
    93     93     37     13     12     14 
    94     94     22      4      5      6 
    95     95     29     10      9     28 
    96     96     36     13     12     14 
    97     97      9      4      5      7 
    98     98     40     14     12     13 
    99     99     33     11     10     30 
   100    100     40     14     12      9 
   101    101     18      2      1     16 
   102    102     19      2      1     15 

Impropers

     1      1      5      4      6      7 
     2      2      4      9      3      5 
     3      3      9      4     12     10 
     4      4     12      9     13     14 
     5      5      1      2     15     16 
     6      6      1     17     15      2 
     7      7      2      1     18      3 
     8      8      2      1     19      3 
     9      9      3      4      2     20 
    10     10      3      2      4     21 
    11     11      4      3      5     22 
    12     12      7      5     23      8 
    13     13      7      8      5     24 
    14     14      8     25     26      7 
    15     15      8     25     27      7 
    16     16      9      4     28     10 
    17     17     10      9     11     29 
    18     18     10      9     11     30 
    19     19     11     10     31     32 
    20     20     11     33     10     31 
    21     21     12      9     34     13 
    22     22     13     12     35     36 
    23     23     13     35     12     37 
    24     24     14     12     39     38 
    25     25     14     38     12     40 

