LAMMPS data file Created by LigParGen - (Written by Leela S. Dodda)

      23 atoms
      23 bonds
      45 angles
      63 dihedrals
      15 impropers
 
      23 atom types
      23 bond types
      45 angle types
      63 dihedral types
      15 improper types
 
   -4.357830    45.642170 xlo xhi
   -2.329530    47.670470 ylo yhi
   -1.023120    48.976880 zlo zhi

Masses

       1     12.011  
       2     12.011  
       3     14.007  
       4     12.011  
       5     12.011  
       6     12.011  
       7     12.011  
       8     12.011  
       9      1.008  
      10      1.008  
      11      1.008  
      12      1.008  
      13      1.008  
      14      1.008  
      15      1.008  
      16      1.008  
      17      1.008  
      18      1.008  
      19      1.008  
      20      1.008  
      21      1.008  
      22      1.008  
      23      1.008  

Pair Coeffs 

       1      0.066  3.5000000 
       2      0.066  3.5000000 
       3      0.170  3.3000000 
       4      0.066  3.5000000 
       5      0.066  3.5000000 
       6      0.066  3.5000000 
       7      0.066  3.5000000 
       8      0.066  3.5000000 
       9      0.030  2.5000000 
      10      0.030  2.5000000 
      11      0.030  2.5000000 
      12      0.030  2.5000000 
      13      0.030  2.5000000 
      14      0.030  2.5000000 
      15      0.030  2.5000000 
      16      0.030  2.5000000 
      17      0.030  2.5000000 
      18      0.030  2.5000000 
      19      0.030  2.5000000 
      20      0.030  2.5000000 
      21      0.030  2.5000000 
      22      0.030  2.5000000 
      23      0.030  2.5000000 

Bond Coeffs 

       1   268.0000     1.5290 
       2   382.0000     1.4480 
       3   382.0000     1.4480 
       4   268.0000     1.5290 
       5   268.0000     1.5290 
       6   268.0000     1.5290 
       7   382.0000     1.4480 
       8   340.0000     1.0900 
       9   340.0000     1.0900 
      10   340.0000     1.0900 
      11   340.0000     1.0900 
      12   340.0000     1.0900 
      13   340.0000     1.0900 
      14   340.0000     1.0900 
      15   340.0000     1.0900 
      16   340.0000     1.0900 
      17   340.0000     1.0900 
      18   340.0000     1.0900 
      19   340.0000     1.0900 
      20   340.0000     1.0900 
      21   340.0000     1.0900 
      22   340.0000     1.0900 
      23   268.0000     1.5290 

Angle Coeffs 

       1     56.200    109.470
       2     51.800    107.200
       3     56.200    109.470
       4     58.350    112.700
       5     58.350    112.700
       6     51.800    107.200
       7     37.500    110.700
       8     37.500    110.700
       9     37.500    110.700
      10     37.500    110.700
      11     37.500    110.700
      12     35.000    109.500
      13     35.000    109.500
      14     37.500    110.700
      15     37.500    110.700
      16     37.500    110.700
      17     37.500    110.700
      18     37.500    110.700
      19     37.500    110.700
      20     35.000    109.500
      21     35.000    109.500
      22     37.500    110.700
      23     37.500    110.700
      24     33.000    107.800
      25     33.000    107.800
      26     33.000    107.800
      27     33.000    107.800
      28     51.800    107.200
      29     37.500    110.700
      30     58.350    112.700
      31     56.200    109.470
      32     33.000    107.800
      33     37.500    110.700
      34     37.500    110.700
      35     35.000    109.500
      36     37.500    110.700
      37     37.500    110.700
      38     33.000    107.800
      39     35.000    109.500
      40     33.000    107.800
      41     37.500    110.700
      42     33.000    107.800
      43     37.500    110.700
      44     33.000    107.800
      45     37.500    110.700

Dihedral Coeffs  

       1      0.416     -0.128      0.695      0.000 
       2      0.416     -0.128      0.695      0.000 
       3      2.392     -0.674      0.550      0.000 
       4      1.300     -0.200      0.200      0.000 
       5     -1.013     -0.709      0.473      0.000 
       6      0.000      0.000      0.300      0.000 
       7      0.000      0.000      0.300      0.000 
       8     -1.013     -0.709      0.473      0.000 
       9      0.000      0.000      0.560      0.000 
      10      0.000      0.000      0.300      0.000 
      11      0.000      0.000      0.300      0.000 
      12      0.000      0.000      0.560      0.000 
      13      0.000      0.000      0.300      0.000 
      14      0.000      0.000      0.560      0.000 
      15     -1.013     -0.709      0.473      0.000 
      16      0.000      0.000      0.560      0.000 
      17      0.000      0.000      0.300      0.000 
      18      0.000      0.000      0.300      0.000 
      19      0.000      0.000      0.300      0.000 
      20      0.000      0.000      0.300      0.000 
      21      0.000      0.000      0.300      0.000 
      22      0.000      0.000      0.560      0.000 
      23      0.000      0.000      0.560      0.000 
      24     -1.013     -0.709      0.473      0.000 
      25      0.416     -0.128      0.695      0.000 
      26      0.000      0.000      0.300      0.000 
      27      2.392     -0.674      0.550      0.000 
      28      0.000      0.000      0.300      0.000 
      29      0.416     -0.128      0.695      0.000 
      30      0.000      0.000      0.300      0.000 
      31      0.000      0.000      0.560      0.000 
      32      0.000      0.000      0.300      0.000 
      33      0.000      0.000      0.300      0.000 
      34      0.416     -0.128      0.695      0.000 
      35      0.000      0.000      0.560      0.000 
      36      0.000      0.000      0.560      0.000 
      37      0.000      0.000      0.300      0.000 
      38      0.000      0.000      0.300      0.000 
      39      0.000      0.000      0.300      0.000 
      40      0.000      0.000      0.300      0.000 
      41      0.000      0.000      0.560      0.000 
      42      0.000      0.000      0.300      0.000 
      43      0.000      0.000      0.300      0.000 
      44      0.000      0.000      0.560      0.000 
      45      0.000      0.000      0.300      0.000 
      46      0.000      0.000      0.300      0.000 
      47     -1.013     -0.709      0.473      0.000 
      48      0.000      0.000      0.300      0.000 
      49      0.416     -0.128      0.695      0.000 
      50      0.000      0.000      0.300      0.000 
      51      0.000      0.000      0.300      0.000 
      52      0.000      0.000      0.300      0.000 
      53     -1.013     -0.709      0.473      0.000 
      54      0.000      0.000      0.300      0.000 
      55      0.000      0.000      0.560      0.000 
      56      0.000      0.000      0.300      0.000 
      57      1.300     -0.200      0.200      0.000 
      58      0.000      0.000      0.300      0.000 
      59      0.000      0.000      0.300      0.000 
      60      0.000      0.000      0.300      0.000 
      61     -1.013     -0.709      0.473      0.000 
      62      0.000      0.000      0.300      0.000 
      63      0.000      0.000      0.300      0.000 

Improper Coeffs 

       1      0.000      -1       2 
       2      0.000      -1       2 
       3      0.000      -1       2 
       4      0.000      -1       2 
       5      0.000      -1       2 
       6      0.000      -1       2 
       7      0.000      -1       2 
       8      0.000      -1       2 
       9      0.000      -1       2 
      10      0.000      -1       2 
      11      0.000      -1       2 
      12      0.000      -1       2 
      13      0.000      -1       2 
      14      0.000      -1       2 
      15      0.000      -1       2 

Atoms 

     1      1      1 -0.24070000    1.000  1.00000  0.00000
     2      1      2 0.01360000   -0.526  1.00000  0.00000
     3      1      3 -0.57500000   -1.125  1.00000  1.34425
     4      1      4 0.01260000   -2.594  1.08858  1.27045
     5      1      5 -0.21500000   -3.270 -0.19425  0.77275
     6      1      6 -0.17310000   -2.823 -1.41482  1.57177
     7      1      7 -0.21520000   -1.303 -1.47466  1.70331
     8      1      8 0.01380000   -0.739 -0.14190  2.18510
     9      1      9 0.08650000    1.368  1.13146 -1.02312
    10      1     10 0.08650000    1.406  0.05363  0.36928
    11      1     11 0.08650000    1.396  1.81809  0.60934
    12      1     12 0.08070000   -0.870  0.15493 -0.60526
    13      1     13 0.08070000   -0.844  1.91180 -0.51982
    14      1     14 0.10170000   -2.893  1.93424  0.63886
    15      1     15 0.10170000   -2.978  1.32549  2.27243
    16      1     16 0.09270000   -3.044 -0.34964 -0.28965
    17      1     17 0.09270000   -4.358 -0.08706  0.84828
    18      1     18 0.08890000   -3.193 -2.32953  1.09580
    19      1     19 0.08890000   -3.268 -1.37006  2.57304
    20      1     20 0.09340000   -0.858 -1.74859  0.73980
    21      1     21 0.09340000   -1.031 -2.26480  2.41240
    22      1     22 0.10230000    0.350 -0.20783  2.28440
    23      1     23 0.10230000   -1.100  0.04558  3.20563

Bonds 

     1      1      2      1
     2      2      3      2
     3      3      4      3
     4      4      5      4
     5      5      6      5
     6      6      7      6
     7      7      8      3
     8      8      9      1
     9      9     10      1
    10     10     11      1
    11     11     12      2
    12     12     13      2
    13     13     14      4
    14     14     15      4
    15     15     16      5
    16     16     17      5
    17     17     18      6
    18     18     19      6
    19     19     20      7
    20     20     21      7
    21     21     22      8
    22     22     23      8
    23     23      8      7

Angles 

     1      1      1      2      3
     2      2      2      3      4
     3      3      3      4      5
     4      4      4      5      6
     5      5      5      6      7
     6      6      2      3      8
     7      7      2      1      9
     8      8      2      1     10
     9      9      2      1     11
    10     10      1      2     12
    11     11      1      2     13
    12     12      3      4     14
    13     13      3      4     15
    14     14      4      5     16
    15     15      4      5     17
    16     16      5      6     18
    17     17      5      6     19
    18     18      6      7     20
    19     19      6      7     21
    20     20      3      8     22
    21     21      3      8     23
    22     22      5      4     14
    23     23      7      6     18
    24     24     12      2     13
    25     25     18      6     19
    26     26     16      5     17
    27     27     14      4     15
    28     28      4      3      8
    29     29      6      5     17
    30     30      6      7      8
    31     31      3      8      7
    32     32     20      7     21
    33     33      7      6     19
    34     34      5      4     15
    35     35      3      2     12
    36     36      7      8     22
    37     37      6      5     16
    38     38     10      1     11
    39     39      3      2     13
    40     40      9      1     10
    41     41      8      7     21
    42     42      9      1     11
    43     43      7      8     23
    44     44     22      8     23
    45     45      8      7     20

Dihedrals

     1      1      4      3      2      1 
     2      2      5      4      3      2 
     3      3      6      5      4      3 
     4      4      7      6      5      4 
     5      5      9      1      2      3 
     6      6     16      5      6      7 
     7      7     20      7      6     19 
     8      8     21      7      8      3 
     9      9     12      2      3      8 
    10     10     19      6      5     17 
    11     11     19      6      5      4 
    12     12     14      4      3      2 
    13     13     18      6      5      4 
    14     14     14      4      3      8 
    15     15     11      1      2      3 
    16     16     23      8      3      2 
    17     17     16      5      4     15 
    18     18     17      5      4     14 
    19     19     23      8      7      6 
    20     20     13      2      1      9 
    21     21     18      6      5     16 
    22     22     15      4      3      8 
    23     23     22      8      3      2 
    24     24     20      7      8      3 
    25     25      7      8      3      4 
    26     26     12      2      1     10 
    27     27      6      7      8      3 
    28     28     13      2      1     11 
    29     29      7      8      3      2 
    30     30     21      7      6     19 
    31     31     12      2      3      4 
    32     32     17      5      6      7 
    33     33     23      8      7     21 
    34     34      8      3      4      5 
    35     35     15      4      3      2 
    36     36     13      2      3      4 
    37     37     22      8      7     21 
    38     38     19      6      7      8 
    39     39     22      8      7     20 
    40     40     12      2      1     11 
    41     41     22      8      3      4 
    42     42     17      5      4     15 
    43     43     21      7      6     18 
    44     44     23      8      3      4 
    45     45     21      7      6      5 
    46     46     19      6      5     16 
    47     47     16      5      4      3 
    48     48     18      6      5     17 
    49     49      8      3      2      1 
    50     50     23      8      7     20 
    51     51     13      2      1     10 
    52     52     22      8      7      6 
    53     53     10      1      2      3 
    54     54     18      6      7      8 
    55     55     13      2      3      8 
    56     56     20      7      6     18 
    57     57      8      7      6      5 
    58     58     15      4      5      6 
    59     59     20      7      6      5 
    60     60     16      5      4     14 
    61     61     17      5      4      3 
    62     62     14      4      5      6 
    63     63     12      2      1      9 

Impropers

     1      1      3      2      4      8 
     2      2      1     10      9      2 
     3      3      1      2     11      9 
     4      4      2      1      3     12 
     5      5      2      1      3     13 
     6      6      4      3      5     14 
     7      7      4      3      5     15 
     8      8      5      4      6     16 
     9      9      5     17      4      6 
    10     10      6     18      5      7 
    11     11      6     19      5      7 
    12     12      7     20      6      8 
    13     13      7     21      6      8 
    14     14      8      3     22      7 
    15     15      8      3      7     23 

