LAMMPS data file Created by LigParGen - (Written by Leela S. Dodda)

      33 atoms
      32 bonds
      60 angles
      82 dihedrals
      20 impropers
 
      33 atom types
      32 bond types
      60 angle types
      82 dihedral types
      20 improper types
 
   -4.683120    45.316880 xlo xhi
   -2.093480    47.906520 ylo yhi
   -1.026720    48.973280 zlo zhi

Masses

       1     12.011  
       2     12.011  
       3     12.011  
       4     12.011  
       5     12.011  
       6     12.011  
       7     12.011  
       8     15.999  
       9     12.011  
      10     15.999  
      11     12.011  
      12     12.011  
      13     12.011  
      14      1.008  
      15      1.008  
      16      1.008  
      17      1.008  
      18      1.008  
      19      1.008  
      20      1.008  
      21      1.008  
      22      1.008  
      23      1.008  
      24      1.008  
      25      1.008  
      26      1.008  
      27      1.008  
      28      1.008  
      29      1.008  
      30      1.008  
      31      1.008  
      32      1.008  
      33      1.008  

Pair Coeffs 

       1      0.066  3.5000000 
       2      0.066  3.5000000 
       3      0.066  3.5000000 
       4      0.066  3.5000000 
       5      0.066  3.5000000 
       6      0.066  3.5000000 
       7      0.070  3.5500000 
       8      0.210  2.9600000 
       9      0.070  3.5500000 
      10      0.210  2.9600000 
      11      0.066  3.5000000 
      12      0.066  3.5000000 
      13      0.066  3.5000000 
      14      0.030  2.5000000 
      15      0.030  2.5000000 
      16      0.030  2.5000000 
      17      0.030  2.5000000 
      18      0.030  2.5000000 
      19      0.030  2.5000000 
      20      0.030  2.5000000 
      21      0.030  2.5000000 
      22      0.030  2.5000000 
      23      0.030  2.5000000 
      24      0.030  2.5000000 
      25      0.030  2.5000000 
      26      0.030  2.5000000 
      27      0.030  2.5000000 
      28      0.030  2.5000000 
      29      0.030  2.5000000 
      30      0.030  2.5000000 
      31      0.030  2.5000000 
      32      0.030  2.5000000 
      33      0.030  2.5000000 

Bond Coeffs 

       1   268.0000     1.5290 
       2   268.0000     1.5290 
       3   268.0000     1.5290 
       4   268.0000     1.5290 
       5   268.0000     1.5290 
       6   317.0000     1.5220 
       7   570.0000     1.2290 
       8   350.0000     1.5100 
       9   570.0000     1.2290 
      10   268.0000     1.5290 
      11   268.0000     1.5290 
      12   268.0000     1.5290 
      13   340.0000     1.0900 
      14   340.0000     1.0900 
      15   340.0000     1.0900 
      16   340.0000     1.0900 
      17   340.0000     1.0900 
      18   340.0000     1.0900 
      19   340.0000     1.0900 
      20   340.0000     1.0900 
      21   340.0000     1.0900 
      22   340.0000     1.0900 
      23   340.0000     1.0900 
      24   340.0000     1.0900 
      25   340.0000     1.0900 
      26   340.0000     1.0900 
      27   340.0000     1.0900 
      28   340.0000     1.0900 
      29   340.0000     1.0900 
      30   340.0000     1.0900 
      31   340.0000     1.0900 
      32   340.0000     1.0900 

Angle Coeffs 

       1     58.350    112.700
       2     58.350    112.700
       3     58.350    112.700
       4     58.350    112.700
       5     63.000    111.100
       6     80.000    120.400
       7     80.000    117.200
       8     80.000    121.400
       9     58.350    112.700
      10     58.350    112.700
      11     58.350    112.700
      12     37.500    110.700
      13     37.500    110.700
      14     37.500    110.700
      15     37.500    110.700
      16     37.500    110.700
      17     37.500    110.700
      18     37.500    110.700
      19     37.500    110.700
      20     37.500    110.700
      21     37.500    110.700
      22     37.500    110.700
      23     37.500    110.700
      24     69.900    118.180
      25     37.500    110.700
      26     37.500    110.700
      27     37.500    110.700
      28     37.500    110.700
      29     37.500    110.700
      30     37.500    110.700
      31     37.500    110.700
      32     58.350    112.700
      33     37.500    110.700
      34     37.500    110.700
      35     33.000    107.800
      36     33.000    107.800
      37     33.000    107.800
      38     37.500    110.700
      39     35.000    109.500
      40     33.000    107.800
      41     33.000    107.800
      42     37.500    110.700
      43     80.000    121.400
      44     37.500    110.700
      45     33.000    107.800
      46     63.000    111.100
      47     33.000    107.800
      48     37.500    110.700
      49     33.000    107.800
      50     33.000    107.800
      51     37.500    110.700
      52     33.000    107.800
      53     35.000    123.000
      54     58.350    112.700
      55     33.000    107.800
      56     33.000    107.800
      57     33.000    107.800
      58     37.500    110.700
      59     37.500    110.700
      60     33.000    107.800

Dihedral Coeffs  

       1      1.300     -0.200      0.200      0.000 
       2      1.300     -0.200      0.200      0.000 
       3     -2.060     -0.313      0.315      0.000 
       4      0.000      0.000      0.000      0.000 
       5      0.000      0.500      0.000      0.000 
       6      1.300     -0.200      0.200      0.000 
       7      0.000      0.000      0.300      0.000 
       8      0.000      0.000      0.300      0.000 
       9      0.000      0.000      0.300      0.000 
      10      0.000      0.000      0.300      0.000 
      11      0.000      0.000      0.300      0.000 
      12      0.000      0.000      0.300      0.000 
      13      0.000      0.000      0.300      0.000 
      14      0.000      0.000      0.300      0.000 
      15      0.000      0.000      0.300      0.000 
      16     -2.060     -0.313      0.315      0.000 
      17      0.000      0.000      0.300      0.000 
      18      0.000      0.000      0.300      0.000 
      19      0.000      0.000      0.085      0.000 
      20     -2.060     -0.313      0.315      0.000 
      21     -2.060     -0.313      0.315      0.000 
      22      0.000      0.000      0.300      0.000 
      23      0.000      0.000      0.300      0.000 
      24      0.000      0.000      0.300      0.000 
      25      0.800     -0.760      0.000      0.000 
      26      0.000      0.000      0.300      0.000 
      27      0.000      0.000      0.300      0.000 
      28      0.000      0.000      0.300      0.000 
      29      0.000      0.000      0.300      0.000 
      30      0.000      0.000      0.300      0.000 
      31      0.000      0.000      0.300      0.000 
      32      0.000      0.000      0.300      0.000 
      33      0.000      0.000      0.300      0.000 
      34      1.300     -0.200      0.200      0.000 
      35      1.300     -0.200      0.200      0.000 
      36      0.000      0.000      0.300      0.000 
      37      0.000      0.000      0.300      0.000 
      38      0.000      0.000      0.300      0.000 
      39      0.000      0.000      0.300      0.000 
      40      0.000      0.000      0.300      0.000 
      41      0.000      0.000      0.300      0.000 
      42      0.000      0.000      0.300      0.000 
      43      0.000      0.000      0.300      0.000 
      44      0.000      0.000      0.300      0.000 
      45      0.000      0.000      0.300      0.000 
      46      0.000      0.000      0.300      0.000 
      47      0.000      0.000      0.300      0.000 
      48      0.000      0.000      0.300      0.000 
      49      0.000      0.000      0.300      0.000 
      50      0.000      0.000      0.300      0.000 
      51      0.000      0.000      0.300      0.000 
      52      0.000      0.000      0.300      0.000 
      53      0.000      0.000      0.300      0.000 
      54      0.000      0.000      0.300      0.000 
      55      0.000      0.000      0.300      0.000 
      56      0.000      0.000      0.300      0.000 
      57      0.000      0.000      0.300      0.000 
      58      0.000      0.000      0.300      0.000 
      59      0.000      0.000      0.300      0.000 
      60      0.000      0.000      0.300      0.000 
      61      0.000      0.000      0.000      0.000 
      62      1.300     -0.200      0.200      0.000 
      63      0.000      0.000     -0.100      0.000 
      64      0.000      0.000      0.300      0.000 
      65      0.000      0.000      0.300      0.000 
      66      0.000      0.000      0.300      0.000 
      67      0.000      0.000      0.300      0.000 
      68      0.000      0.000      0.300      0.000 
      69      0.000      0.000      0.300      0.000 
      70      0.000      0.000      0.300      0.000 
      71      0.000      0.000      0.300      0.000 
      72      0.000      0.000      0.300      0.000 
      73      1.300     -0.200      0.200      0.000 
      74      0.000      0.000      0.000      0.000 
      75      0.000      0.000      0.300      0.000 
      76      0.000      0.000      0.300      0.000 
      77      0.000      0.000     -0.100      0.000 
      78      1.600      3.200      0.000      0.000 
      79      0.000      0.000      0.000      0.000 
      80      0.000      0.000      0.000      0.000 
      81      0.000      0.000      0.300      0.000 
      82      0.000      0.000      0.000      0.000 

Improper Coeffs 

       1      0.000      -1       2 
       2     10.500      -1       2 
       3      0.000      -1       2 
       4      0.000      -1       2 
       5      0.000      -1       2 
       6      0.000      -1       2 
       7      0.000      -1       2 
       8      0.000      -1       2 
       9      0.000      -1       2 
      10      0.000      -1       2 
      11      0.000      -1       2 
      12      0.000      -1       2 
      13      0.000      -1       2 
      14      0.000      -1       2 
      15     10.500      -1       2 
      16      0.000      -1       2 
      17      0.000      -1       2 
      18      0.000      -1       2 
      19      0.000      -1       2 
      20      0.000      -1       2 

Atoms 

     1      1      1 -0.23960000    1.000  1.00000  0.00000
     2      1      2 -0.17780000   -0.522  1.00000  0.00000
     3      1      3 -0.17970000   -1.072  1.00000  1.43113
     4      1      4 -0.09700000   -2.615  1.00178  1.52669
     5      1      5 -0.24190000   -3.228 -0.22145  0.82243
     6      1      6 -0.14260000   -3.135  1.10862  3.00174
     7      1      7 0.30320000   -2.631 -0.07605  3.82427
     8      1      8 -0.40700000   -1.526 -0.14302  4.35217
     9      1      9 0.27110000   -3.553 -1.26295  4.00840
    10      1     10 -0.39390000   -4.683 -1.27559  3.56370
    11      1     11 -0.10930000   -2.762  2.43279  3.74171
    12      1     12 -0.23560000   -3.244  3.68230  2.99560
    13      1     13 -0.24460000   -3.349  2.46633  5.16454
    14      1     14 0.08250000    1.379  0.99870 -1.02672
    15      1     15 0.08250000    1.388  0.10853  0.50430
    16      1     16 0.08250000    1.394  1.88453  0.50956
    17      1     17 0.08800000   -0.855  0.11100 -0.54445
    18      1     18 0.08800000   -0.887  1.87895 -0.54257
    19      1     19 0.09800000   -0.679  1.88723  1.94022
    20      1     20 0.09800000   -0.666  0.12492  1.95080
    21      1     21 0.10820000   -2.980  1.87784  0.97504
    22      1     22 0.08660000   -2.943 -1.15841  1.30952
    23      1     23 0.08660000   -2.914 -0.29162 -0.22260
    24      1     24 0.08660000   -4.321 -0.15367  0.81762
    25      1     25 0.13700000   -4.232  1.06573  2.97559
    26      1     26 0.14020000   -3.101 -2.09348  4.57348
    27      1     27 0.11600000   -1.673  2.50089  3.84676
    28      1     28 0.08530000   -4.300  3.59649  2.71633
    29      1     29 0.08530000   -2.658  3.85301  2.08859
    30      1     30 0.08530000   -3.138  4.57623  3.62157
    31      1     31 0.08600000   -4.443  2.42558  5.14472
    32      1     32 0.08600000   -3.053  3.38715  5.68008
    33      1     33 0.08600000   -2.988  1.63212  5.77370

Bonds 

     1      1      2      1
     2      2      3      2
     3      3      4      3
     4      4      5      4
     5      5      6      4
     6      6      7      6
     7      7      8      7
     8      8      9      7
     9      9     10      9
    10     10     11      6
    11     11     12     11
    12     12     13     11
    13     13     14      1
    14     14     15      1
    15     15     16      1
    16     16     17      2
    17     17     18      2
    18     18     19      3
    19     19     20      3
    20     20     21      4
    21     21     22      5
    22     22     23      5
    23     23     24      5
    24     24     25      6
    25     25     26      9
    26     26     27     11
    27     27     28     12
    28     28     29     12
    29     29     30     12
    30     30     31     13
    31     31     32     13
    32     32     33     13

Angles 

     1      1      1      2      3
     2      2      2      3      4
     3      3      3      4      5
     4      4      3      4      6
     5      5      4      6      7
     6      6      6      7      8
     7      7      6      7      9
     8      8      7      9     10
     9      9      4      6     11
    10     10      6     11     12
    11     11      6     11     13
    12     12      2      1     14
    13     13      2      1     15
    14     14      2      1     16
    15     15      1      2     17
    16     16      1      2     18
    17     17      2      3     19
    18     18      2      3     20
    19     19      3      4     21
    20     20      4      5     22
    21     21      4      5     23
    22     22      4      5     24
    23     23      4      6     25
    24     24      7      9     26
    25     25      6     11     27
    26     26     11     12     28
    27     27     11     12     29
    28     28     11     12     30
    29     29     11     13     31
    30     30     11     13     32
    31     31     11     13     33
    32     32      5      4      6
    33     33     12     11     27
    34     34      3      2     18
    35     35     29     12     30
    36     36     28     12     29
    37     37     28     12     30
    38     38      3      2     17
    39     39      7      6     25
    40     40     22      5     24
    41     41     23      5     24
    42     42      4      3     19
    43     43      8      7      9
    44     44      6      4     21
    45     45     14      1     15
    46     46      7      6     11
    47     47     31     13     32
    48     48     13     11     27
    49     49     15      1     16
    50     50     17      2     18
    51     51     11      6     25
    52     52     31     13     33
    53     53     10      9     26
    54     54     12     11     13
    55     55     22      5     23
    56     56     19      3     20
    57     57     14      1     16
    58     58      5      4     21
    59     59      4      3     20
    60     60     32     13     33

Dihedrals

     1      1      4      3      2      1 
     2      2      5      4      3      2 
     3      3      7      6      4      3 
     4      4      8      7      6      4 
     5      5     10      9      7      6 
     6      6     12     11      6      4 
     7      7     14      1      2      3 
     8      8     22      5      4      3 
     9      9     28     12     11      6 
    10     10     31     13     11      6 
    11     11     20      3      4      5 
    12     12     19      3      4      6 
    13     13     17      2      1     14 
    14     14     22      5      4     21 
    15     15     18      2      1     15 
    16     16      7      6      4      5 
    17     17     25      6      4     21 
    18     18     19      3      2      1 
    19     19     25      6      7      9 
    20     20     12     11      6      7 
    21     21     13     11      6      7 
    22     22     28     12     11     13 
    23     23     23      5      4      3 
    24     24     19      3      2     18 
    25     25     26      9      7      6 
    26     26     33     13     11      6 
    27     27     20      3      2     17 
    28     28     32     13     11      6 
    29     29     27     11      6     25 
    30     30     21      4      3      2 
    31     31     21      4      3     20 
    32     32     17      2      1     15 
    33     33     23      5      4      6 
    34     34      6      4      3      2 
    35     35     11      6      4      5 
    36     36     20      3      2      1 
    37     37     29     12     11     13 
    38     38     30     12     11      6 
    39     39     25      6      4      3 
    40     40     21      4      3     19 
    41     41     19      3      2     17 
    42     42     20      3      2     18 
    43     43     30     12     11     13 
    44     44     21      4      6     11 
    45     45     25      6     11     12 
    46     46     20      3      4      6 
    47     47     19      3      4      5 
    48     48     33     13     11     27 
    49     49     33     13     11     12 
    50     50     18      2      3      4 
    51     51     30     12     11     27 
    52     52     24      5      4     21 
    53     53     24      5      4      6 
    54     54     25      6     11     13 
    55     55     29     12     11     27 
    56     56     24      5      4      3 
    57     57     18      2      1     16 
    58     58     32     13     11     27 
    59     59     22      5      4      6 
    60     60     25      6      4      5 
    61     61     25      6      7      8 
    62     62     13     11      6      4 
    63     63     21      4      6      7 
    64     64     23      5      4     21 
    65     65     29     12     11      6 
    66     66     28     12     11     27 
    67     67     31     13     11     12 
    68     68     16      1      2      3 
    69     69     27     11      6      4 
    70     70     32     13     11     12 
    71     71     31     13     11     27 
    72     72     18      2      1     14 
    73     73     11      6      4      3 
    74     74      9      7      6      4 
    75     75     15      1      2      3 
    76     76     17      2      1     16 
    77     77     27     11      6      7 
    78     78     10      9      7      8 
    79     79     11      6      7      8 
    80     80     11      6      7      9 
    81     81     17      2      3      4 
    82     82     26      9      7      8 

Impropers

     1      1      4      3      5      6 
     2      2      7      9      6      8 
     3      3      6     11      4      7 
     4      4     11     12     13      6 
     5      5      1      2     14     15 
     6      6      1      2     14     16 
     7      7      2     17      3      1 
     8      8      2      1     18      3 
     9      9      3      2     19      4 
    10     10      3      4      2     20 
    11     11      4      5      3     21 
    12     12      5      4     22     23 
    13     13      5      4     22     24 
    14     14      6     25      4      7 
    15     15      9     26      7     10 
    16     16     11     27     12      6 
    17     17     12     28     11     29 
    18     18     12     28     11     30 
    19     19     13     11     31     32 
    20     20     13     33     11     31 

