LAMMPS data file Created by LigParGen - (Written by Leela S. Dodda)

      30 atoms
      30 bonds
      60 angles
      85 dihedrals
      19 impropers
 
      30 atom types
      30 bond types
      60 angle types
      85 dihedral types
      19 improper types
 
   -7.795100    42.204900 xlo xhi
   -2.074310    47.925690 ylo yhi
   -1.028420    48.971580 zlo zhi

Masses

       1     12.011  
       2     12.011  
       3     12.011  
       4     12.011  
       5     12.011  
       6     12.011  
       7     12.011  
       8     12.011  
       9     12.011  
      10     12.011  
      11     35.450  
      12      1.008  
      13      1.008  
      14      1.008  
      15      1.008  
      16      1.008  
      17      1.008  
      18      1.008  
      19      1.008  
      20      1.008  
      21      1.008  
      22      1.008  
      23      1.008  
      24      1.008  
      25      1.008  
      26      1.008  
      27      1.008  
      28      1.008  
      29      1.008  
      30      1.008  

Pair Coeffs 

       1      0.066  3.5000000 
       2      0.066  3.5000000 
       3      0.066  3.5000000 
       4      0.066  3.5000000 
       5      0.083  3.4500000 
       6      0.083  3.4500000 
       7      0.066  3.5000000 
       8      0.066  3.5000000 
       9      0.083  3.4500000 
      10      0.066  3.5000000 
      11      0.300  3.4000000 
      12      0.030  2.5000000 
      13      0.030  2.5000000 
      14      0.030  2.5000000 
      15      0.030  2.5000000 
      16      0.030  2.5000000 
      17      0.030  2.5000000 
      18      0.030  2.5000000 
      19      0.030  2.5000000 
      20      0.030  2.5000000 
      21      0.030  2.5000000 
      22      0.030  2.5000000 
      23      0.030  2.5000000 
      24      0.030  2.5000000 
      25      0.030  2.5000000 
      26      0.030  2.5000000 
      27      0.030  2.5000000 
      28      0.030  2.5000000 
      29      0.030  2.5000000 
      30      0.030  2.5000000 

Bond Coeffs 

       1   268.0000     1.5290 
       2   268.0000     1.5290 
       3   268.0000     1.5290 
       4   280.0000     1.5100 
       5   260.0000     1.5200 
       6   280.0000     1.5100 
       7   268.0000     1.5290 
       8   260.0000     1.5200 
       9   280.0000     1.5100 
      10   245.0000     1.7810 
      11   340.0000     1.0900 
      12   340.0000     1.0900 
      13   340.0000     1.0900 
      14   340.0000     1.0900 
      15   340.0000     1.0900 
      16   340.0000     1.0900 
      17   340.0000     1.0900 
      18   340.0000     1.0900 
      19   340.0000     1.0900 
      20   340.0000     1.0880 
      21   340.0000     1.0880 
      22   340.0000     1.0900 
      23   340.0000     1.0900 
      24   340.0000     1.0900 
      25   340.0000     1.0900 
      26   340.0000     1.0900 
      27   340.0000     1.0900 
      28   340.0000     1.0900 
      29   340.0000     1.0900 
      30   260.0000     1.5200 

Angle Coeffs 

       1     58.350    112.700
       2     58.350    112.700
       3     58.350    112.700
       4     37.500    117.200
       5     37.500    117.200
       6     58.350    112.700
       7     37.500    117.200
       8     37.500    117.200
       9     69.000    109.800
      10     37.500    110.700
      11     37.500    110.700
      12     37.500    110.700
      13     37.500    110.700
      14     37.500    110.700
      15     37.500    110.700
      16     37.500    110.700
      17     37.500    110.700
      18     37.500    110.700
      19     35.000    114.300
      20     37.500    117.200
      21     37.500    110.700
      22     37.500    110.700
      23     37.500    110.700
      24     37.500    110.700
      25     37.500    110.700
      26     37.500    110.700
      27     37.500    110.700
      28     37.500    110.700
      29     33.000    107.800
      30     33.000    107.800
      31     37.500    110.700
      32     33.000    107.800
      33     33.000    107.800
      34     35.000    114.300
      35     33.000    107.800
      36     33.000    107.800
      37     33.000    107.800
      38     33.000    107.800
      39     33.000    107.800
      40     33.000    107.800
      41     69.000    109.800
      42     37.500    110.700
      43     37.500    117.200
      44     37.500    110.700
      45     37.500    110.700
      46     30.000     83.000
      47     37.500    110.700
      48     37.500    117.200
      49     30.000     83.000
      50     30.000     83.000
      51     37.500    117.200
      52     37.500    117.200
      53     37.500    110.700
      54     69.000    109.800
      55     37.500    117.200
      56     37.500    110.700
      57     37.500    110.700
      58     33.000    107.800
      59     33.000    107.800
      60     33.000    107.800

Dihedral Coeffs  

       1      1.300     -0.200      0.200      0.000 
       2      1.300     -0.200      0.200      0.000 
       3      0.000      0.000      0.000      0.000 
       4      0.000      0.000      0.000      0.000 
       5      0.000      0.000      0.000      0.000 
       6      0.000      0.000      0.000      0.000 
       7      0.000      0.000      0.000      0.000 
       8      0.000      0.000      0.000      0.000 
       9      0.000      0.000      0.300      0.000 
      10      0.000      0.000      0.300      0.000 
      11      0.000      0.000      0.300      0.000 
      12      0.000      0.000      0.000      0.000 
      13      0.000      0.000      0.000      0.000 
      14      0.000      0.000      0.300      0.000 
      15      0.000      0.000      0.300      0.000 
      16      0.000      0.000      0.300      0.000 
      17      0.000      0.000      0.300      0.000 
      18      0.000      0.000      0.300      0.000 
      19      0.000      0.000      0.000      0.000 
      20      0.000      0.000      0.000      0.000 
      21      0.000      0.000      0.300      0.000 
      22      0.000      0.000      0.300      0.000 
      23      0.000      0.000      0.000      0.000 
      24      0.000      0.000      0.000      0.000 
      25      0.000      0.000      0.300      0.000 
      26      0.000      0.000      0.300      0.000 
      27      0.000      0.000      0.000      0.000 
      28      0.000      0.000      0.000      0.000 
      29      0.000      0.000      0.300      0.000 
      30      0.000      0.000      0.000      0.000 
      31      0.000      0.000      0.300      0.000 
      32      0.000      0.000      0.300      0.000 
      33      0.000      0.000      0.300      0.000 
      34      0.000      0.000      0.300      0.000 
      35      0.000      0.000      0.300      0.000 
      36      0.000      0.000      0.000      0.000 
      37      0.000      0.000      0.300      0.000 
      38      0.000      0.000      0.300      0.000 
      39      0.000      0.000      0.300      0.000 
      40      0.000      0.000      0.300      0.000 
      41      0.000      0.000      0.300      0.000 
      42      0.000      0.000      0.000      0.000 
      43      0.000      0.000      0.300      0.000 
      44      0.000      0.000      0.000      0.000 
      45      0.000      0.000      0.000      0.000 
      46      0.000      0.000      0.300      0.000 
      47      0.000      0.000      0.300      0.000 
      48      0.000      0.000      0.300      0.000 
      49      0.000      0.000      0.300      0.000 
      50      0.000      0.000      0.300      0.000 
      51      0.000      0.000      0.300      0.000 
      52      0.000      0.000      0.300      0.000 
      53      0.000      0.000      0.300      0.000 
      54      0.000      0.000      0.300      0.000 
      55      0.000      0.000      0.300      0.000 
      56      0.000      0.000      0.300      0.000 
      57      0.000      0.000      0.300      0.000 
      58      0.000      0.000      0.300      0.000 
      59      0.000      0.000      0.000      0.000 
      60      0.000      0.000      0.300      0.000 
      61      0.000      0.000      0.300      0.000 
      62      0.000      0.000      0.000      0.000 
      63      0.000      0.000      0.300      0.000 
      64      0.000      0.000      0.300      0.000 
      65      0.000      0.000      0.000      0.000 
      66      0.000      0.000      0.300      0.000 
      67      0.000      0.000      0.300      0.000 
      68      0.000      0.000      0.300      0.000 
      69      0.000      0.000      0.300      0.000 
      70      0.000      0.000      0.300      0.000 
      71      0.000      0.000      0.300      0.000 
      72      0.000      0.000      0.300      0.000 
      73      0.000      0.000      0.300      0.000 
      74      0.000      0.000      0.000      0.000 
      75      0.000      0.000      0.300      0.000 
      76      0.000      0.000      0.300      0.000 
      77      0.000      0.000      0.300      0.000 
      78      0.000      0.000      0.000      0.000 
      79      0.000      0.000      0.000      0.000 
      80      0.000      0.000      0.300      0.000 
      81      0.000      0.000      0.300      0.000 
      82      0.000      0.000      0.000      0.000 
      83      0.000      0.000      0.300      0.000 
      84      0.000      0.000      0.300      0.000 
      85      0.000      0.000      0.300      0.000 

Improper Coeffs 

       1      0.000      -1       2 
       2      0.000      -1       2 
       3      0.000      -1       2 
       4      0.000      -1       2 
       5      0.000      -1       2 
       6      0.000      -1       2 
       7      0.000      -1       2 
       8      0.000      -1       2 
       9      0.000      -1       2 
      10      0.000      -1       2 
      11      0.000      -1       2 
      12      0.000      -1       2 
      13      0.000      -1       2 
      14      0.000      -1       2 
      15      0.000      -1       2 
      16      0.000      -1       2 
      17      0.000      -1       2 
      18      0.000      -1       2 
      19      0.000      -1       2 

Atoms 

     1      1      1 -0.23840000    1.000  1.00000  0.00000
     2      1      2 -0.17960000   -0.519  1.00000  0.00000
     3      1      3 -0.17740000   -1.090  1.00000  1.41879
     4      1      4 -0.14770000   -2.620  1.06569  1.39468
     5      1      5 -0.17010000   -3.198  1.06834  2.78009
     6      1      6 -0.17290000   -4.700  1.06909  2.99380
     7      1      7 -0.14850000   -5.664  1.01032  1.84577
     8      1      8 -0.23790000   -7.105  1.02226  2.33307
     9      1      9 -0.01190000   -3.872 -0.12873  3.44165
    10      1     10 -0.20260000   -3.977 -1.46511  2.76734
    11      1     11 -0.15300000   -3.639 -0.25321  5.21316
    12      1     12 0.08200000    1.377  0.99870 -1.02842
    13      1     13 0.08200000    1.393  0.11322  0.50704
    14      1     14 0.08200000    1.392  1.88934  0.50282
    15      1     15 0.08740000   -0.878  0.11660 -0.54245
    16      1     16 0.08740000   -0.876  1.88227 -0.54318
    17      1     17 0.09420000   -0.693  1.86137  1.97180
    18      1     18 0.09420000   -0.765  0.09946  1.95440
    19      1     19 0.09550000   -3.010  0.24418  0.78764
    20      1     20 0.09550000   -2.923  1.99559  0.89700
    21      1     21 0.14600000   -2.640  1.74838  3.42078
    22      1     22 0.14710000   -5.050  1.77079  3.75039
    23      1     23 0.09470000   -5.510  0.12590  1.21929
    24      1     24 0.09470000   -5.505  1.88465  1.20489
    25      1     25 0.08460000   -7.313  0.15577  2.96840
    26      1     26 0.08460000   -7.795  1.00246  1.48351
    27      1     27 0.08460000   -7.312  1.92525  2.91857
    28      1     28 0.10120000   -4.055 -1.40473  1.67998
    29      1     29 0.10120000   -4.863 -1.99812  3.12829
    30      1     30 0.10120000   -3.096 -2.07431  2.99514

Bonds 

     1      1      2      1
     2      2      3      2
     3      3      4      3
     4      4      5      4
     5      5      6      5
     6      6      7      6
     7      7      8      7
     8      8      9      5
     9      9     10      9
    10     10     11      9
    11     11     12      1
    12     12     13      1
    13     13     14      1
    14     14     15      2
    15     15     16      2
    16     16     17      3
    17     17     18      3
    18     18     19      4
    19     19     20      4
    20     20     21      5
    21     21     22      6
    22     22     23      7
    23     23     24      7
    24     24     25      8
    25     25     26      8
    26     26     27      8
    27     27     28     10
    28     28     29     10
    29     29     30     10
    30     30      9      6

Angles 

     1      1      1      2      3
     2      2      2      3      4
     3      3      3      4      5
     4      4      4      5      6
     5      5      5      6      7
     6      6      6      7      8
     7      7      4      5      9
     8      8      5      9     10
     9      9      5      9     11
    10     10      2      1     12
    11     11      2      1     13
    12     12      2      1     14
    13     13      1      2     15
    14     14      1      2     16
    15     15      2      3     17
    16     16      2      3     18
    17     17      3      4     19
    18     18      3      4     20
    19     19      4      5     21
    20     20      5      6     22
    21     21      6      7     23
    22     22      6      7     24
    23     23      7      8     25
    24     24      7      8     26
    25     25      7      8     27
    26     26      9     10     28
    27     27      9     10     29
    28     28      9     10     30
    29     29     23      7     24
    30     30     28     10     30
    31     31      3      2     15
    32     32     13      1     14
    33     33     15      2     16
    34     34      7      6     22
    35     35     12      1     13
    36     36     29     10     30
    37     37     28     10     29
    38     38     12      1     14
    39     39     25      8     27
    40     40     19      4     20
    41     41      6      9     11
    42     42      3      2     16
    43     43      9      5     21
    44     44      8      7     23
    45     45      4      3     18
    46     46      6      5      9
    47     47      5      4     19
    48     48      9      6     22
    49     49      5      6      9
    50     50      5      9      6
    51     51      6      9     10
    52     52      6      5     21
    53     53      5      4     20
    54     54     10      9     11
    55     55      7      6      9
    56     56      4      3     17
    57     57      8      7     24
    58     58     26      8     27
    59     59     17      3     18
    60     60     25      8     26

Dihedrals

     1      1      4      3      2      1 
     2      2      5      4      3      2 
     3      3      6      5      4      3 
     4      4      7      6      5      4 
     5      5      8      7      6      5 
     6      6      9      5      4      6 
     7      7     10      9      5      6 
     8      8     11      9      5      6 
     9      9     12      1      2      3 
    10     10     25      8      7      6 
    11     11     28     10      9      5 
    12     12     10      9      5      4 
    13     13     22      6      9      5 
    14     14     21      5      4      3 
    15     15     30     10      9      5 
    16     16     17      3      2     16 
    17     17     18      3      2     15 
    18     18     19      4      3      2 
    19     19      9      5      4      3 
    20     20     10      9      6      7 
    21     21     13      1      2      3 
    22     22     24      7      6      9 
    23     23     21      5      6      9 
    24     24     21      5      9     10 
    25     25     24      7      6      5 
    26     26     16      2      3      4 
    27     27      9      6      7      8 
    28     28     11      9      5      4 
    29     29     15      2      1     12 
    30     30     22      6      5     21 
    31     31     21      5      4     20 
    32     32     30     10      9      6 
    33     33     20      4      5      9 
    34     34     25      8      7     23 
    35     35     23      7      6      9 
    36     36      7      6      9      5 
    37     37     17      3      2     15 
    38     38     27      8      7      6 
    39     39     22      6      7      8 
    40     40     19      4      5      6 
    41     41     29     10      9     11 
    42     42     11      9      6      7 
    43     43     16      2      1     14 
    44     44     22      6      9     11 
    45     45     21      5      6      7 
    46     46     16      2      1     12 
    47     47     15      2      3      4 
    48     48     18      3      2      1 
    49     49     20      4      5      6 
    50     50     18      3      4      5 
    51     51     24      7      6     22 
    52     52     20      4      3     17 
    53     53     26      8      7     24 
    54     54     27      8      7     23 
    55     55     19      4      3     17 
    56     56     19      4      3     18 
    57     57     30     10      9     11 
    58     58     23      7      6      5 
    59     59     21      5      9     11 
    60     60     17      3      4      5 
    61     61     20      4      3      2 
    62     62     22      6      5      4 
    63     63     29     10      9      6 
    64     64     20      4      3     18 
    65     65     21      5      9      6 
    66     66     23      7      6     22 
    67     67     28     10      9      6 
    68     68     29     10      9      5 
    69     69     15      2      1     13 
    70     70     25      8      7     24 
    71     71     26      8      7     23 
    72     72     18      3      2     16 
    73     73     21      5      4     19 
    74     74     10      9      6      5 
    75     75     26      8      7      6 
    76     76     16      2      1     13 
    77     77     15      2      1     14 
    78     78     22      6      5      9 
    79     79     11      9      6      5 
    80     80     27      8      7     24 
    81     81     17      3      2      1 
    82     82     22      6      9     10 
    83     83     14      1      2      3 
    84     84     19      4      5      9 
    85     85     28     10      9     11 

Impropers

     1      1      1      2     12     13 
     2      2      1      2     12     14 
     3      3      2      1      3     15 
     4      4      2      1      3     16 
     5      5      3     17      2      4 
     6      6      3     18      4      2 
     7      7      4     19      5      3 
     8      8      4      3     20      5 
     9      9      5      4     21      6 
    10     10      6      5     22      7 
    11     11      7      8     23      6 
    12     12      7      8      6     24 
    13     13      8     25     26      7 
    14     14      8     25     27      7 
    15     15     10      9     28     29 
    16     16     10      9     28     30 
    17     17      5      9      6      4 
    18     18      5      9      6      4 
    19     19      6      9      5      7 

