LAMMPS data file Created by LigParGen - (Written by Leela S. Dodda)

      44 atoms
      44 bonds
      85 angles
     126 dihedrals
      27 impropers
 
      44 atom types
      44 bond types
      85 angle types
     126 dihedral types
      27 improper types
 
   -7.573530    42.426470 xlo xhi
   -1.489160    48.510840 ylo yhi
   -0.974880    49.025120 zlo zhi

Masses

       1     12.011  
       2     15.999  
       3     12.011  
       4     12.011  
       5     12.011  
       6     12.011  
       7     12.011  
       8     12.011  
       9     15.999  
      10     12.011  
      11     12.011  
      12     12.011  
      13     12.011  
      14     12.011  
      15     12.011  
      16     12.011  
      17     12.011  
      18     15.999  
      19      1.008  
      20      1.008  
      21      1.008  
      22      1.008  
      23      1.008  
      24      1.008  
      25      1.008  
      26      1.008  
      27      1.008  
      28      1.008  
      29      1.008  
      30      1.008  
      31      1.008  
      32      1.008  
      33      1.008  
      34      1.008  
      35      1.008  
      36      1.008  
      37      1.008  
      38      1.008  
      39      1.008  
      40      1.008  
      41      1.008  
      42      1.008  
      43      1.008  
      44      1.008  

Pair Coeffs 

       1      0.066  3.5000000 
       2      0.140  2.9000000 
       3      0.066  3.5000000 
       4      0.066  3.5000000 
       5      0.066  3.5000000 
       6      0.066  3.5000000 
       7      0.066  3.5000000 
       8      0.070  3.5500000 
       9      0.210  2.9600000 
      10      0.066  3.5000000 
      11      0.066  3.5000000 
      12      0.066  3.5000000 
      13      0.066  3.5000000 
      14      0.066  3.5000000 
      15      0.066  3.5000000 
      16      0.066  3.5000000 
      17      0.070  3.5500000 
      18      0.210  2.9600000 
      19      0.030  2.5000000 
      20      0.030  2.5000000 
      21      0.030  2.5000000 
      22      0.030  2.5000000 
      23      0.030  2.5000000 
      24      0.030  2.5000000 
      25      0.030  2.5000000 
      26      0.030  2.5000000 
      27      0.030  2.5000000 
      28      0.030  2.5000000 
      29      0.030  2.5000000 
      30      0.030  2.5000000 
      31      0.030  2.5000000 
      32      0.030  2.5000000 
      33      0.030  2.5000000 
      34      0.030  2.5000000 
      35      0.030  2.5000000 
      36      0.030  2.5000000 
      37      0.030  2.5000000 
      38      0.030  2.5000000 
      39      0.030  2.5000000 
      40      0.030  2.5000000 
      41      0.030  2.5000000 
      42      0.030  2.5000000 
      43      0.030  2.5000000 
      44      0.030  2.5000000 

Bond Coeffs 

       1   320.0000     1.4100 
       2   320.0000     1.4100 
       3   268.0000     1.5290 
       4   268.0000     1.5290 
       5   268.0000     1.5290 
       6   268.0000     1.5290 
       7   317.0000     1.5220 
       8   570.0000     1.2290 
       9   268.0000     1.5290 
      10   268.0000     1.5290 
      11   268.0000     1.5290 
      12   268.0000     1.5290 
      13   268.0000     1.5290 
      14   268.0000     1.5290 
      15   268.0000     1.5290 
      16   317.0000     1.5220 
      17   570.0000     1.2290 
      18   340.0000     1.0900 
      19   340.0000     1.0900 
      20   340.0000     1.0900 
      21   340.0000     1.0900 
      22   340.0000     1.0900 
      23   340.0000     1.0900 
      24   340.0000     1.0900 
      25   340.0000     1.0900 
      26   340.0000     1.0900 
      27   340.0000     1.0900 
      28   340.0000     1.0900 
      29   340.0000     1.0900 
      30   340.0000     1.0900 
      31   340.0000     1.0900 
      32   340.0000     1.0900 
      33   340.0000     1.0900 
      34   340.0000     1.0900 
      35   340.0000     1.0900 
      36   340.0000     1.0900 
      37   340.0000     1.0900 
      38   340.0000     1.0900 
      39   340.0000     1.0900 
      40   340.0000     1.0900 
      41   340.0000     1.0900 
      42   340.0000     1.0900 
      43   340.0000     1.0900 
      44   268.0000     1.5290 

Angle Coeffs 

       1     60.000    109.500
       2     50.000    109.500
       3     50.000    109.500
       4     58.350    112.700
       5     58.350    112.700
       6     63.000    111.100
       7     80.000    120.400
       8     58.350    112.700
       9     58.350    112.700
      10     58.350    112.700
      11     58.350    112.700
      12     58.350    112.700
      13     58.350    112.700
      14     58.350    112.700
      15     63.000    111.100
      16     80.000    120.400
      17     35.000    109.500
      18     35.000    109.500
      19     35.000    109.500
      20     35.000    109.500
      21     37.500    110.700
      22     37.500    110.700
      23     37.500    110.700
      24     37.500    110.700
      25     37.500    110.700
      26     37.500    110.700
      27     37.500    110.700
      28     37.500    110.700
      29     35.000    115.000
      30     37.500    110.700
      31     37.500    110.700
      32     37.500    110.700
      33     37.500    110.700
      34     37.500    110.700
      35     37.500    110.700
      36     37.500    110.700
      37     37.500    110.700
      38     37.500    110.700
      39     37.500    110.700
      40     37.500    110.700
      41     37.500    110.700
      42     35.000    115.000
      43     58.350    112.700
      44     33.000    107.800
      45     33.000    107.800
      46     35.000    109.500
      47     58.350    112.700
      48     37.500    110.700
      49     33.000    107.800
      50     63.000    111.100
      51     37.500    110.700
      52     33.000    107.800
      53     35.000    123.000
      54     37.500    110.700
      55     37.500    110.700
      56     35.000    123.000
      57     33.000    107.800
      58     58.350    112.700
      59     37.500    110.700
      60     58.350    112.700
      61     37.500    110.700
      62     58.350    112.700
      63     33.000    107.800
      64     37.500    110.700
      65     58.350    112.700
      66     33.000    107.800
      67     33.000    107.800
      68     58.350    112.700
      69     33.000    107.800
      70     37.500    110.700
      71     33.000    107.800
      72     37.500    110.700
      73     58.350    112.700
      74     33.000    107.800
      75     37.500    110.700
      76     37.500    110.700
      77     63.000    111.100
      78     33.000    107.800
      79     33.000    107.800
      80     33.000    107.800
      81     37.500    110.700
      82     35.000    109.500
      83     33.000    107.800
      84     33.000    107.800
      85     33.000    107.800

Dihedral Coeffs  

       1      0.650     -0.250      0.670      0.000 
       2      1.711     -0.500      0.663      0.000 
       3     -2.060     -0.313      0.315      0.000 
       4      0.000      0.000      0.000      0.000 
       5      1.300     -0.200      0.200      0.000 
       6      1.300     -0.200      0.200      0.000 
       7      1.300     -0.200      0.200      0.000 
       8      1.300     -0.200      0.200      0.000 
       9      0.000      0.000      0.000      0.000 
      10      0.000      0.000      0.760      0.000 
      11      0.000      0.000      0.468      0.000 
      12      0.000      0.000      0.300      0.000 
      13      0.000      0.000      0.300      0.000 
      14      0.000      0.000      0.300      0.000 
      15      0.000      0.000      0.300      0.000 
      16      0.000      0.000      0.300      0.000 
      17      0.000      0.000      0.300      0.000 
      18      0.000      0.000      0.000      0.000 
      19      0.000      0.000      0.300      0.000 
      20      0.000      0.000      0.300      0.000 
      21      0.000      0.000      0.000      0.000 
      22     -2.060     -0.313      0.315      0.000 
      23     -2.060     -0.313      0.315      0.000 
      24      0.000      0.000      0.300      0.000 
      25      0.000      0.000      0.300      0.000 
      26      0.000      0.000      0.300      0.000 
      27      0.000      0.000      0.300      0.000 
      28      0.000      0.000      0.300      0.000 
      29      0.000      0.000      0.300      0.000 
      30      0.000      0.000      0.300      0.000 
      31      0.000      0.000      0.300      0.000 
      32      0.000      0.000      0.300      0.000 
      33      0.000      0.000      0.300      0.000 
      34      0.000      0.000      0.300      0.000 
      35      0.000      0.000      0.300      0.000 
      36     -2.060     -0.313      0.315      0.000 
      37      0.000      0.000      0.300      0.000 
      38      0.000      0.000      0.300      0.000 
      39      1.300     -0.200      0.200      0.000 
      40      0.000      0.000      0.300      0.000 
      41      0.000      0.000      0.000      0.000 
      42      0.000      0.000      0.300      0.000 
      43      0.000      0.000      0.000      0.000 
      44      0.000      0.000      0.300      0.000 
      45      0.000      0.000      0.300      0.000 
      46      1.300     -0.200      0.200      0.000 
      47      0.000      0.000      0.300      0.000 
      48      0.000      0.000      0.360      0.000 
      49      1.300     -0.200      0.200      0.000 
      50      0.000      0.000      0.000      0.000 
      51      0.000      0.000      0.300      0.000 
      52      0.000      0.000      0.300      0.000 
      53      0.000      0.000      0.300      0.000 
      54      0.000      0.000      0.300      0.000 
      55      0.000      0.000      0.300      0.000 
      56      0.000      0.000     -0.100      0.000 
      57      0.000      0.000      0.300      0.000 
      58     -2.060     -0.313      0.315      0.000 
      59      0.000      0.000      0.760      0.000 
      60      1.300     -0.200      0.200      0.000 
      61      0.000      0.000      0.300      0.000 
      62      0.000      0.000      0.300      0.000 
      63      0.000      0.000      0.468      0.000 
      64      0.000      0.000      0.300      0.000 
      65     -2.060     -0.313      0.315      0.000 
      66      0.000      0.000      0.300      0.000 
      67      1.300     -0.200      0.200      0.000 
      68      0.000      0.000      0.300      0.000 
      69      0.000      0.000      0.000      0.000 
      70      1.300     -0.200      0.200      0.000 
      71      0.000      0.000      0.300      0.000 
      72      0.000      0.000      0.300      0.000 
      73      0.000      0.000     -0.100      0.000 
      74      0.000      0.000      0.300      0.000 
      75      0.000      0.000      0.300      0.000 
      76      0.000      0.000      0.300      0.000 
      77      0.000      0.000      0.300      0.000 
      78      1.300     -0.200      0.200      0.000 
      79      0.000      0.000      0.468      0.000 
      80      0.000      0.000      0.300      0.000 
      81      0.000      0.000      0.300      0.000 
      82      0.000      0.000      0.300      0.000 
      83      0.000      0.000      0.300      0.000 
      84      1.711     -0.500      0.663      0.000 
      85     -2.060     -0.313      0.315      0.000 
      86      0.000      0.000      0.300      0.000 
      87      0.000      0.000      0.300      0.000 
      88      0.000      0.000      0.300      0.000 
      89      0.000      0.000      0.000      0.000 
      90      0.000      0.000      0.300      0.000 
      91      1.300     -0.200      0.200      0.000 
      92     -2.060     -0.313      0.315      0.000 
      93      0.000      0.000      0.300      0.000 
      94      0.000      0.000      0.300      0.000 
      95      0.000      0.000      0.300      0.000 
      96      0.000      0.000      0.300      0.000 
      97      0.000      0.000      0.360      0.000 
      98      0.000      0.000      0.300      0.000 
      99      1.300     -0.200      0.200      0.000 
     100      0.650     -0.250      0.670      0.000 
     101      0.000      0.000      0.300      0.000 
     102      0.000      0.000      0.760      0.000 
     103      0.000      0.000      0.300      0.000 
     104      0.000      0.000      0.300      0.000 
     105      0.000      0.000      0.300      0.000 
     106      0.000      0.000      0.300      0.000 
     107      1.300     -0.200      0.200      0.000 
     108      0.000      0.000      0.300      0.000 
     109      0.000      0.000      0.300      0.000 
     110      0.000      0.000      0.760      0.000 
     111     -2.060     -0.313      0.315      0.000 
     112      0.000      0.000      0.000      0.000 
     113      0.000      0.000      0.300      0.000 
     114      0.000      0.000      0.300      0.000 
     115      0.000      0.000      0.300      0.000 
     116      0.000      0.000      0.300      0.000 
     117      0.000      0.000      0.300      0.000 
     118      0.000      0.000      0.468      0.000 
     119      1.300     -0.200      0.200      0.000 
     120      0.000      0.000     -0.100      0.000 
     121      0.000      0.000      0.300      0.000 
     122      0.000      0.000      0.300      0.000 
     123      1.300     -0.200      0.200      0.000 
     124      0.000      0.000      0.300      0.000 
     125      0.000      0.000      0.300      0.000 
     126      1.300     -0.200      0.200      0.000 

Improper Coeffs 

       1      0.000      -1       2 
       2      0.000      -1       2 
       3      0.000      -1       2 
       4      0.000      -1       2 
       5      0.000      -1       2 
       6      0.000      -1       2 
       7      0.000      -1       2 
       8      0.000      -1       2 
       9      0.000      -1       2 
      10      0.000      -1       2 
      11      0.000      -1       2 
      12      0.000      -1       2 
      13      0.000      -1       2 
      14      0.000      -1       2 
      15      0.000      -1       2 
      16     10.500      -1       2 
      17      0.000      -1       2 
      18      0.000      -1       2 
      19      0.000      -1       2 
      20      0.000      -1       2 
      21      0.000      -1       2 
      22      0.000      -1       2 
      23      0.000      -1       2 
      24      0.000      -1       2 
      25      0.000      -1       2 
      26      0.000      -1       2 
      27     10.500      -1       2 

Atoms 

     1      1      1 -0.04580000    1.000  1.00000  0.00000
     2      1      2 -0.40020000   -0.423  1.00000  0.00000
     3      1      3 0.08310000   -1.025  1.00000  1.31396
     4      1      4 -0.27270000   -0.716  2.32977  1.99428
     5      1      5 -0.09150000   -2.547  0.70281  1.08818
     6      1      6 -0.24460000   -2.666 -0.68271  0.39666
     7      1      7 -0.16860000   -3.524  0.73099  2.30856
     8      1      8 0.31640000   -3.115 -0.31558  3.32728
     9      1      9 -0.44280000   -2.063 -0.26075  3.95227
    10      1     10 -0.10660000   -3.762  2.08639  3.01809
    11      1     11 -0.17810000   -4.391  3.16096  2.13266
    12      1     12 -0.18000000   -4.878  4.18663  3.14936
    13      1     13 -0.03450000   -5.510  3.34465  4.27403
    14      1     14 -0.23180000   -6.988  3.04965  3.94539
    15      1     15 -0.23730000   -5.475  4.11299  5.60480
    16      1     16 -0.19510000   -4.707  2.01111  4.25277
    17      1     17 0.32350000   -3.900  1.77863  5.51913
    18      1     18 -0.44050000   -4.325  1.10286  6.44956
    19      1     19 0.08130000    1.341  0.64170 -0.97488
    20      1     20 0.08130000    1.406  0.34438  0.77586
    21      1     21 0.08130000    1.375  2.01965  0.12459
    22      1     22 0.10410000   -0.575  0.18175  1.88910
    23      1     23 0.09290000   -1.289  3.14386  1.53963
    24      1     24 0.09290000    0.337  2.60962  1.90381
    25      1     25 0.09290000   -0.911  2.28247  3.06588
    26      1     26 0.11710000   -2.913  1.43048  0.35121
    27      1     27 0.08960000   -2.334 -1.48916  1.06057
    28      1     28 0.08960000   -2.058 -0.74142 -0.51145
    29      1     29 0.08960000   -3.702 -0.88791  0.10625
    30      1     30 0.11390000   -4.505  0.40102  1.93299
    31      1     31 0.11660000   -3.852 -1.11831  3.50872
    32      1     32 0.11710000   -2.813  2.47705  3.38003
    33      1     33 0.10220000   -5.230  2.76166  1.55205
    34      1     34 0.10220000   -3.673  3.60225  1.43598
    35      1     35 0.10050000   -5.578  4.90254  2.70634
    36      1     36 0.10050000   -4.017  4.75265  3.52913
    37      1     37 0.08710000   -7.574  3.97470  3.90041
    38      1     38 0.08710000   -7.436  2.40756  4.71274
    39      1     39 0.08710000   -7.096  2.54148  2.98152
    40      1     40 0.09080000   -6.043  5.04736  5.53289
    41      1     41 0.09080000   -4.452  4.37974  5.89437
    42      1     42 0.09080000   -5.916  3.52253  6.41622
    43      1     43 0.12910000   -5.390  1.15850  4.15017
    44      1     44 0.11860000   -2.935  2.31442  5.59664

Bonds 

     1      1      2      1
     2      2      3      2
     3      3      4      3
     4      4      5      3
     5      5      6      5
     6      6      7      5
     7      7      8      7
     8      8      9      8
     9      9     10      7
    10     10     11     10
    11     11     12     11
    12     12     13     12
    13     13     14     13
    14     14     15     13
    15     15     16     10
    16     16     17     16
    17     17     18     17
    18     18     19      1
    19     19     20      1
    20     20     21      1
    21     21     22      3
    22     22     23      4
    23     23     24      4
    24     24     25      4
    25     25     26      5
    26     26     27      6
    27     27     28      6
    28     28     29      6
    29     29     30      7
    30     30     31      8
    31     31     32     10
    32     32     33     11
    33     33     34     11
    34     34     35     12
    35     35     36     12
    36     36     37     14
    37     37     38     14
    38     38     39     14
    39     39     40     15
    40     40     41     15
    41     41     42     15
    42     42     43     16
    43     43     44     17
    44     44     16     13

Angles 

     1      1      1      2      3
     2      2      2      3      4
     3      3      2      3      5
     4      4      3      5      6
     5      5      3      5      7
     6      6      5      7      8
     7      7      7      8      9
     8      8      5      7     10
     9      9      7     10     11
    10     10     10     11     12
    11     11     11     12     13
    12     12     12     13     14
    13     13     12     13     15
    14     14      7     10     16
    15     15     10     16     17
    16     16     16     17     18
    17     17      2      1     19
    18     18      2      1     20
    19     19      2      1     21
    20     20      2      3     22
    21     21      3      4     23
    22     22      3      4     24
    23     23      3      4     25
    24     24      3      5     26
    25     25      5      6     27
    26     26      5      6     28
    27     27      5      6     29
    28     28      5      7     30
    29     29      7      8     31
    30     30      7     10     32
    31     31     10     11     33
    32     32     10     11     34
    33     33     11     12     35
    34     34     11     12     36
    35     35     13     14     37
    36     36     13     14     38
    37     37     13     14     39
    38     38     13     15     40
    39     39     13     15     41
    40     40     13     15     42
    41     41     10     16     43
    42     42     16     17     44
    43     43     11     10     16
    44     44     23      4     25
    45     45     28      6     29
    46     46     17     16     43
    47     47     15     13     16
    48     48     10      7     30
    49     49     23      4     24
    50     50      8      7     10
    51     51     13     16     43
    52     52     37     14     38
    53     53     18     17     44
    54     54     16     10     32
    55     55      5      3     22
    56     56      9      8     31
    57     57     41     15     42
    58     58     12     13     16
    59     59     11     10     32
    60     60     14     13     15
    61     61     13     12     35
    62     62      4      3      5
    63     63     24      4     25
    64     64     13     12     36
    65     65     10     16     13
    66     66     20      1     21
    67     67     19      1     21
    68     68      6      5      7
    69     69     33     11     34
    70     70     12     11     34
    71     71     27      6     29
    72     72      6      5     26
    73     73     14     13     16
    74     74     27      6     28
    75     75      7      5     26
    76     76      4      3     22
    77     77     13     16     17
    78     78     40     15     42
    79     79     19      1     20
    80     80     37     14     39
    81     81     12     11     33
    82     82      8      7     30
    83     83     40     15     41
    84     84     38     14     39
    85     85     35     12     36

Dihedrals

     1      1      4      3      2      1 
     2      2      6      5      3      2 
     3      3      8      7      5      3 
     4      4      9      8      7      5 
     5      5     11     10      7      5 
     6      6     12     11     10      7 
     7      7     13     12     11     10 
     8      8     14     13     12     11 
     9      9     18     17     16     10 
    10     10     19      1      2      3 
    11     11     23      4      3      2 
    12     12     27      6      5      3 
    13     13     37     14     13     12 
    14     14     40     15     13     12 
    15     15     32     10     16     13 
    16     16     25      4      3     22 
    17     17     25      4      3      5 
    18     18     10      7      8      9 
    19     19     40     15     13     16 
    20     20     42     15     13     14 
    21     21     43     16     17     18 
    22     22     17     16     13     12 
    23     23     17     16     13     14 
    24     24     26      5      3     22 
    25     25     30      7     10     11 
    26     26     34     11     10     16 
    27     27     29      6      5      3 
    28     28     35     12     11     10 
    29     29     23      4      3      5 
    30     30     41     15     13     14 
    31     31     38     14     13     16 
    32     32     23      4      3     22 
    33     33     32     10      7     30 
    34     34     22      3      5      7 
    35     35     35     12     11     33 
    36     36     11     10      7      8 
    37     37     34     11     10     32 
    38     38     32     10     11     12 
    39     39     10      7      5      6 
    40     40     42     15     13     16 
    41     41     31      8      7      5 
    42     42     43     16     10      7 
    43     43     44     17     16     10 
    44     44     34     11     12     13 
    45     45     28      6      5      7 
    46     46     15     13     16     10 
    47     47     41     15     13     16 
    48     48     44     17     16     43 
    49     49      6      5      3      4 
    50     50     44     17     16     13 
    51     51     34     11     10      7 
    52     52     36     12     13     15 
    53     53     36     12     13     16 
    54     54     43     16     13     14 
    55     55     41     15     13     12 
    56     56     32     10     16     17 
    57     57     24      4      3     22 
    58     58     17     16     13     15 
    59     59     21      1      2      3 
    60     60      7      5      3      4 
    61     61     37     14     13     16 
    62     62     38     14     13     15 
    63     63     26      5      3      2 
    64     64     39     14     13     16 
    65     65     17     16     10     11 
    66     66     27      6      5      7 
    67     67     13     16     10      7 
    68     68     26      5      3      4 
    69     69     30      7      8      9 
    70     70     16     13     12     11 
    71     71     28      6      5      3 
    72     72     24      4      3      5 
    73     73     32     10      7      8 
    74     74     36     12     11     10 
    75     75     35     12     13     14 
    76     76     30      7      5     26 
    77     77     43     16     13     15 
    78     78     16     10     11     12 
    79     79     24      4      3      2 
    80     80     33     11     10      7 
    81     81     29      6      5      7 
    82     82     30      7      5      3 
    83     83     39     14     13     12 
    84     84      7      5      3      2 
    85     85     16     10      7      8 
    86     86     30      7      5      6 
    87     87     33     11     10     32 
    88     88     43     16     10     11 
    89     89     31      8      7     10 
    90     90     43     16     13     12 
    91     91     13     16     10     11 
    92     92     17     16     10      7 
    93     93     35     12     11     34 
    94     94     36     12     11     33 
    95     95     28      6      5     26 
    96     96     32     10      7      5 
    97     97     31      8      7     30 
    98     98     33     11     10     16 
    99     99     16     10      7      5 
   100    100      5      3      2      1 
   101    101     27      6      5     26 
   102    102     20      1      2      3 
   103    103     37     14     13     15 
   104    104     43     16     10     32 
   105    105     35     12     13     16 
   106    106     38     14     13     12 
   107    107     15     13     12     11 
   108    108     26      5      7     10 
   109    109     36     12     11     34 
   110    110     22      3      2      1 
   111    111      8      7      5      6 
   112    112     18     17     16     13 
   113    113     22      3      5      6 
   114    114     40     15     13     14 
   115    115     29      6      5     26 
   116    116     42     15     13     12 
   117    117     39     14     13     15 
   118    118     25      4      3      2 
   119    119     12     13     16     10 
   120    120     26      5      7      8 
   121    121     33     11     12     13 
   122    122     30      7     10     16 
   123    123     14     13     16     10 
   124    124     35     12     13     15 
   125    125     36     12     13     14 
   126    126     10      7      5      3 

Impropers

     1      1      3      2      4      5 
     2      2      5      3      6      7 
     3      3      7     10      5      8 
     4      4     13     12     14     15 
     5      5     10     11      7     16 
     6      6     16     17     10     13 
     7      7      1      2     19     20 
     8      8      1      2     19     21 
     9      9      3      2      4     22 
    10     10      4      3     23     24 
    11     11      4     25      3     23 
    12     12      5     26      3      6 
    13     13      6     27     28      5 
    14     14      6      5     27     29 
    15     15      7      5     30      8 
    16     16      8      9      7     31 
    17     17     10     11      7     32 
    18     18     11     33     10     12 
    19     19     11     34     12     10 
    20     20     12     35     13     11 
    21     21     12     11     36     13 
    22     22     14     37     13     38 
    23     23     14     37     13     39 
    24     24     15     41     13     40 
    25     25     15     42     13     40 
    26     26     16     10     43     13 
    27     27     17     18     44     16 

