LAMMPS data file Created by LigParGen - (Written by Leela S. Dodda)

      39 atoms
      39 bonds
      78 angles
     117 dihedrals
      26 impropers
 
      39 atom types
      39 bond types
      78 angle types
     117 dihedral types
      26 improper types
 
   -6.401740    43.598260 xlo xhi
   -1.138920    48.861080 ylo yhi
   -5.349750    44.650250 zlo zhi

Masses

       1     12.011  
       2     12.011  
       3     12.011  
       4     12.011  
       5     35.450  
       6     12.011  
       7     12.011  
       8     12.011  
       9     12.011  
      10     12.011  
      11     12.011  
      12     12.011  
      13     12.011  
      14     12.011  
      15      1.008  
      16      1.008  
      17      1.008  
      18      1.008  
      19      1.008  
      20      1.008  
      21      1.008  
      22      1.008  
      23      1.008  
      24      1.008  
      25      1.008  
      26      1.008  
      27      1.008  
      28      1.008  
      29      1.008  
      30      1.008  
      31      1.008  
      32      1.008  
      33      1.008  
      34      1.008  
      35      1.008  
      36      1.008  
      37      1.008  
      38      1.008  
      39      1.008  

Pair Coeffs 

       1      0.066  3.5000000 
       2      0.066  3.5000000 
       3      0.066  3.5000000 
       4      0.066  3.5000000 
       5      0.300  3.4000000 
       6      0.066  3.5000000 
       7      0.066  3.5000000 
       8      0.066  3.5000000 
       9      0.066  3.5000000 
      10      0.066  3.5000000 
      11      0.066  3.5000000 
      12      0.066  3.5000000 
      13      0.066  3.5000000 
      14      0.066  3.5000000 
      15      0.030  2.5000000 
      16      0.030  2.5000000 
      17      0.030  2.5000000 
      18      0.030  2.5000000 
      19      0.030  2.5000000 
      20      0.030  2.5000000 
      21      0.030  2.5000000 
      22      0.030  2.5000000 
      23      0.030  2.5000000 
      24      0.030  2.5000000 
      25      0.030  2.5000000 
      26      0.030  2.5000000 
      27      0.030  2.5000000 
      28      0.030  2.5000000 
      29      0.030  2.5000000 
      30      0.030  2.5000000 
      31      0.030  2.5000000 
      32      0.030  2.5000000 
      33      0.030  2.5000000 
      34      0.030  2.5000000 
      35      0.030  2.5000000 
      36      0.030  2.5000000 
      37      0.030  2.5000000 
      38      0.030  2.5000000 
      39      0.030  2.5000000 

Bond Coeffs 

       1   268.0000     1.5290 
       2   268.0000     1.5290 
       3   268.0000     1.5290 
       4   245.0000     1.7810 
       5   268.0000     1.5290 
       6   268.0000     1.5290 
       7   268.0000     1.5290 
       8   268.0000     1.5290 
       9   268.0000     1.5290 
      10   268.0000     1.5290 
      11   268.0000     1.5290 
      12   268.0000     1.5290 
      13   268.0000     1.5290 
      14   340.0000     1.0900 
      15   340.0000     1.0900 
      16   340.0000     1.0900 
      17   340.0000     1.0900 
      18   340.0000     1.0900 
      19   340.0000     1.0900 
      20   340.0000     1.0900 
      21   340.0000     1.0900 
      22   340.0000     1.0900 
      23   340.0000     1.0900 
      24   340.0000     1.0900 
      25   340.0000     1.0900 
      26   340.0000     1.0900 
      27   340.0000     1.0900 
      28   340.0000     1.0900 
      29   340.0000     1.0900 
      30   340.0000     1.0900 
      31   340.0000     1.0900 
      32   340.0000     1.0900 
      33   340.0000     1.0900 
      34   340.0000     1.0900 
      35   340.0000     1.0900 
      36   340.0000     1.0900 
      37   340.0000     1.0900 
      38   340.0000     1.0900 
      39   268.0000     1.5290 

Angle Coeffs 

       1     58.350    112.700
       2     58.350    112.700
       3     69.000    109.800
       4     58.350    112.700
       5     58.350    112.700
       6     58.350    112.700
       7     58.350    112.700
       8     58.350    112.700
       9     58.350    112.700
      10     58.350    112.700
      11     58.350    112.700
      12     58.350    112.700
      13     37.500    110.700
      14     37.500    110.700
      15     37.500    110.700
      16     37.500    110.700
      17     37.500    110.700
      18     37.500    110.700
      19     37.500    110.700
      20     37.500    110.700
      21     37.500    110.700
      22     37.500    110.700
      23     37.500    110.700
      24     37.500    110.700
      25     37.500    110.700
      26     37.500    110.700
      27     37.500    110.700
      28     37.500    110.700
      29     37.500    110.700
      30     37.500    110.700
      31     37.500    110.700
      32     37.500    110.700
      33     37.500    110.700
      34     37.500    110.700
      35     37.500    110.700
      36     37.500    110.700
      37     37.500    110.700
      38     33.000    107.800
      39     33.000    107.800
      40     58.350    112.700
      41     37.500    110.700
      42     37.500    110.700
      43     37.500    110.700
      44     37.500    110.700
      45     33.000    107.800
      46     37.500    110.700
      47     37.500    110.700
      48     37.500    110.700
      49     37.500    110.700
      50     37.500    110.700
      51     33.000    107.800
      52     33.000    107.800
      53     33.000    107.800
      54     37.500    110.700
      55     51.000    107.600
      56     33.000    107.800
      57     37.500    110.700
      58     33.000    107.800
      59     37.500    110.700
      60     58.350    112.700
      61     37.500    110.700
      62     37.500    110.700
      63     58.350    112.700
      64     33.000    107.800
      65     33.000    107.800
      66     33.000    107.800
      67     37.500    110.700
      68     37.500    110.700
      69     37.500    110.700
      70     51.000    107.600
      71     37.500    110.700
      72     37.500    110.700
      73     37.500    110.700
      74     37.500    110.700
      75     58.350    112.700
      76     33.000    107.800
      77     37.500    110.700
      78     33.000    107.800

Dihedral Coeffs  

       1      1.300     -0.200      0.200      0.000 
       2      0.000      0.000      0.400      0.000 
       3      1.300     -0.200      0.200      0.000 
       4      1.300     -0.200      0.200      0.000 
       5      1.300     -0.200      0.200      0.000 
       6      1.300     -0.200      0.200      0.000 
       7      1.300     -0.200      0.200      0.000 
       8      1.300     -0.200      0.200      0.000 
       9      1.300     -0.200      0.200      0.000 
      10      0.000      0.000      0.300      0.000 
      11      0.000      0.000      0.300      0.000 
      12      0.000      0.000      0.300      0.000 
      13      0.000      0.000      0.300      0.000 
      14      0.000      0.000      0.300      0.000 
      15      1.300     -0.200      0.200      0.000 
      16      0.000      0.000      0.300      0.000 
      17      0.000      0.000      0.300      0.000 
      18      0.000      0.000      0.300      0.000 
      19      0.000      0.000      0.300      0.000 
      20      0.000      0.000      0.300      0.000 
      21      0.000      0.000      0.300      0.000 
      22      0.000      0.000      0.300      0.000 
      23      0.000      0.000      0.300      0.000 
      24      0.000      0.000      0.300      0.000 
      25      0.000      0.000      0.300      0.000 
      26      0.000      0.000      0.300      0.000 
      27      0.000      0.000      0.300      0.000 
      28      0.000      0.000      0.300      0.000 
      29      0.000      0.000      0.300      0.000 
      30      0.000      0.000      0.300      0.000 
      31      0.000      0.000      0.300      0.000 
      32      0.000      0.000      0.300      0.000 
      33      0.000      0.000      0.300      0.000 
      34      1.300     -0.200      0.200      0.000 
      35      0.000      0.000      0.300      0.000 
      36      0.000      0.000      0.300      0.000 
      37      0.000      0.000      0.300      0.000 
      38      0.000      0.000      0.300      0.000 
      39      0.000      0.000      0.300      0.000 
      40      0.000      0.000      0.300      0.000 
      41      0.000      0.000      0.300      0.000 
      42      0.000      0.000      0.300      0.000 
      43      0.000      0.000      0.300      0.000 
      44      0.000      0.000      0.300      0.000 
      45      0.000      0.000      0.300      0.000 
      46      0.000      0.000      0.300      0.000 
      47      0.000      0.000      0.300      0.000 
      48      0.000      0.000      0.300      0.000 
      49      0.000      0.000      0.300      0.000 
      50      0.000      0.000      0.300      0.000 
      51      0.000      0.000      0.300      0.000 
      52      0.000      0.000      0.300      0.000 
      53      0.000      0.000      0.300      0.000 
      54      0.000      0.000      0.300      0.000 
      55      0.000      0.000      0.300      0.000 
      56      0.000      0.000      0.300      0.000 
      57      0.000      0.000      0.300      0.000 
      58      0.000      0.000      0.300      0.000 
      59      0.000      0.000      0.300      0.000 
      60      1.300     -0.200      0.200      0.000 
      61      0.000      0.000      0.300      0.000 
      62      0.000      0.000      0.400      0.000 
      63      1.300     -0.200      0.200      0.000 
      64      0.000      0.000      0.300      0.000 
      65      0.000      0.000      0.300      0.000 
      66      0.000      0.000      0.300      0.000 
      67      1.300     -0.200      0.200      0.000 
      68      0.000      0.000      0.300      0.000 
      69      0.000      0.000      0.300      0.000 
      70      0.000      0.000      0.300      0.000 
      71      0.000      0.000      0.300      0.000 
      72      0.000      0.000      0.300      0.000 
      73      0.000      0.000      0.300      0.000 
      74      0.000      0.000      0.300      0.000 
      75      0.000      0.000      0.300      0.000 
      76      0.000      0.000      0.300      0.000 
      77      0.000      0.000      0.300      0.000 
      78      0.000      0.000      0.300      0.000 
      79      0.000      0.000      0.300      0.000 
      80      0.000      0.000      0.300      0.000 
      81      0.000      0.000      0.300      0.000 
      82      0.000      0.000      0.300      0.000 
      83      0.000      0.000      0.300      0.000 
      84      0.000      0.000      0.300      0.000 
      85      0.000      0.000      0.300      0.000 
      86      0.000      0.000      0.300      0.000 
      87      1.300     -0.200      0.200      0.000 
      88      0.000      0.000      0.300      0.000 
      89      0.000      0.000      0.300      0.000 
      90      0.000      0.000      0.300      0.000 
      91      0.000      0.000      0.300      0.000 
      92      0.000      0.000      0.300      0.000 
      93      0.000      0.000      0.300      0.000 
      94      0.000      0.000      0.300      0.000 
      95      1.300     -0.200      0.200      0.000 
      96      0.000      0.000      0.300      0.000 
      97      1.300     -0.200      0.200      0.000 
      98      0.000      0.000      0.300      0.000 
      99      0.000      0.000      0.300      0.000 
     100      0.000      0.000      0.300      0.000 
     101      0.000      0.000      0.400      0.000 
     102      0.000      0.000      0.300      0.000 
     103      0.000      0.000      0.300      0.000 
     104      0.000      0.000      0.300      0.000 
     105      0.000      0.000      0.300      0.000 
     106      0.000      0.000      0.300      0.000 
     107      0.000      0.000      0.300      0.000 
     108      0.000      0.000      0.300      0.000 
     109      0.000      0.000      0.300      0.000 
     110      0.000      0.000      0.300      0.000 
     111      0.000      0.000      0.300      0.000 
     112      0.000      0.000      0.300      0.000 
     113      0.000      0.000      0.300      0.000 
     114      0.000      0.000      0.300      0.000 
     115      0.000      0.000      0.300      0.000 
     116      0.000      0.000      0.300      0.000 
     117      0.000      0.000      0.300      0.000 

Improper Coeffs 

       1      0.000      -1       2 
       2      0.000      -1       2 
       3      0.000      -1       2 
       4      0.000      -1       2 
       5      0.000      -1       2 
       6      0.000      -1       2 
       7      0.000      -1       2 
       8      0.000      -1       2 
       9      0.000      -1       2 
      10      0.000      -1       2 
      11      0.000      -1       2 
      12      0.000      -1       2 
      13      0.000      -1       2 
      14      0.000      -1       2 
      15      0.000      -1       2 
      16      0.000      -1       2 
      17      0.000      -1       2 
      18      0.000      -1       2 
      19      0.000      -1       2 
      20      0.000      -1       2 
      21      0.000      -1       2 
      22      0.000      -1       2 
      23      0.000      -1       2 
      24      0.000      -1       2 
      25      0.000      -1       2 
      26      0.000      -1       2 

Atoms 

     1      1      1 -0.24060000    1.000  1.00000  0.00000
     2      1      2 -0.11300000   -0.535  1.00000  0.00000
     3      1      3 -0.18770000   -1.101  1.00000  1.43616
     4      1      4 0.01950000   -0.662 -0.20118  2.26834
     5      1      5 -0.29300000   -1.428 -0.14365  3.87667
     6      1      6 -0.17310000   -1.023  2.21578 -0.82452
     7      1      7 -0.17900000   -2.547  2.31356 -0.96838
     8      1      8 -0.10830000   -3.020  3.57200 -1.74194
     9      1      9 -0.16810000   -2.556  3.54132 -3.20730
    10      1     10 -0.16860000   -2.977  4.74799 -4.04834
    11      1     11 -0.16870000   -4.456  4.73960 -4.41288
    12      1     12 -0.17160000   -5.378  5.36594 -3.37435
    13      1     13 -0.16930000   -5.069  5.08312 -1.90817
    14      1     14 -0.16540000   -4.552  3.69909 -1.60273
    15      1     15 0.08380000    1.402  0.08361  0.44197
    16      1     16 0.08380000    1.394  1.85325  0.56341
    17      1     17 0.08380000    1.391  1.05976 -1.02142
    18      1     18 0.09790000   -0.872  0.08576 -0.50603
    19      1     19 0.10760000   -2.195  0.98791  1.39296
    20      1     20 0.10760000   -0.809  1.92870  1.94284
    21      1     21 0.11670000    0.418 -0.21429  2.43181
    22      1     22 0.11670000   -0.963 -1.13892  1.79186
    23      1     23 0.09190000   -0.572  2.14183 -1.82046
    24      1     24 0.09190000   -0.643  3.13937 -0.37047
    25      1     25 0.09030000   -2.991  2.36047  0.03200
    26      1     26 0.09030000   -2.935  1.40874 -1.45042
    27      1     27 0.09650000   -2.557  4.44091 -1.25514
    28      1     28 0.08570000   -2.904  2.61768 -3.68766
    29      1     29 0.08570000   -1.461  3.50910 -3.23511
    30      1     30 0.08770000   -2.406  4.70285 -4.98455
    31      1     31 0.08770000   -2.693  5.68455 -3.55472
    32      1     32 0.08490000   -4.784  3.71470 -4.62559
    33      1     33 0.08490000   -4.590  5.29573 -5.34975
    34      1     34 0.08200000   -6.402  5.03803 -3.59098
    35      1     35 0.08200000   -5.381  6.45648 -3.51136
    36      1     36 0.08490000   -5.995  5.24238 -1.34011
    37      1     37 0.08490000   -4.361  5.83263 -1.53149
    38      1     38 0.08880000   -5.067  2.94589 -2.21160
    39      1     39 0.08880000   -4.825  3.48997 -0.55990

Bonds 

     1      1      2      1
     2      2      3      2
     3      3      4      3
     4      4      5      4
     5      5      6      2
     6      6      7      6
     7      7      8      7
     8      8      9      8
     9      9     10      9
    10     10     11     10
    11     11     12     11
    12     12     13     12
    13     13     14      8
    14     14     15      1
    15     15     16      1
    16     16     17      1
    17     17     18      2
    18     18     19      3
    19     19     20      3
    20     20     21      4
    21     21     22      4
    22     22     23      6
    23     23     24      6
    24     24     25      7
    25     25     26      7
    26     26     27      8
    27     27     28      9
    28     28     29      9
    29     29     30     10
    30     30     31     10
    31     31     32     11
    32     32     33     11
    33     33     34     12
    34     34     35     12
    35     35     36     13
    36     36     37     13
    37     37     38     14
    38     38     39     14
    39     39     14     13

Angles 

     1      1      1      2      3
     2      2      2      3      4
     3      3      3      4      5
     4      4      1      2      6
     5      5      2      6      7
     6      6      6      7      8
     7      7      7      8      9
     8      8      8      9     10
     9      9      9     10     11
    10     10     10     11     12
    11     11     11     12     13
    12     12      7      8     14
    13     13      2      1     15
    14     14      2      1     16
    15     15      2      1     17
    16     16      1      2     18
    17     17      2      3     19
    18     18      2      3     20
    19     19      3      4     21
    20     20      3      4     22
    21     21      2      6     23
    22     22      2      6     24
    23     23      6      7     25
    24     24      6      7     26
    25     25      7      8     27
    26     26      8      9     28
    27     27      8      9     29
    28     28      9     10     30
    29     29      9     10     31
    30     30     10     11     32
    31     31     10     11     33
    32     32     11     12     34
    33     33     11     12     35
    34     34     12     13     36
    35     35     12     13     37
    36     36      8     14     38
    37     37      8     14     39
    38     38     25      7     26
    39     39     34     12     35
    40     40      8     14     13
    41     41      7      6     24
    42     42     12     11     32
    43     43     13     14     38
    44     44      3      2     18
    45     45     23      6     24
    46     46     14     13     37
    47     47     10      9     29
    48     48     12     11     33
    49     49      4      3     19
    50     50      8      7     26
    51     51     21      4     22
    52     52     38     14     39
    53     53     32     11     33
    54     54      9      8     27
    55     55      5      4     22
    56     56     30     10     31
    57     57      8      7     25
    58     58     15      1     16
    59     59      6      2     18
    60     60      3      2      6
    61     61     13     12     34
    62     62     11     10     31
    63     63      9      8     14
    64     64     19      3     20
    65     65     15      1     17
    66     66     16      1     17
    67     67     13     12     35
    68     68     14     13     36
    69     69     10      9     28
    70     70      5      4     21
    71     71     14      8     27
    72     72      4      3     20
    73     73      7      6     23
    74     74     13     14     39
    75     75     12     13     14
    76     76     36     13     37
    77     77     11     10     30
    78     78     28      9     29

Dihedrals

     1      1      4      3      2      1 
     2      2      5      4      3      2 
     3      3      7      6      2      1 
     4      4      8      7      6      2 
     5      5      9      8      7      6 
     6      6     10      9      8      7 
     7      7     11     10      9      8 
     8      8     12     11     10      9 
     9      9     13     12     11     10 
    10     10     15      1      2      3 
    11     11     23      6      7      8 
    12     12     37     13     12     35 
    13     13     31     10     11     12 
    14     14     32     11     12     13 
    15     15      7      6      2      3 
    16     16     38     14      8      9 
    17     17     27      8     14     13 
    18     18     32     11     10     30 
    19     19     35     12     11     10 
    20     20     23      6      2      1 
    21     21     25      7      6     23 
    22     22     29      9      8      7 
    23     23     36     13     12     11 
    24     24     22      4      3     20 
    25     25     24      6      2     18 
    26     26     18      2      1     15 
    27     27     30     10      9     28 
    28     28     35     12     11     33 
    29     29     27      8      7     26 
    30     30     16      1      2      6 
    31     31     20      3      2      6 
    32     32     19      3      2      1 
    33     33     28      9      8     27 
    34     34      6      2      3      4 
    35     35     38     14      8     27 
    36     36     35     12     11     32 
    37     37     34     12     11     33 
    38     38     37     13     12     34 
    39     39     36     13     12     35 
    40     40     20      3      2      1 
    41     41     21      4      3     19 
    42     42     20      3      2     18 
    43     43     32     11     10      9 
    44     44     18      2      1     17 
    45     45     25      7      8     14 
    46     46     25      7      6      2 
    47     47     26      7      6     24 
    48     48     28      9      8     14 
    49     49     27      8      7      6 
    50     50     36     13     12     34 
    51     51     35     12     13     14 
    52     52     27      8      9     10 
    53     53     30     10      9     29 
    54     54     34     12     13     14 
    55     55     37     13     12     11 
    56     56     29      9     10     11 
    57     57     34     12     11     32 
    58     58     38     14     13     36 
    59     59     22      4      3      2 
    60     60     14     13     12     11 
    61     61     15      1      2      6 
    62     62     20      3      4      5 
    63     63     14      8      9     10 
    64     64     34     12     11     10 
    65     65     39     14      8      7 
    66     66     21      4      3      2 
    67     67     12     13     14      8 
    68     68     26      7      6     23 
    69     69     25      7      6     24 
    70     70     37     13     14      8 
    71     71     31     10      9     28 
    72     72     28      9      8      7 
    73     73     33     11     10     31 
    74     74     39     14     13     12 
    75     75     39     14     13     36 
    76     76     29      9      8     27 
    77     77     38     14     13     37 
    78     78     39     14      8     27 
    79     79     23      6      2     18 
    80     80     30     10     11     12 
    81     81     33     11     10      9 
    82     82     17      1      2      3 
    83     83     24      6      7      8 
    84     84     19      3      2      6 
    85     85     21      4      3     20 
    86     86     22      4      3     19 
    87     87     14      8      7      6 
    88     88     38     14      8      7 
    89     89     17      1      2      6 
    90     90     23      6      2      3 
    91     91     38     14     13     12 
    92     92     26      7      8      9 
    93     93     24      6      2      3 
    94     94     39     14     13     37 
    95     95     13     14      8      7 
    96     96     19      3      2     18 
    97     97     13     14      8      9 
    98     98     31     10      9      8 
    99     99     27      8      7     25 
   100    100     26      7      8     14 
   101    101     19      3      4      5 
   102    102     18      2      6      7 
   103    103     18      2      3      4 
   104    104     30     10      9      8 
   105    105     24      6      2      1 
   106    106     36     13     14      8 
   107    107     33     11     12     13 
   108    108     39     14      8      9 
   109    109     29      9      8     14 
   110    110     16      1      2      3 
   111    111     25      7      8      9 
   112    112     28      9     10     11 
   113    113     31     10      9     29 
   114    114     26      7      6      2 
   115    115     33     11     10     30 
   116    116     32     11     10     31 
   117    117     18      2      1     16 

Impropers

     1      1      2      1      3      6 
     2      2      8      9     14      7 
     3      3      1      2     15     16 
     4      4      1     17     15      2 
     5      5      2      1     18      3 
     6      6      3      2     19      4 
     7      7      3      4      2     20 
     8      8      4      5      3     21 
     9      9      4      3      5     22 
    10     10      6      2      7     23 
    11     11      6      2      7     24 
    12     12      7     25      6      8 
    13     13      7     26      6      8 
    14     14      8      9     27      7 
    15     15      9     10     28      8 
    16     16      9     10     29      8 
    17     17     10      9     11     30 
    18     18     10      9     11     31 
    19     19     11     10     12     32 
    20     20     11     33     10     12 
    21     21     12     34     11     13 
    22     22     12     35     13     11 
    23     23     13     12     36     14 
    24     24     13     12     37     14 
    25     25     14      8     13     38 
    26     26     14     13     39      8 

