LAMMPS data file Created by LigParGen - (Written by Leela S. Dodda)

      37 atoms
      38 bonds
      76 angles
     119 dihedrals
      22 impropers
 
      37 atom types
      38 bond types
      76 angle types
     119 dihedral types
      22 improper types
 
   -5.616250    44.383750 xlo xhi
   -0.027600    49.972400 ylo yhi
   -1.778470    48.221530 zlo zhi

Masses

       1     12.011  
       2     12.011  
       3     12.011  
       4     12.011  
       5     12.011  
       6     12.011  
       7     12.011  
       8     15.999  
       9     12.011  
      10     12.011  
      11     12.011  
      12     12.011  
      13     12.011  
      14     12.011  
      15     12.011  
      16     14.007  
      17      1.008  
      18      1.008  
      19      1.008  
      20      1.008  
      21      1.008  
      22      1.008  
      23      1.008  
      24      1.008  
      25      1.008  
      26      1.008  
      27      1.008  
      28      1.008  
      29      1.008  
      30      1.008  
      31      1.008  
      32      1.008  
      33      1.008  
      34      1.008  
      35      1.008  
      36      1.008  
      37      1.008  

Pair Coeffs 

       1      0.066  3.5000000 
       2      0.083  3.4500000 
       3      0.083  3.4500000 
       4      0.083  3.4500000 
       5      0.066  3.5000000 
       6      0.066  3.5000000 
       7      0.070  3.5500000 
       8      0.210  2.9600000 
       9      0.066  3.5000000 
      10      0.066  3.5000000 
      11      0.066  3.5000000 
      12      0.066  3.5000000 
      13      0.066  3.5000000 
      14      0.066  3.5000000 
      15      0.066  3.3000000 
      16      0.170  3.2000000 
      17      0.030  2.5000000 
      18      0.030  2.5000000 
      19      0.030  2.5000000 
      20      0.030  2.5000000 
      21      0.030  2.5000000 
      22      0.030  2.5000000 
      23      0.030  2.5000000 
      24      0.030  2.5000000 
      25      0.030  2.5000000 
      26      0.030  2.5000000 
      27      0.030  2.5000000 
      28      0.030  2.5000000 
      29      0.030  2.5000000 
      30      0.030  2.5000000 
      31      0.030  2.5000000 
      32      0.030  2.5000000 
      33      0.030  2.5000000 
      34      0.030  2.5000000 
      35      0.030  2.5000000 
      36      0.030  2.5000000 
      37      0.030  2.5000000 

Bond Coeffs 

       1   280.0000     1.5100 
       2   260.0000     1.5200 
       3   260.0000     1.5200 
       4   280.0000     1.5100 
       5   268.0000     1.5290 
       6   317.0000     1.5220 
       7   570.0000     1.2290 
       8   317.0000     1.5220 
       9   268.0000     1.5290 
      10   268.0000     1.5290 
      11   268.0000     1.5290 
      12   268.0000     1.5290 
      13   268.0000     1.5290 
      14   390.0000     1.4700 
      15   650.0000     1.1570 
      16   340.0000     1.0900 
      17   340.0000     1.0900 
      18   340.0000     1.0900 
      19   340.0000     1.0880 
      20   340.0000     1.0880 
      21   340.0000     1.0880 
      22   340.0000     1.0880 
      23   340.0000     1.0900 
      24   340.0000     1.0900 
      25   340.0000     1.0900 
      26   340.0000     1.0900 
      27   340.0000     1.0900 
      28   340.0000     1.0900 
      29   340.0000     1.0900 
      30   340.0000     1.0900 
      31   340.0000     1.0900 
      32   340.0000     1.0900 
      33   340.0000     1.0900 
      34   340.0000     1.0900 
      35   340.0000     1.0900 
      36   340.0000     1.0900 
      37   260.0000     1.5200 
      38   268.0000     1.5290 

Angle Coeffs 

       1     37.500    117.200
       2     37.500    117.200
       3     37.500    117.200
       4     58.350    112.700
       5     63.000    111.100
       6     80.000    120.400
       7     70.000    116.000
       8     63.000    111.100
       9     63.000    111.100
      10     63.000    111.100
      11     58.350    112.700
      12     58.350    112.700
      13     58.350    112.700
      14    150.000    180.000
      15     37.500    110.700
      16     37.500    110.700
      17     37.500    110.700
      18     35.000    114.300
      19     37.500    117.200
      20     37.500    117.200
      21     37.500    117.200
      22     37.500    110.700
      23     37.500    110.700
      24     37.500    110.700
      25     37.500    110.700
      26     37.500    110.700
      27     37.500    110.700
      28     37.500    110.700
      29     37.500    110.700
      30     37.500    110.700
      31     37.500    110.700
      32     37.500    110.700
      33     37.500    110.700
      34     37.500    110.700
      35     37.500    110.700
      36     37.500    117.200
      37     33.000    107.800
      38     33.000    107.800
      39     33.000    107.800
      40     30.000     83.000
      41     37.500    117.200
      42     58.350    112.700
      43     37.500    117.200
      44     30.000     83.000
      45     58.350    112.700
      46     58.350    112.700
      47     37.500    110.700
      48     33.000    107.800
      49     37.500    117.200
      50     35.000    114.300
      51     58.350    112.700
      52     80.000    120.400
      53     37.500    110.700
      54     33.000    107.800
      55     33.000    107.800
      56     37.500    110.700
      57     35.000    114.300
      58     35.000    108.500
      59     33.000    107.800
      60     33.000    107.800
      61     63.000    111.100
      62     30.000     83.000
      63     37.500    117.200
      64     33.000    107.800
      65     37.500    110.700
      66     58.350    112.700
      67     33.000    107.800
      68     33.000    107.800
      69     37.500    110.700
      70     33.000    107.800
      71     33.000    107.800
      72     63.000    111.100
      73     58.350    112.700
      74     58.350    112.700
      75     33.000    107.800
      76     37.500    117.200

Dihedral Coeffs  

       1      0.000      0.000      0.000      0.000 
       2      0.000      0.000      0.000      0.000 
       3      0.000      0.000      0.000      0.000 
       4      0.000      0.000      0.000      0.000 
       5      1.454     -0.144     -0.775      0.000 
       6     -2.060     -0.313      0.315      0.000 
       7      0.000      0.000      0.000      0.000 
       8      0.000      0.000      0.300      0.000 
       9      0.000      0.000      0.000      0.000 
      10      0.000      0.000      0.000      0.000 
      11      0.000      0.000      0.000      0.000 
      12      0.000      0.000      0.300      0.000 
      13      0.000      0.000     -0.100      0.000 
      14      0.000      0.000     -0.100      0.000 
      15      0.000      0.000      0.000      0.000 
      16      1.300     -0.200      0.200      0.000 
      17      0.000      0.000      0.000      0.000 
      18      1.300     -0.200      0.200      0.000 
      19      0.000      0.000      0.000      0.000 
      20      0.000      0.000      0.300      0.000 
      21      1.454     -0.144     -0.775      0.000 
      22      0.000      0.000      0.300      0.000 
      23      0.000      0.000      0.300      0.000 
      24      0.000      0.000      0.300      0.000 
      25      0.000      0.000      0.000      0.000 
      26      0.000      0.000     -0.100      0.000 
      27      0.000      0.000     -0.100      0.000 
      28      0.000      0.000      0.300      0.000 
      29      0.000      0.000      0.300      0.000 
      30      0.000      0.000      0.000      0.000 
      31      0.000      0.000      0.300      0.000 
      32      0.000      0.000      0.300      0.000 
      33      0.000      0.000      0.300      0.000 
      34      0.000      0.000      0.300      0.000 
      35      1.454     -0.144     -0.775      0.000 
      36      0.000      0.000      0.000      0.000 
      37      0.000      0.000      0.000      0.000 
      38      0.000     -0.650      0.000      0.000 
      39      0.000      0.000      0.300      0.000 
      40      0.000      0.000      0.300      0.000 
      41      1.454     -0.144     -0.775      0.000 
      42      0.000      0.000      0.300      0.000 
      43      0.000      0.000      0.000      0.000 
      44      0.000      0.000      0.000      0.000 
      45      0.000      0.000      0.000      0.000 
      46      0.000      0.000      0.300      0.000 
      47      0.000      0.000      0.300      0.000 
      48      0.000      0.000      0.300      0.000 
      49      0.000      0.000     -0.100      0.000 
      50      1.454     -0.144     -0.775      0.000 
      51      0.000      0.000      0.000      0.000 
      52      0.000      0.000      0.300      0.000 
      53      1.300     -0.200      0.200      0.000 
      54      0.000      0.000      0.300      0.000 
      55      0.000      0.000      0.300      0.000 
      56      0.000      0.000      0.300      0.000 
      57      0.000      0.000      0.300      0.000 
      58      0.000      0.000      0.300      0.000 
      59      0.000      0.000      0.300      0.000 
      60      0.000      0.000      0.300      0.000 
      61      0.000      0.000      0.300      0.000 
      62     -2.060     -0.313      0.315      0.000 
      63      0.000      0.000      0.300      0.000 
      64      0.000      0.000      0.300      0.000 
      65      0.000      0.000      0.300      0.000 
      66      0.000      0.000      0.000      0.000 
      67      0.000      0.000      0.300      0.000 
      68     -2.060     -0.313      0.315      0.000 
      69      0.000      0.000     -0.100      0.000 
      70      0.000      0.000      0.000      0.000 
      71      0.000      0.000      0.000      0.000 
      72      0.000      0.000      0.300      0.000 
      73      0.000      0.000     -0.100      0.000 
      74      0.000      0.000      0.000      0.000 
      75      0.000      0.000      0.300      0.000 
      76      0.000      0.000      0.000      0.000 
      77      0.000      0.000      0.000      0.000 
      78      0.000      0.000      0.300      0.000 
      79      0.000      0.000      0.300      0.000 
      80      0.000      0.000      0.300      0.000 
      81      0.000      0.000      0.000      0.000 
      82      0.000      0.000      0.000      0.000 
      83      0.000      0.000      0.300      0.000 
      84      0.000      0.000      0.000      0.000 
      85      0.000      0.000      0.300      0.000 
      86      0.000      0.000     -0.100      0.000 
      87      0.000      0.000      0.366      0.000 
      88      0.000     -0.650      0.000      0.000 
      89      0.000     -0.650      0.000      0.000 
      90      0.000      0.000     -0.100      0.000 
      91      0.000      0.000     -0.100      0.000 
      92      0.000      0.000      0.000      0.000 
      93      1.300     -0.200      0.200      0.000 
      94      0.000      0.000      0.300      0.000 
      95      0.000      0.000      0.000      0.000 
      96      0.000      0.000      0.300      0.000 
      97      0.000      0.000      0.300      0.000 
      98      0.000      0.000      0.300      0.000 
      99      0.000      0.000      0.366      0.000 
     100      1.300     -0.200      0.200      0.000 
     101      0.000      0.000      0.000      0.000 
     102      1.454     -0.144     -0.775      0.000 
     103      0.000      0.000     -0.100      0.000 
     104      0.000      0.000      0.300      0.000 
     105      0.000      0.000      0.000      0.000 
     106      1.300     -0.200      0.200      0.000 
     107      0.000      0.000      0.000      0.000 
     108     -2.060     -0.313      0.315      0.000 
     109      0.000      0.000      0.000      0.000 
     110      0.000      0.000     -0.100      0.000 
     111      0.000      0.000      0.300      0.000 
     112      0.000      0.000      0.000      0.000 
     113      0.000      0.000      0.000      0.000 
     114      0.000      0.000      0.300      0.000 
     115      0.000      0.000      0.300      0.000 
     116     -2.060     -0.313      0.315      0.000 
     117      0.000      0.000     -0.100      0.000 
     118      0.000      0.000      0.300      0.000 
     119      0.000      0.000      0.300      0.000 

Improper Coeffs 

       1      0.000      -1       2 
       2     10.500      -1       2 
       3      0.000      -1       2 
       4      0.000      -1       2 
       5      0.000      -1       2 
       6      0.000      -1       2 
       7      0.000      -1       2 
       8      0.000      -1       2 
       9      0.000      -1       2 
      10      0.000      -1       2 
      11      0.000      -1       2 
      12      0.000      -1       2 
      13      0.000      -1       2 
      14      0.000      -1       2 
      15      0.000      -1       2 
      16      0.000      -1       2 
      17      0.000      -1       2 
      18      0.000      -1       2 
      19      0.000      -1       2 
      20      0.000      -1       2 
      21      0.000      -1       2 
      22      0.000      -1       2 

Atoms 

     1      1      1 -0.21330000    1.000  1.00000  0.00000
     2      1      2 -0.16050000   -0.498  1.00000  0.00000
     3      1      3 -0.24880000   -1.138  1.00000  1.35055
     4      1      4 -0.17310000   -1.330  2.20618  0.43820
     5      1      5 -0.04020000   -2.810  2.53918  0.08683
     6      1      6 -0.23550000   -3.376  1.41971 -0.82585
     7      1      7 0.38870000   -3.608  2.60843  1.42183
     8      1      8 -0.43380000   -4.305  1.65651  1.78298
     9      1      9 -0.08610000   -3.423  3.83837  2.35396
    10      1     10 -0.22180000   -2.087  3.84591  3.11470
    11      1     11 -0.22990000   -4.531  3.80347  3.43013
    12      1     12 -0.17320000   -3.546  5.12452  1.52238
    13      1     13 -0.18320000   -2.662  5.10599  0.26120
    14      1     14 0.03860000   -2.989  3.90503 -0.65911
    15      1     15 0.13210000   -4.425  4.15409 -1.08905
    16      1     16 -0.38770000   -5.616  4.36071 -1.44728
    17      1     17 0.08860000    1.367 -0.02760  0.11329
    18      1     18 0.08860000    1.412  1.58497  0.83156
    19      1     19 0.08860000    1.396  1.40313 -0.93469
    20      1     20 0.13820000   -0.885  0.34014 -0.76533
    21      1     21 0.13500000   -0.520  1.11725  2.23571
    22      1     22 0.13500000   -1.940  0.28187  1.50118
    23      1     23 0.13560000   -0.737  3.09014  0.63696
    24      1     24 0.09930000   -3.294  0.42886 -0.36708
    25      1     25 0.09930000   -2.832  1.38663 -1.77847
    26      1     26 0.09930000   -4.439  1.55867 -1.04833
    27      1     27 0.08890000   -1.937  2.92075  3.67790
    28      1     28 0.08890000   -2.056  4.67951  3.82955
    29      1     29 0.08890000   -1.221  3.98220  2.46752
    30      1     30 0.09430000   -4.463  2.89140  4.03969
    31      1     31 0.09430000   -5.529  3.81793  2.97911
    32      1     32 0.09430000   -4.453  4.65638  4.11517
    33      1     33 0.10620000   -3.289  6.00228  2.12964
    34      1     34 0.10620000   -4.596  5.27089  1.23323
    35      1     35 0.10600000   -1.604  5.10611  0.53743
    36      1     36 0.10600000   -2.832  6.04299 -0.28634
    37      1     37 0.14630000   -2.336  3.94109 -1.53978

Bonds 

     1      1      2      1
     2      2      3      2
     3      3      4      2
     4      4      5      4
     5      5      6      5
     6      6      7      5
     7      7      8      7
     8      8      9      7
     9      9     10      9
    10     10     11      9
    11     11     12      9
    12     12     13     12
    13     13     14      5
    14     14     15     14
    15     15     16     15
    16     16     17      1
    17     17     18      1
    18     18     19      1
    19     19     20      2
    20     20     21      3
    21     21     22      3
    22     22     23      4
    23     23     24      6
    24     24     25      6
    25     25     26      6
    26     26     27     10
    27     27     28     10
    28     28     29     10
    29     29     30     11
    30     30     31     11
    31     31     32     11
    32     32     33     12
    33     33     34     12
    34     34     35     13
    35     35     36     13
    36     36     37     14
    37     37      4      3
    38     38     14     13

Angles 

     1      1      1      2      3
     2      2      1      2      4
     3      3      2      4      5
     4      4      4      5      6
     5      5      4      5      7
     6      6      5      7      8
     7      7      5      7      9
     8      8      7      9     10
     9      9      7      9     11
    10     10      7      9     12
    11     11      9     12     13
    12     12      4      5     14
    13     13      5     14     15
    14     14     14     15     16
    15     15      2      1     17
    16     16      2      1     18
    17     17      2      1     19
    18     18      1      2     20
    19     19      2      3     21
    20     20      2      3     22
    21     21      2      4     23
    22     22      5      6     24
    23     23      5      6     25
    24     24      5      6     26
    25     25      9     10     27
    26     26      9     10     28
    27     27      9     10     29
    28     28      9     11     30
    29     29      9     11     31
    30     30      9     11     32
    31     31      9     12     33
    32     32      9     12     34
    33     33     12     13     35
    34     34     12     13     36
    35     35      5     14     37
    36     36      3      2     20
    37     37     24      6     25
    38     38     31     11     32
    39     39     25      6     26
    40     40      2      4      3
    41     41      4      2     20
    42     42     13     14     15
    43     43      3      4     23
    44     44      2      3      4
    45     45     10      9     12
    46     46      6      5     14
    47     47     14     13     35
    48     48     27     10     28
    49     49      4      3     22
    50     50     21      3     22
    51     51     10      9     11
    52     52      8      7      9
    53     53     13     14     37
    54     54     27     10     29
    55     55     28     10     29
    56     56     13     12     33
    57     57      5      4     23
    58     58     15     14     37
    59     59     18      1     19
    60     60     17      1     19
    61     61      6      5      7
    62     62      3      2      4
    63     63      4      3     21
    64     64     30     11     31
    65     65     14     13     36
    66     66     11      9     12
    67     67     17      1     18
    68     68     35     13     36
    69     69     13     12     34
    70     70     24      6     26
    71     71     33     12     34
    72     72      7      5     14
    73     73     12     13     14
    74     74      5     14     13
    75     75     30     11     32
    76     76      3      4      5

Dihedrals

     1      1      4      2      1      3 
     2      2      5      4      2      3 
     3      3      6      5      4      2 
     4      4      8      7      5      4 
     5      5     10      9      7      5 
     6      6     13     12      9      7 
     7      7     16     15     14      5 
     8      8     17      1      2      3 
     9      9     21      3      2      4 
    10     10     22      3      2      4 
    11     11     23      4      2      3 
    12     12     24      6      5      4 
    13     13     27     10      9      7 
    14     14     30     11      9      7 
    15     15     23      4      3     21 
    16     16     13     14      5      4 
    17     17      5      4      2      1 
    18     18     14     13     12      9 
    19     19     21      3      2     20 
    20     20     35     13     14      5 
    21     21     14      5      7      9 
    22     22     20      2      1     18 
    23     23     18      1      2      4 
    24     24     19      1      2      3 
    25     25     22      3      4      2 
    26     26     25      6      5      7 
    27     27     34     12      9      7 
    28     28     33     12     13     14 
    29     29     30     11      9     10 
    30     30      5      4      3      2 
    31     31     37     14      5      4 
    32     32     32     11      9     12 
    33     33     24      6      5     14 
    34     34     36     13     12     34 
    35     35      9      7      5      6 
    36     36     37     14     15     16 
    37     37     10      9      7      8 
    38     38     15     14      5      6 
    39     39     35     13     12     34 
    40     40     36     13     12     33 
    41     41     12      9      7      5 
    42     42     36     13     12      9 
    43     43     14      5      7      8 
    44     44     23      4      2      1 
    45     45     23      4      2     20 
    46     46     26      6      5      4 
    47     47     25      6      5     14 
    48     48     23      4      5      6 
    49     49     29     10      9      7 
    50     50     11      9      7      5 
    51     51     12      9      7      8 
    52     52     20      2      1     19 
    53     53     13     12      9     11 
    54     54     32     11      9     10 
    55     55     30     11      9     12 
    56     56     35     13     12      9 
    57     57     34     12     13     14 
    58     58     28     10      9     12 
    59     59     29     10      9     11 
    60     60     34     12      9     10 
    61     61     33     12      9     11 
    62     62     15     14      5      7 
    63     63     37     14      5      6 
    64     64     17      1      2      4 
    65     65     18      1      2      3 
    66     66     20      2      4      3 
    67     67     37     14     13     12 
    68     68      7      5      4      2 
    69     69     24      6      5      7 
    70     70      6      5      4      3 
    71     71     23      4      3      2 
    72     72     27     10      9     11 
    73     73     37     14      5      7 
    74     74     23      4      3     22 
    75     75     35     13     12     33 
    76     76     21      3      4      2 
    77     77     20      2      4      5 
    78     78     33     12      9     10 
    79     79     36     13     14      5 
    80     80     20      2      1     17 
    81     81     11      9      7      8 
    82     82     22      3      2     20 
    83     83     29     10      9     12 
    84     84     21      3      4      5 
    85     85     31     11      9     10 
    86     86     28     10      9      7 
    87     87     36     13     14     15 
    88     88     15     14      5      4 
    89     89     15     14     13     12 
    90     90     32     11      9      7 
    91     91     23      4      5      7 
    92     92     20      2      3      4 
    93     93     13     14      5      6 
    94     94     37     14     13     35 
    95     95     14      5      4      3 
    96     96     25      6      5      4 
    97     97     23      4      5     14 
    98     98     19      1      2      4 
    99     99     35     13     14     15 
   100    100     13     12      9     10 
   101    101     14      5      4      2 
   102    102      9      7      5      4 
   103    103     33     12      9      7 
   104    104     26      6      5     14 
   105    105     22      3      2      1 
   106    106     12     13     14      5 
   107    107      8      7      5      6 
   108    108      7      5      4      3 
   109    109     16     15     14     13 
   110    110     31     11      9      7 
   111    111     37     14     13     36 
   112    112     21      3      2      1 
   113    113     22      3      4      5 
   114    114     27     10      9     12 
   115    115     31     11      9     12 
   116    116     13     14      5      7 
   117    117     26      6      5      7 
   118    118     28     10      9     11 
   119    119     34     12      9     11 

Impropers

     1      1      5      4      6      7 
     2      2      7      9      5      8 
     3      3      9     10     11      7 
     4      4      9     10     12      7 
     5      5      5      4     14      6 
     6      6     14     13      5     15 
     7      7      1     18     17      2 
     8      8      1      2     19     17 
     9      9      2      1      3     20 
    10     10      6     25      5     24 
    11     11      6     26      5     24 
    12     12     10      9     27     28 
    13     13     10      9     27     29 
    14     14     11      9     30     31 
    15     15     11      9     30     32 
    16     16     12     33      9     13 
    17     17     12      9     34     13 
    18     18     13     35     12     14 
    19     19     13     12     36     14 
    20     20     14      5     37     13 
    21     21      2      3      4      1 
    22     22      2      3      4      1 

