LAMMPS data file Created by LigParGen - (Written by Leela S. Dodda)

      37 atoms
      38 bonds
      78 angles
     118 dihedrals
      26 impropers
 
      37 atom types
      38 bond types
      78 angle types
     118 dihedral types
      26 improper types
 
   -3.793610    46.206390 xlo xhi
   -3.463350    46.536650 ylo yhi
   -1.026310    48.973690 zlo zhi

Masses

       1     12.011  
       2     12.011  
       3     12.011  
       4     12.011  
       5     12.011  
       6     12.011  
       7     12.011  
       8     12.011  
       9     12.011  
      10     12.011  
      11     12.011  
      12     12.011  
      13     12.011  
      14      1.008  
      15      1.008  
      16      1.008  
      17      1.008  
      18      1.008  
      19      1.008  
      20      1.008  
      21      1.008  
      22      1.008  
      23      1.008  
      24      1.008  
      25      1.008  
      26      1.008  
      27      1.008  
      28      1.008  
      29      1.008  
      30      1.008  
      31      1.008  
      32      1.008  
      33      1.008  
      34      1.008  
      35      1.008  
      36      1.008  
      37      1.008  

Pair Coeffs 

       1      0.066  3.5000000 
       2      0.066  3.5000000 
       3      0.083  3.4500000 
       4      0.083  3.4500000 
       5      0.083  3.4500000 
       6      0.083  3.4500000 
       7      0.083  3.4500000 
       8      0.083  3.4500000 
       9      0.066  3.5000000 
      10      0.066  3.5000000 
      11      0.066  3.5000000 
      12      0.066  3.5000000 
      13      0.083  3.4500000 
      14      0.030  2.5000000 
      15      0.030  2.5000000 
      16      0.030  2.5000000 
      17      0.030  2.5000000 
      18      0.030  2.5000000 
      19      0.030  2.5000000 
      20      0.030  2.5000000 
      21      0.030  2.5000000 
      22      0.030  2.5000000 
      23      0.030  2.5000000 
      24      0.030  2.5000000 
      25      0.030  2.5000000 
      26      0.030  2.5000000 
      27      0.030  2.5000000 
      28      0.030  2.5000000 
      29      0.030  2.5000000 
      30      0.030  2.5000000 
      31      0.030  2.5000000 
      32      0.030  2.5000000 
      33      0.030  2.5000000 
      34      0.030  2.5000000 
      35      0.030  2.5000000 
      36      0.030  2.5000000 
      37      0.030  2.5000000 

Bond Coeffs 

       1   268.0000     1.5290 
       2   280.0000     1.5100 
       3   260.0000     1.5200 
       4   260.0000     1.5200 
       5   260.0000     1.5200 
       6   260.0000     1.5200 
       7   260.0000     1.5200 
       8   280.0000     1.5100 
       9   268.0000     1.5290 
      10   268.0000     1.5290 
      11   268.0000     1.5290 
      12   260.0000     1.5200 
      13   340.0000     1.0900 
      14   340.0000     1.0900 
      15   340.0000     1.0900 
      16   340.0000     1.0900 
      17   340.0000     1.0900 
      18   340.0000     1.0880 
      19   340.0000     1.0880 
      20   340.0000     1.0880 
      21   340.0000     1.0880 
      22   340.0000     1.0880 
      23   340.0000     1.0880 
      24   340.0000     1.0880 
      25   340.0000     1.0880 
      26   340.0000     1.0900 
      27   340.0000     1.0900 
      28   340.0000     1.0900 
      29   340.0000     1.0900 
      30   340.0000     1.0900 
      31   340.0000     1.0900 
      32   340.0000     1.0900 
      33   340.0000     1.0900 
      34   340.0000     1.0900 
      35   340.0000     1.0880 
      36   340.0000     1.0880 
      37   260.0000     1.5200 
      38   260.0000     1.5200 

Angle Coeffs 

       1     58.350    112.700
       2     37.500    117.200
       3     37.500    117.200
       4     30.000     83.000
       5     30.000     83.000
       6     30.000     83.000
       7     37.500    117.200
       8     58.350    112.700
       9     58.350    112.700
      10     58.350    112.700
      11     30.000     83.000
      12     37.500    110.700
      13     37.500    110.700
      14     37.500    110.700
      15     37.500    110.700
      16     37.500    110.700
      17     35.000    114.300
      18     37.500    117.200
      19     37.500    117.200
      20     37.500    117.200
      21     37.500    117.200
      22     37.500    117.200
      23     37.500    117.200
      24     37.500    117.200
      25     37.500    110.700
      26     37.500    110.700
      27     37.500    110.700
      28     37.500    110.700
      29     37.500    110.700
      30     37.500    110.700
      31     37.500    110.700
      32     37.500    110.700
      33     37.500    110.700
      34     37.500    117.200
      35     37.500    117.200
      36     58.350    112.700
      37     37.500    117.200
      38     37.500    117.200
      39     30.000     83.000
      40     33.000    107.800
      41     37.500    110.700
      42     30.000     83.000
      43     30.000     83.000
      44     37.500    117.200
      45     37.500    110.700
      46     35.000    114.300
      47     37.500    110.700
      48     37.500    117.200
      49     37.500    117.200
      50     33.000    107.800
      51     37.500    117.200
      52     33.000    107.800
      53     30.000     83.000
      54     33.000    107.800
      55     37.500    117.200
      56     37.500    117.200
      57     33.000    107.800
      58     33.000    107.800
      59     33.000    107.800
      60     33.000    107.800
      61     33.000    107.800
      62     33.000    107.800
      63     37.500    110.700
      64     30.000     83.000
      65     33.000    107.800
      66     37.500    117.200
      67     35.000    114.300
      68     37.500    110.700
      69     37.500    117.200
      70     37.500    117.200
      71     37.500    117.200
      72     37.500    117.200
      73     30.000     83.000
      74     37.500    110.700
      75     35.000    114.300
      76     35.000    114.300
      77     30.000     83.000
      78     37.500    117.200

Dihedral Coeffs  

       1      0.000      0.000      0.000      0.000 
       2      0.000      0.000      0.000      0.000 
       3      0.000      0.000      0.000      0.000 
       4      0.000      0.000      0.000      0.000 
       5      0.000      0.000      0.000      0.000 
       6      0.000      0.000      0.000      0.000 
       7      0.000      0.000      0.000      0.000 
       8      1.300     -0.200      0.200      0.000 
       9      0.000      0.000      0.300      0.000 
      10      0.000      0.000      0.000      0.000 
      11      0.000      0.000      0.000      0.000 
      12      0.000      0.000      0.000      0.000 
      13      0.000      0.000      0.300      0.000 
      14      0.000      0.000      0.300      0.000 
      15      0.000      0.000      0.300      0.000 
      16      0.000      0.000      0.000      0.000 
      17      0.000      0.000      0.000      0.000 
      18      0.000      0.000      0.000      0.000 
      19      0.000      0.000      0.000      0.000 
      20      0.000      0.000      0.000      0.000 
      21      0.000      0.000      0.000      0.000 
      22      0.000      0.000      0.000      0.000 
      23      0.000      0.000      0.000      0.000 
      24      0.000      0.000      0.000      0.000 
      25      0.000      0.000      0.000      0.000 
      26      0.000      0.000      0.000      0.000 
      27      0.000      0.000      0.000      0.000 
      28      0.000      0.000      0.300      0.000 
      29      0.000      0.000      0.000      0.000 
      30      0.000      0.000      0.300      0.000 
      31      0.000      0.000      0.300      0.000 
      32      0.000      0.000      0.300      0.000 
      33      0.000      0.000      0.000      0.000 
      34      0.000      0.000      0.000      0.000 
      35      0.000      0.000      0.300      0.000 
      36      0.000      0.000      0.300      0.000 
      37      0.000      0.000      0.000      0.000 
      38      0.000      0.000      0.000      0.000 
      39      0.000      0.000      0.300      0.000 
      40      0.000      0.000      0.000      0.000 
      41      0.000      0.000      0.300      0.000 
      42      0.000      0.000      0.300      0.000 
      43      0.000      0.000      0.000      0.000 
      44      0.000      0.000      0.000      0.000 
      45      0.000      0.000      0.000      0.000 
      46      0.000      0.000      0.000      0.000 
      47      0.000      0.000      0.300      0.000 
      48      0.000      0.000      0.300      0.000 
      49      0.000      0.000      0.300      0.000 
      50      0.000      0.000      0.000      0.000 
      51      0.000      0.000      0.300      0.000 
      52      0.000      0.000      0.000      0.000 
      53      0.000      0.000      0.000      0.000 
      54      0.000      0.000      0.300      0.000 
      55      0.000      0.000      0.000      0.000 
      56      0.000      0.000      0.000      0.000 
      57      0.000      0.000      0.300      0.000 
      58      0.000      0.000      0.000      0.000 
      59      0.000      0.000      0.000      0.000 
      60      0.000      0.000      0.300      0.000 
      61      0.000      0.000      0.000      0.000 
      62      0.000      0.000      0.300      0.000 
      63      0.000      0.000      0.000      0.000 
      64      0.000      0.000      0.300      0.000 
      65      0.000      0.000      0.000      0.000 
      66      0.000      0.000      0.000      0.000 
      67      0.000      0.000      0.000      0.000 
      68      0.000      0.000      0.300      0.000 
      69      0.000      0.000      0.000      0.000 
      70      0.000      0.000      0.000      0.000 
      71      0.000      0.000      0.000      0.000 
      72      0.000      0.000      0.000      0.000 
      73      0.000      0.000      0.000      0.000 
      74      0.000      0.000      0.300      0.000 
      75      0.000      0.000      0.300      0.000 
      76      0.000      0.000      0.000      0.000 
      77      0.000      0.000      0.300      0.000 
      78      0.000      0.000      0.300      0.000 
      79      0.000      0.000      0.000      0.000 
      80      0.000      0.000      0.300      0.000 
      81      0.000      0.000      0.300      0.000 
      82      0.000      0.000      0.300      0.000 
      83      0.000      0.000      0.000      0.000 
      84      0.000      0.000      0.300      0.000 
      85      0.000      0.000      0.300      0.000 
      86      0.000      0.000      0.000      0.000 
      87      0.000      0.000      0.000      0.000 
      88      0.000      0.000      0.300      0.000 
      89      0.000      0.000      0.300      0.000 
      90      0.000      0.000      0.300      0.000 
      91      0.000      0.000      0.000      0.000 
      92      0.000      0.000      0.000      0.000 
      93      0.000      0.000      0.000      0.000 
      94      0.000      0.000      0.300      0.000 
      95      0.000      0.000      0.000      0.000 
      96      0.000      0.000      0.300      0.000 
      97      0.000      0.000      0.300      0.000 
      98      1.300     -0.200      0.200      0.000 
      99      0.000      0.000      0.300      0.000 
     100      0.000      0.000      0.000      0.000 
     101      0.000      0.000      0.300      0.000 
     102      0.000      0.000      0.000      0.000 
     103      0.000      0.000      0.000      0.000 
     104      0.000      0.000      0.000      0.000 
     105      0.000      0.000      0.000      0.000 
     106      0.000      0.000      0.300      0.000 
     107      0.000      0.000      0.300      0.000 
     108      0.000      0.000      0.000      0.000 
     109      0.000      0.000      0.000      0.000 
     110      0.000      0.000      0.300      0.000 
     111      0.000      0.000      0.300      0.000 
     112      0.000      0.000      0.300      0.000 
     113      0.000      0.000      0.000      0.000 
     114      0.000      0.000      0.000      0.000 
     115      0.000      0.000      0.300      0.000 
     116      0.000      0.000      0.300      0.000 
     117      0.000      0.000      0.300      0.000 
     118      0.000      0.000      0.000      0.000 

Improper Coeffs 

       1      0.000      -1       2 
       2      0.000      -1       2 
       3      0.000      -1       2 
       4      0.000      -1       2 
       5      0.000      -1       2 
       6      0.000      -1       2 
       7      0.000      -1       2 
       8      0.000      -1       2 
       9      0.000      -1       2 
      10      0.000      -1       2 
      11      0.000      -1       2 
      12      0.000      -1       2 
      13      0.000      -1       2 
      14      0.000      -1       2 
      15      0.000      -1       2 
      16      0.000      -1       2 
      17      0.000      -1       2 
      18      0.000      -1       2 
      19      0.000      -1       2 
      20      0.000      -1       2 
      21      0.000      -1       2 
      22      0.000      -1       2 
      23      0.000      -1       2 
      24      0.000      -1       2 
      25      0.000      -1       2 
      26      0.000      -1       2 

Atoms 

     1      1      1 -0.23620000    1.000  1.00000  0.00000
     2      1      2 -0.14820000   -0.520  1.00000  0.00000
     3      1      3 -0.17070000   -1.068  1.00000  1.39550
     4      1      4 -0.24050000   -2.557  0.93978  1.60539
     5      1      5 -0.16700000   -1.698 -0.24464  1.97452
     6      1      6 -0.11030000   -1.499 -0.67662  3.40993
     7      1      7 -0.18210000   -2.747 -1.06488  4.24392
     8      1      8 -0.13950000   -1.881 -2.13088  4.96392
     9      1      9 -0.15130000   -1.196 -1.74543  6.27916
    10      1     10 -0.11660000   -2.201 -1.39796  7.39340
    11      1     11 -0.23330000   -3.138 -2.55997  7.72519
    12      1     12 -0.23750000   -1.446 -0.96351  8.65227
    13      1     13 -0.18610000   -0.962 -2.10216  3.71364
    14      1     14 0.08170000    1.380  1.00130 -1.02631
    15      1     15 0.08170000    1.393  0.11720  0.51402
    16      1     16 0.08170000    1.390  1.88806  0.50913
    17      1     17 0.09130000   -0.881  0.13026 -0.56134
    18      1     18 0.09130000   -0.876  1.89437 -0.52366
    19      1     19 0.13340000   -0.522  1.66732  2.05414
    20      1     20 0.12350000   -3.203  0.84482  0.74009
    21      1     21 0.12350000   -2.978  1.53847  2.40651
    22      1     22 0.12860000   -1.802 -1.12072  1.34198
    23      1     23 0.10910000   -0.904  0.08634  3.93550
    24      1     24 0.10090000   -3.562 -1.49935  3.65139
    25      1     25 0.10090000   -3.159 -0.26064  4.85837
    26      1     26 0.10410000   -2.393 -3.09554  5.07011
    27      1     27 0.09160000   -0.535 -0.88455  6.11880
    28      1     28 0.09160000   -0.554 -2.57477  6.60240
    29      1     29 0.09790000   -2.817 -0.55046  7.07101
    30      1     30 0.08110000   -2.575 -3.46335  7.98255
    31      1     31 0.08110000   -3.794 -2.79271  6.88043
    32      1     32 0.08110000   -3.782 -2.30724  8.57434
    33      1     33 0.08090000   -0.819 -1.77433  9.03860
    34      1     34 0.08090000   -2.145 -0.66903  9.44194
    35      1     35 0.08090000   -0.800 -0.10467  8.44157
    36      1     36 0.10010000   -1.233 -2.85298  2.96129
    37      1     37 0.10010000    0.114 -2.16980  3.89919

Bonds 

     1      1      2      1
     2      2      3      2
     3      3      4      3
     4      4      5      3
     5      5      6      5
     6      6      7      6
     7      7      8      7
     8      8      9      8
     9      9     10      9
    10     10     11     10
    11     11     12     10
    12     12     13      6
    13     13     14      1
    14     14     15      1
    15     15     16      1
    16     16     17      2
    17     17     18      2
    18     18     19      3
    19     19     20      4
    20     20     21      4
    21     21     22      5
    22     22     23      6
    23     23     24      7
    24     24     25      7
    25     25     26      8
    26     26     27      9
    27     27     28      9
    28     28     29     10
    29     29     30     11
    30     30     31     11
    31     31     32     11
    32     32     33     12
    33     33     34     12
    34     34     35     12
    35     35     36     13
    36     36     37     13
    37     37      5      4
    38     38     13      8

Angles 

     1      1      1      2      3
     2      2      2      3      4
     3      3      2      3      5
     4      4      3      5      6
     5      5      5      6      7
     6      6      6      7      8
     7      7      7      8      9
     8      8      8      9     10
     9      9      9     10     11
    10     10      9     10     12
    11     11      5      6     13
    12     12      2      1     14
    13     13      2      1     15
    14     14      2      1     16
    15     15      1      2     17
    16     16      1      2     18
    17     17      2      3     19
    18     18      3      4     20
    19     19      3      4     21
    20     20      3      5     22
    21     21      5      6     23
    22     22      6      7     24
    23     23      6      7     25
    24     24      7      8     26
    25     25      8      9     27
    26     26      8      9     28
    27     27      9     10     29
    28     28     10     11     30
    29     29     10     11     31
    30     30     10     11     32
    31     31     10     12     33
    32     32     10     12     34
    33     33     10     12     35
    34     34      6     13     36
    35     35      6     13     37
    36     36     11     10     12
    37     37      5      3     19
    38     38     13      6     23
    39     39      3      5      4
    40     40     30     11     32
    41     41      3      2     18
    42     42      6     13      8
    43     43      4      5      6
    44     44      6      5     22
    45     45      3      2     17
    46     46     24      7     25
    47     47     12     10     29
    48     48      4      3     19
    49     49      8     13     37
    50     50     31     11     32
    51     51      9      8     13
    52     52     27      9     28
    53     53      4      3      5
    54     54     33     12     34
    55     55      8     13     36
    56     56      8      7     25
    57     57     15      1     16
    58     58     14      1     15
    59     59     34     12     35
    60     60     33     12     35
    61     61     14      1     16
    62     62     17      2     18
    63     63     11     10     29
    64     64      7      6     13
    65     65     30     11     31
    66     66      5      4     20
    67     67      9      8     26
    68     68     10      9     28
    69     69      5      4     21
    70     70      8      7     24
    71     71      7      6     23
    72     72      4      5     22
    73     73      7      8     13
    74     74     10      9     27
    75     75     20      4     21
    76     76     36     13     37
    77     77      3      4      5
    78     78     13      8     26

Dihedrals

     1      1      4      3      2      1 
     2      2      5      3      2      4 
     3      3      6      5      3      4 
     4      4      7      6      5      3 
     5      5      8      7      6      5 
     6      6      9      8      7      6 
     7      7     10      9      8      7 
     8      8     11     10      9      8 
     9      9     14      1      2      3 
    10     10     20      4      3      5 
    11     11     21      4      3      5 
    12     12     22      5      3      4 
    13     13     30     11     10      9 
    14     14     33     12     10      9 
    15     15     31     11     10     12 
    16     16     23      6      7      8 
    17     17     23      6      5      4 
    18     18     19      3      5      4 
    19     19     37     13      6      5 
    20     20     13      8      9     10 
    21     21     24      7      8     13 
    22     22     19      3      5      6 
    23     23     21      4      3     19 
    24     24     24      7      6     23 
    25     25     21      4      5      3 
    26     26     23      6     13      8 
    27     27     25      7      6     23 
    28     28     26      8      9     10 
    29     29     37     13      6      7 
    30     30     27      9      8     13 
    31     31     17      2      1     16 
    32     32     18      2      1     15 
    33     33     24      7      6      5 
    34     34     26      8      7     25 
    35     35     34     12     10     11 
    36     36     17      2      3      4 
    37     37      9      8     13      6 
    38     38     22      5      4     21 
    39     39     32     11     10     12 
    40     40     22      5      3      2 
    41     41     19      3      2      1 
    42     42     27      9      8      7 
    43     43     20      4      5      3 
    44     44     22      5      6     13 
    45     45     13      6      5      4 
    46     46     37     13      8      7 
    47     47     32     11     10      9 
    48     48     18      2      1     14 
    49     49     17      2      1     15 
    50     50     24      7      8      9 
    51     51     29     10      9      8 
    52     52     22      5      3     19 
    53     53     22      5      4      3 
    54     54     28      9     10     12 
    55     55      8     13      6      5 
    56     56     25      7      6     13 
    57     57     33     12     10     29 
    58     58     36     13      6     23 
    59     59     36     13      6      7 
    60     60     34     12     10      9 
    61     61      6      5      4      3 
    62     62     28      9      8     13 
    63     63     25      7      6      5 
    64     64     32     11     10     29 
    65     65     20      4      5      6 
    66     66     21      4      3      2 
    67     67     23      6      5      3 
    68     68     30     11     10     29 
    69     69      6      5      3      2 
    70     70     13      6      5      3 
    71     71     26      8      7     24 
    72     72     36     13      8      7 
    73     73     22      5      6      7 
    74     74     28      9      8      7 
    75     75     31     11     10      9 
    76     76     25      7      8     13 
    77     77     27      9      8     26 
    78     78     28      9      8     26 
    79     79     26      8      7      6 
    80     80     35     12     10      9 
    81     81     33     12     10     11 
    82     82     35     12     10     29 
    83     83     36     13      8     26 
    84     84     30     11     10     12 
    85     85     15      1      2      3 
    86     86     37     13      8      9 
    87     87     37     13      6     23 
    88     88     34     12     10     29 
    89     89     29     10      9     27 
    90     90     27      9     10     11 
    91     91     37     13      8     26 
    92     92     24      7      6     13 
    93     93      5      3      2      1 
    94     94     17      2      1     14 
    95     95     22      5      4     20 
    96     96     18      2      3      5 
    97     97     31     11     10     29 
    98     98     12     10      9      8 
    99     99     19      3      2     18 
   100    100     26      8     13      6 
   101    101     19      3      2     17 
   102    102     20      4      3     19 
   103    103     20      4      3      2 
   104    104     21      4      5      6 
   105    105     19      3      4      5 
   106    106     18      2      3      4 
   107    107     17      2      3      5 
   108    108     23      6      5     22 
   109    109      7      6      5      4 
   110    110     27      9     10     12 
   111    111     29     10      9     28 
   112    112     16      1      2      3 
   113    113     25      7      8      9 
   114    114     36     13      8      9 
   115    115     28      9     10     11 
   116    116     35     12     10     11 
   117    117     18      2      1     16 
   118    118     36     13      6      5 

Impropers

     1      1     10      9     11     12 
     2      2      6      5     13      7 
     3      3      1      2     14     15 
     4      4      1      2     14     16 
     5      5      2     17      3      1 
     6      6      2      1     18      3 
     7      7      3      2     19      4 
     8      8      6      7      5     23 
     9      9      7      8      6     24 
    10     10      7     25      6      8 
    11     11      8      9     26      7 
    12     12      9     10     27      8 
    13     13      9     10     28      8 
    14     14     10      9     11     29 
    15     15     11     10     30     31 
    16     16     11     10     30     32 
    17     17     12     33     34     10 
    18     18     12     33     10     35 
    19     19     13     36      6      8 
    20     20     13     37      6      8 
    21     21     13      6      7      8 
    22     22     13      6      7      8 
    23     23      3      4      5      2 
    24     24     13      6      7      8 
    25     25     13      6      7      8 
    26     26      3      4      5      2 

