LAMMPS data file Created by LigParGen - (Written by Leela S. Dodda)

      30 atoms
      30 bonds
      60 angles
      90 dihedrals
      19 impropers
 
      30 atom types
      30 bond types
      60 angle types
      90 dihedral types
      19 improper types
 
   -3.563980    46.436020 xlo xhi
    0.067170    50.067170 ylo yhi
   -1.978960    48.021040 zlo zhi

Masses

       1     12.011  
       2     12.011  
       3     12.011  
       4     12.011  
       5     12.011  
       6     12.011  
       7     12.011  
       8     12.011  
       9     12.011  
      10     35.450  
      11     12.011  
      12      1.008  
      13      1.008  
      14      1.008  
      15      1.008  
      16      1.008  
      17      1.008  
      18      1.008  
      19      1.008  
      20      1.008  
      21      1.008  
      22      1.008  
      23      1.008  
      24      1.008  
      25      1.008  
      26      1.008  
      27      1.008  
      28      1.008  
      29      1.008  
      30      1.008  

Pair Coeffs 

       1      0.066  3.5000000 
       2      0.066  3.5000000 
       3      0.066  3.5000000 
       4      0.066  3.5000000 
       5      0.066  3.5000000 
       6      0.066  3.5000000 
       7      0.066  3.5000000 
       8      0.066  3.5000000 
       9      0.066  3.5000000 
      10      0.300  3.4000000 
      11      0.066  3.5000000 
      12      0.030  2.5000000 
      13      0.030  2.5000000 
      14      0.030  2.5000000 
      15      0.030  2.5000000 
      16      0.030  2.5000000 
      17      0.030  2.5000000 
      18      0.030  2.5000000 
      19      0.030  2.5000000 
      20      0.030  2.5000000 
      21      0.030  2.5000000 
      22      0.030  2.5000000 
      23      0.030  2.5000000 
      24      0.030  2.5000000 
      25      0.030  2.5000000 
      26      0.030  2.5000000 
      27      0.030  2.5000000 
      28      0.030  2.5000000 
      29      0.030  2.5000000 
      30      0.030  2.5000000 

Bond Coeffs 

       1   268.0000     1.5290 
       2   268.0000     1.5290 
       3   268.0000     1.5290 
       4   268.0000     1.5290 
       5   268.0000     1.5290 
       6   268.0000     1.5290 
       7   268.0000     1.5290 
       8   268.0000     1.5290 
       9   245.0000     1.7810 
      10   268.0000     1.5290 
      11   340.0000     1.0900 
      12   340.0000     1.0900 
      13   340.0000     1.0900 
      14   340.0000     1.0900 
      15   340.0000     1.0900 
      16   340.0000     1.0900 
      17   340.0000     1.0900 
      18   340.0000     1.0900 
      19   340.0000     1.0900 
      20   340.0000     1.0900 
      21   340.0000     1.0900 
      22   340.0000     1.0900 
      23   340.0000     1.0900 
      24   340.0000     1.0900 
      25   340.0000     1.0900 
      26   340.0000     1.0900 
      27   340.0000     1.0900 
      28   340.0000     1.0900 
      29   340.0000     1.0900 
      30   268.0000     1.5290 

Angle Coeffs 

       1     58.350    112.700
       2     58.350    112.700
       3     58.350    112.700
       4     58.350    112.700
       5     58.350    112.700
       6     58.350    112.700
       7     58.350    112.700
       8     69.000    109.800
       9     58.350    112.700
      10     37.500    110.700
      11     37.500    110.700
      12     37.500    110.700
      13     37.500    110.700
      14     37.500    110.700
      15     37.500    110.700
      16     37.500    110.700
      17     37.500    110.700
      18     37.500    110.700
      19     37.500    110.700
      20     37.500    110.700
      21     37.500    110.700
      22     37.500    110.700
      23     37.500    110.700
      24     37.500    110.700
      25     37.500    110.700
      26     37.500    110.700
      27     37.500    110.700
      28     37.500    110.700
      29     37.500    110.700
      30     58.350    112.700
      31     37.500    110.700
      32     33.000    107.800
      33     51.000    107.600
      34     33.000    107.800
      35     33.000    107.800
      36     37.500    110.700
      37     33.000    107.800
      38     58.350    112.700
      39     33.000    107.800
      40     58.350    112.700
      41     37.500    110.700
      42     37.500    110.700
      43     58.350    112.700
      44     37.500    110.700
      45     37.500    110.700
      46     33.000    107.800
      47     37.500    110.700
      48     33.000    107.800
      49     37.500    110.700
      50     58.350    112.700
      51     33.000    107.800
      52     37.500    110.700
      53     37.500    110.700
      54     37.500    110.700
      55     33.000    107.800
      56     33.000    107.800
      57     37.500    110.700
      58     33.000    107.800
      59     51.000    107.600
      60     37.500    110.700

Dihedral Coeffs  

       1      1.300     -0.200      0.200      0.000 
       2      1.300     -0.200      0.200      0.000 
       3      1.300     -0.200      0.200      0.000 
       4      1.300     -0.200      0.200      0.000 
       5      1.300     -0.200      0.200      0.000 
       6      0.000      0.000      0.400      0.000 
       7      0.000      0.000      0.300      0.000 
       8      0.000      0.000      0.300      0.000 
       9      0.000      0.000      0.300      0.000 
      10      0.000      0.000      0.300      0.000 
      11      0.000      0.000      0.300      0.000 
      12      0.000      0.000      0.300      0.000 
      13      0.000      0.000      0.300      0.000 
      14      0.000      0.000      0.300      0.000 
      15      1.300     -0.200      0.200      0.000 
      16      0.000      0.000      0.300      0.000 
      17      1.300     -0.200      0.200      0.000 
      18      0.000      0.000      0.300      0.000 
      19      0.000      0.000      0.300      0.000 
      20      0.000      0.000      0.300      0.000 
      21      0.000      0.000      0.300      0.000 
      22      0.000      0.000      0.300      0.000 
      23      0.000      0.000      0.300      0.000 
      24      0.000      0.000      0.300      0.000 
      25      0.000      0.000      0.400      0.000 
      26      0.000      0.000      0.300      0.000 
      27      0.000      0.000      0.300      0.000 
      28      0.000      0.000      0.300      0.000 
      29      0.000      0.000      0.300      0.000 
      30      0.000      0.000      0.300      0.000 
      31      0.000      0.000      0.300      0.000 
      32      0.000      0.000      0.300      0.000 
      33      0.000      0.000      0.300      0.000 
      34      0.000      0.000      0.300      0.000 
      35      0.000      0.000      0.300      0.000 
      36      0.000      0.000      0.300      0.000 
      37      0.000      0.000      0.300      0.000 
      38      0.000      0.000      0.300      0.000 
      39      0.000      0.000      0.300      0.000 
      40      0.000      0.000      0.400      0.000 
      41      0.000      0.000      0.300      0.000 
      42      0.000      0.000      0.300      0.000 
      43      0.000      0.000      0.300      0.000 
      44      0.000      0.000      0.300      0.000 
      45      0.000      0.000      0.300      0.000 
      46      0.000      0.000      0.300      0.000 
      47      0.000      0.000      0.300      0.000 
      48      0.000      0.000      0.300      0.000 
      49      0.000      0.000      0.300      0.000 
      50      0.000      0.000      0.300      0.000 
      51      0.000      0.000      0.300      0.000 
      52      0.000      0.000      0.300      0.000 
      53      1.300     -0.200      0.200      0.000 
      54      0.000      0.000      0.300      0.000 
      55      0.000      0.000      0.300      0.000 
      56      0.000      0.000      0.300      0.000 
      57      1.300     -0.200      0.200      0.000 
      58      0.000      0.000      0.300      0.000 
      59      0.000      0.000      0.300      0.000 
      60      0.000      0.000      0.300      0.000 
      61      0.000      0.000      0.300      0.000 
      62      0.000      0.000      0.300      0.000 
      63      0.000      0.000      0.300      0.000 
      64      1.300     -0.200      0.200      0.000 
      65      0.000      0.000      0.300      0.000 
      66      0.000      0.000      0.300      0.000 
      67      0.000      0.000      0.300      0.000 
      68      1.300     -0.200      0.200      0.000 
      69      0.000      0.000      0.300      0.000 
      70      0.000      0.000      0.300      0.000 
      71      0.000      0.000      0.300      0.000 
      72      0.000      0.000      0.300      0.000 
      73      0.000      0.000      0.300      0.000 
      74      0.000      0.000      0.300      0.000 
      75      0.000      0.000      0.300      0.000 
      76      1.300     -0.200      0.200      0.000 
      77      0.000      0.000      0.300      0.000 
      78      0.000      0.000      0.300      0.000 
      79      0.000      0.000      0.300      0.000 
      80      1.300     -0.200      0.200      0.000 
      81      0.000      0.000      0.300      0.000 
      82      0.000      0.000      0.300      0.000 
      83      0.000      0.000      0.300      0.000 
      84      0.000      0.000      0.300      0.000 
      85      0.000      0.000      0.300      0.000 
      86      0.000      0.000      0.300      0.000 
      87      0.000      0.000      0.300      0.000 
      88      0.000      0.000      0.300      0.000 
      89      0.000      0.000      0.300      0.000 
      90      1.300     -0.200      0.200      0.000 

Improper Coeffs 

       1      0.000      -1       2 
       2      0.000      -1       2 
       3      0.000      -1       2 
       4      0.000      -1       2 
       5      0.000      -1       2 
       6      0.000      -1       2 
       7      0.000      -1       2 
       8      0.000      -1       2 
       9      0.000      -1       2 
      10      0.000      -1       2 
      11      0.000      -1       2 
      12      0.000      -1       2 
      13      0.000      -1       2 
      14      0.000      -1       2 
      15      0.000      -1       2 
      16      0.000      -1       2 
      17      0.000      -1       2 
      18      0.000      -1       2 
      19      0.000      -1       2 

Atoms 

     1      1      1 -0.23490000    1.000  1.00000  0.00000
     2      1      2 -0.11090000   -0.531  1.00000  0.00000
     3      1      3 -0.17070000   -1.099  1.00000  1.42452
     4      1      4 -0.17430000   -0.910  2.33852  2.13084
     5      1      5 -0.16910000   -1.487  3.49454  1.31617
     6      1      6 -0.10700000   -0.933  3.53763 -0.11927
     7      1      7 -0.11570000   -1.508  4.70999 -0.97695
     8      1      8 -0.23820000   -3.031  4.63830 -1.16521
     9      1      9 0.02020000   -1.153  6.10517 -0.42862
    10      1     10 -0.29080000    0.603  6.39732 -0.39225
    11      1     11 -0.16410000   -1.111  2.17275 -0.80784
    12      1     12 0.08220000    1.383  0.13371  0.55051
    13      1     13 0.08220000    1.421  1.89763  0.46163
    14      1     14 0.08220000    1.384  0.93792 -1.02373
    15      1     15 0.09380000   -0.847  0.06717 -0.48629
    16      1     16 0.08750000   -0.639  0.20128  2.01763
    17      1     17 0.08750000   -2.173  0.77563  1.37627
    18      1     18 0.08950000    0.154  2.51672  2.32032
    19      1     19 0.08950000   -1.402  2.30399  3.10992
    20      1     20 0.08700000   -1.261  4.42926  1.84044
    21      1     21 0.08700000   -2.578  3.38910  1.30014
    22      1     22 0.11180000    0.149  3.69511 -0.04252
    23      1     23 0.11030000   -1.064  4.62901 -1.97896
    24      1     24 0.08630000   -3.564  4.70291 -0.21191
    25      1     25 0.08630000   -3.333  3.71552 -1.66749
    26      1     26 0.08630000   -3.379  5.46992 -1.78822
    27      1     27 0.11560000   -1.540  6.25676  0.58309
    28      1     28 0.11560000   -1.582  6.88493 -1.06665
    29      1     29 0.08760000   -0.653  2.19693 -1.80429
    30      1     30 0.08760000   -2.178  1.97122 -0.95872

Bonds 

     1      1      2      1
     2      2      3      2
     3      3      4      3
     4      4      5      4
     5      5      6      5
     6      6      7      6
     7      7      8      7
     8      8      9      7
     9      9     10      9
    10     10     11      2
    11     11     12      1
    12     12     13      1
    13     13     14      1
    14     14     15      2
    15     15     16      3
    16     16     17      3
    17     17     18      4
    18     18     19      4
    19     19     20      5
    20     20     21      5
    21     21     22      6
    22     22     23      7
    23     23     24      8
    24     24     25      8
    25     25     26      8
    26     26     27      9
    27     27     28      9
    28     28     29     11
    29     29     30     11
    30     30     11      6

Angles 

     1      1      1      2      3
     2      2      2      3      4
     3      3      3      4      5
     4      4      4      5      6
     5      5      5      6      7
     6      6      6      7      8
     7      7      6      7      9
     8      8      7      9     10
     9      9      1      2     11
    10     10      2      1     12
    11     11      2      1     13
    12     12      2      1     14
    13     13      1      2     15
    14     14      2      3     16
    15     15      2      3     17
    16     16      3      4     18
    17     17      3      4     19
    18     18      4      5     20
    19     19      4      5     21
    20     20      5      6     22
    21     21      6      7     23
    22     22      7      8     24
    23     23      7      8     25
    24     24      7      8     26
    25     25      7      9     27
    26     26      7      9     28
    27     27      2     11     29
    28     28      2     11     30
    29     29      6     11     29
    30     30      2     11      6
    31     31      3      2     15
    32     32     13      1     14
    33     33     10      9     28
    34     34     24      8     26
    35     35     12      1     13
    36     36     11      2     15
    37     37     25      8     26
    38     38      8      7      9
    39     39     12      1     14
    40     40      7      6     11
    41     41      8      7     23
    42     42      9      7     23
    43     43      3      2     11
    44     44      5      4     19
    45     45      6      5     20
    46     46     27      9     28
    47     47     11      6     22
    48     48     29     11     30
    49     49      6      5     21
    50     50      5      6     11
    51     51     24      8     25
    52     52      4      3     16
    53     53      4      3     17
    54     54      6     11     30
    55     55     16      3     17
    56     56     20      5     21
    57     57      5      4     18
    58     58     18      4     19
    59     59     10      9     27
    60     60      7      6     22

Dihedrals

     1      1      4      3      2      1 
     2      2      5      4      3      2 
     3      3      6      5      4      3 
     4      4      7      6      5      4 
     5      5      8      7      6      5 
     6      6     10      9      7      6 
     7      7     12      1      2      3 
     8      8     24      8      7      6 
     9      9     22      6      7      9 
    10     10     18      4      3     16 
    11     11     21      5      4      3 
    12     12     18      4      3      2 
    13     13     29     11      2      3 
    14     14     29     11      2      1 
    15     15      9      7      6      5 
    16     16     19      4      3      2 
    17     17      6     11      2      3 
    18     18     22      6      5      4 
    19     19     16      3      2      1 
    20     20     13      1      2     11 
    21     21     13      1      2      3 
    22     22     28      9      7      6 
    23     23     25      8      7      6 
    24     24     23      7      6     11 
    25     25     10      9      7      8 
    26     26     21      5      6     11 
    27     27     28      9      7      8 
    28     28     15      2      1     12 
    29     29     30     11      2     15 
    30     30     20      5      4      3 
    31     31     20      5      4     19 
    32     32     21      5      4     18 
    33     33     22      6      5     21 
    34     34     16      3      2     11 
    35     35     25      8      7     23 
    36     36     20      5      4     18 
    37     37     30     11      6     22 
    38     38     27      9      7      6 
    39     39     20      5      6      7 
    40     40     23      7      9     10 
    41     41     24      8      7      9 
    42     42     17      3      2     15 
    43     43     22      6      7      8 
    44     44     17      3      2     11 
    45     45     29     11      2     15 
    46     46     30     11      2      1 
    47     47     28      9      7     23 
    48     48     29     11      6      5 
    49     49     26      8      7     23 
    50     50     19      4      5      6 
    51     51     22      6     11      2 
    52     52     15      2      3      4 
    53     53     11      6      5      4 
    54     54     21      5      4     19 
    55     55     30     11      2      3 
    56     56     30     11      6      7 
    57     57      5      6     11      2 
    58     58     14      1      2     11 
    59     59     27      9      7     23 
    60     60     19      4      3     17 
    61     61     23      7      6      5 
    62     62     17      3      4      5 
    63     63     24      8      7     23 
    64     64     11      2      3      4 
    65     65     23      7      6     22 
    66     66     15      2      1     13 
    67     67     29     11      6     22 
    68     68     11      6      7      9 
    69     69     27      9      7      8 
    70     70     15      2     11      6 
    71     71     29     11      6      7 
    72     72     26      8      7      6 
    73     73     16      3      2     15 
    74     74     22      6      5     20 
    75     75     18      4      5      6 
    76     76      6     11      2      1 
    77     77     26      8      7      9 
    78     78     20      5      6     11 
    79     79     21      5      6      7 
    80     80      7      6     11      2 
    81     81     15      2      1     14 
    82     82     17      3      2      1 
    83     83     12      1      2     11 
    84     84     14      1      2      3 
    85     85     18      4      3     17 
    86     86     19      4      3     16 
    87     87     30     11      6      5 
    88     88     25      8      7      9 
    89     89     16      3      4      5 
    90     90     11      6      7      8 

Impropers

     1      1      7      9      6      8 
     2      2      2      1     11      3 
     3      3      1      2     12     13 
     4      4      1      2     12     14 
     5      5      2      1      3     15 
     6      6      3      2      4     16 
     7      7      3     17      2      4 
     8      8      4     18      3      5 
     9      9      4     19      5      3 
    10     10      5      4     20      6 
    11     11      5      4     21      6 
    12     12      6      5     22      7 
    13     13      7      8     23      6 
    14     14      8     25     24      7 
    15     15      8     26     24      7 
    16     16      9     10     27      7 
    17     17      9     10     28      7 
    18     18     11      2     29      6 
    19     19     11      2     30      6 

