LAMMPS data file Created by LigParGen - (Written by Leela S. Dodda)

      53 atoms
      55 bonds
     114 angles
     189 dihedrals
      36 impropers
 
      53 atom types
      55 bond types
     114 angle types
     189 dihedral types
      36 improper types
 
   -5.949610    44.050390 xlo xhi
   -1.061530    48.938470 ylo yhi
   -2.541940    47.458060 zlo zhi

Masses

       1     12.011  
       2     12.011  
       3     12.011  
       4     12.011  
       5     12.011  
       6     12.011  
       7     12.011  
       8     12.011  
       9     12.011  
      10     12.011  
      11     18.998  
      12     18.998  
      13     12.011  
      14     12.011  
      15     12.011  
      16     12.011  
      17     12.011  
      18     12.011  
      19     12.011  
      20     12.011  
      21     12.011  
      22      1.008  
      23      1.008  
      24      1.008  
      25      1.008  
      26      1.008  
      27      1.008  
      28      1.008  
      29      1.008  
      30      1.008  
      31      1.008  
      32      1.008  
      33      1.008  
      34      1.008  
      35      1.008  
      36      1.008  
      37      1.008  
      38      1.008  
      39      1.008  
      40      1.008  
      41      1.008  
      42      1.008  
      43      1.008  
      44      1.008  
      45      1.008  
      46      1.008  
      47      1.008  
      48      1.008  
      49      1.008  
      50      1.008  
      51      1.008  
      52      1.008  
      53      1.008  

Pair Coeffs 

       1      0.066  3.5000000 
       2      0.066  3.5000000 
       3      0.066  3.5000000 
       4      0.066  3.5000000 
       5      0.066  3.5000000 
       6      0.066  3.5000000 
       7      0.066  3.5000000 
       8      0.066  3.5000000 
       9      0.066  3.5000000 
      10      0.066  3.5000000 
      11      0.060  2.9000000 
      12      0.060  2.9000000 
      13      0.066  3.5000000 
      14      0.066  3.5000000 
      15      0.066  3.5000000 
      16      0.066  3.5000000 
      17      0.066  3.5000000 
      18      0.066  3.5000000 
      19      0.066  3.5000000 
      20      0.066  3.5000000 
      21      0.066  3.5000000 
      22      0.030  2.5000000 
      23      0.030  2.5000000 
      24      0.030  2.5000000 
      25      0.030  2.5000000 
      26      0.030  2.5000000 
      27      0.030  2.5000000 
      28      0.030  2.5000000 
      29      0.030  2.5000000 
      30      0.030  2.5000000 
      31      0.030  2.5000000 
      32      0.030  2.5000000 
      33      0.030  2.5000000 
      34      0.030  2.5000000 
      35      0.030  2.5000000 
      36      0.030  2.5000000 
      37      0.030  2.5000000 
      38      0.030  2.5000000 
      39      0.030  2.5000000 
      40      0.030  2.5000000 
      41      0.030  2.5000000 
      42      0.030  2.5000000 
      43      0.030  2.5000000 
      44      0.030  2.5000000 
      45      0.030  2.5000000 
      46      0.030  2.5000000 
      47      0.030  2.5000000 
      48      0.030  2.5000000 
      49      0.030  2.5000000 
      50      0.030  2.5000000 
      51      0.030  2.5000000 
      52      0.030  2.5000000 
      53      0.030  2.5000000 

Bond Coeffs 

       1   268.0000     1.5290 
       2   268.0000     1.5290 
       3   268.0000     1.5290 
       4   268.0000     1.5290 
       5   268.0000     1.5290 
       6   268.0000     1.5290 
       7   268.0000     1.5290 
       8   268.0000     1.5290 
       9   268.0000     1.5290 
      10   367.0000     1.3600 
      11   367.0000     1.3600 
      12   268.0000     1.5290 
      13   268.0000     1.5290 
      14   268.0000     1.5290 
      15   268.0000     1.5290 
      16   268.0000     1.5290 
      17   268.0000     1.5290 
      18   268.0000     1.5290 
      19   268.0000     1.5290 
      20   268.0000     1.5290 
      21   340.0000     1.0900 
      22   340.0000     1.0900 
      23   340.0000     1.0900 
      24   340.0000     1.0900 
      25   340.0000     1.0900 
      26   340.0000     1.0900 
      27   340.0000     1.0900 
      28   340.0000     1.0900 
      29   340.0000     1.0900 
      30   340.0000     1.0900 
      31   340.0000     1.0900 
      32   340.0000     1.0900 
      33   340.0000     1.0900 
      34   340.0000     1.0900 
      35   340.0000     1.0900 
      36   340.0000     1.0900 
      37   340.0000     1.0900 
      38   340.0000     1.0900 
      39   340.0000     1.0900 
      40   340.0000     1.0900 
      41   340.0000     1.0900 
      42   340.0000     1.0900 
      43   340.0000     1.0900 
      44   340.0000     1.0900 
      45   340.0000     1.0900 
      46   340.0000     1.0900 
      47   340.0000     1.0900 
      48   340.0000     1.0900 
      49   340.0000     1.0900 
      50   340.0000     1.0900 
      51   340.0000     1.0900 
      52   340.0000     1.0900 
      53   268.0000     1.5290 
      54   268.0000     1.5290 
      55   268.0000     1.5290 

Angle Coeffs 

       1     58.350    112.700
       2     58.350    112.700
       3     58.350    112.700
       4     58.350    112.700
       5     58.350    112.700
       6     58.350    112.700
       7     58.350    112.700
       8     58.350    112.700
       9     50.000    109.500
      10     50.000    109.500
      11     58.350    112.700
      12     58.350    112.700
      13     58.350    112.700
      14     58.350    112.700
      15     58.350    112.700
      16     58.350    112.700
      17     58.350    112.700
      18     58.350    112.700
      19     58.350    112.700
      20     37.500    110.700
      21     37.500    110.700
      22     37.500    110.700
      23     37.500    110.700
      24     37.500    110.700
      25     37.500    110.700
      26     37.500    110.700
      27     37.500    110.700
      28     37.500    110.700
      29     37.500    110.700
      30     37.500    110.700
      31     37.500    110.700
      32     37.500    110.700
      33     37.500    110.700
      34     37.500    110.700
      35     37.500    110.700
      36     37.500    110.700
      37     37.500    110.700
      38     37.500    110.700
      39     37.500    110.700
      40     37.500    110.700
      41     37.500    110.700
      42     37.500    110.700
      43     37.500    110.700
      44     37.500    110.700
      45     37.500    110.700
      46     37.500    110.700
      47     37.500    110.700
      48     37.500    110.700
      49     37.500    110.700
      50     37.500    110.700
      51     37.500    110.700
      52     58.350    112.700
      53     77.000    109.100
      54     33.000    107.800
      55     37.500    110.700
      56     33.000    107.800
      57     33.000    107.800
      58     37.500    110.700
      59     33.000    107.800
      60     58.350    112.700
      61     58.350    112.700
      62     37.500    110.700
      63     58.350    112.700
      64     37.500    110.700
      65     37.500    110.700
      66     33.000    107.800
      67     37.500    110.700
      68     37.500    110.700
      69     58.350    112.700
      70     58.350    112.700
      71     33.000    107.800
      72     58.350    112.700
      73     37.500    110.700
      74     37.500    110.700
      75     33.000    107.800
      76     37.500    110.700
      77     50.000    109.500
      78     37.500    110.700
      79     58.350    112.700
      80     37.500    110.700
      81     33.000    107.800
      82     37.500    110.700
      83     33.000    107.800
      84     33.000    107.800
      85     37.500    110.700
      86     33.000    107.800
      87     37.500    110.700
      88     58.350    112.700
      89     37.500    110.700
      90     33.000    107.800
      91     33.000    107.800
      92     37.500    110.700
      93     37.500    110.700
      94     37.500    110.700
      95     33.000    107.800
      96     58.350    112.700
      97     33.000    107.800
      98     37.500    110.700
      99     37.500    110.700
     100     33.000    107.800
     101     58.350    112.700
     102     58.350    112.700
     103     37.500    110.700
     104     58.350    112.700
     105     37.500    110.700
     106     33.000    107.800
     107     50.000    109.500
     108     33.000    107.800
     109     37.500    110.700
     110     58.350    112.700
     111     37.500    110.700
     112     37.500    110.700
     113     37.500    110.700
     114     37.500    110.700

Dihedral Coeffs  

       1      1.300     -0.200      0.200      0.000 
       2      1.300     -0.200      0.200      0.000 
       3      1.300     -0.200      0.200      0.000 
       4      1.300     -0.200      0.200      0.000 
       5      1.300     -0.200      0.200      0.000 
       6      1.300     -0.200      0.200      0.000 
       7      1.300     -0.200      0.200      0.000 
       8      0.000      0.000      0.000      0.000 
       9      1.300     -0.200      0.200      0.000 
      10      1.300     -0.200      0.200      0.000 
      11      1.300     -0.200      0.200      0.000 
      12      1.300     -0.200      0.200      0.000 
      13      0.000      0.000      0.300      0.000 
      14      0.000      0.000      0.300      0.000 
      15      0.000      0.000      0.300      0.000 
      16      0.000      0.000      0.300      0.000 
      17      0.000      0.000      0.300      0.000 
      18      0.000      0.000      0.000      0.000 
      19      0.000      0.000      0.300      0.000 
      20      1.300     -0.200      0.200      0.000 
      21      0.000      0.000      0.300      0.000 
      22      0.000      0.000      0.300      0.000 
      23      0.000      0.000      0.300      0.000 
      24      0.000      0.000      0.300      0.000 
      25      0.000      0.000      0.300      0.000 
      26      0.000      0.000      0.300      0.000 
      27      0.000      0.000      0.300      0.000 
      28      1.300     -0.200      0.200      0.000 
      29      0.000      0.000      0.300      0.000 
      30      0.000      0.000      0.300      0.000 
      31      0.000      0.000      0.300      0.000 
      32      0.000      0.000      0.300      0.000 
      33      0.000      0.000      0.300      0.000 
      34      1.300     -0.200      0.200      0.000 
      35      0.000      0.000      0.300      0.000 
      36      1.300     -0.200      0.200      0.000 
      37      0.000      0.000      0.300      0.000 
      38      0.000      0.000      0.300      0.000 
      39      0.000      0.000      0.300      0.000 
      40      0.000      0.000      0.300      0.000 
      41      1.300     -0.200      0.200      0.000 
      42      0.000      0.000      0.300      0.000 
      43      0.000      0.000      0.300      0.000 
      44      0.000      0.000      0.300      0.000 
      45      0.000      0.000      0.300      0.000 
      46      0.000      0.000      0.300      0.000 
      47      0.000      0.000      0.300      0.000 
      48      0.000      0.000      0.300      0.000 
      49      0.000      0.000      0.300      0.000 
      50      0.000      0.000      0.300      0.000 
      51      1.300     -0.200      0.200      0.000 
      52      0.000      0.000      0.300      0.000 
      53      0.000      0.000      0.300      0.000 
      54      1.300     -0.200      0.200      0.000 
      55      0.000      0.000      0.300      0.000 
      56      1.300     -0.200      0.200      0.000 
      57      0.000      0.000      0.300      0.000 
      58      0.000      0.000      0.360      0.000 
      59      1.300     -0.200      0.200      0.000 
      60      1.300     -0.200      0.200      0.000 
      61      0.000      0.000      0.300      0.000 
      62      0.000      0.000      0.360      0.000 
      63      0.000      0.000      0.300      0.000 
      64      0.000      0.000      0.300      0.000 
      65      0.000      0.000      0.300      0.000 
      66      0.000      0.000      0.300      0.000 
      67      1.300     -0.200      0.200      0.000 
      68      1.300     -0.200      0.200      0.000 
      69      0.000      0.000      0.300      0.000 
      70      0.000      0.000      0.300      0.000 
      71      0.000      0.000      0.300      0.000 
      72      0.000      0.000      0.300      0.000 
      73      0.000      0.000      0.300      0.000 
      74      0.000      0.000      0.300      0.000 
      75      1.300     -0.200      0.200      0.000 
      76      1.300     -0.200      0.200      0.000 
      77      0.000      0.000      0.300      0.000 
      78      0.000      0.000      0.300      0.000 
      79      0.000      0.000      0.300      0.000 
      80      0.000      0.000      0.300      0.000 
      81      0.000      0.000      0.300      0.000 
      82      0.000      0.000      0.300      0.000 
      83      0.000      0.000      0.360      0.000 
      84      0.000      0.000      0.300      0.000 
      85      0.000      0.000      0.300      0.000 
      86      0.000      0.000      0.300      0.000 
      87      0.000      0.000      0.300      0.000 
      88      0.000      0.000      0.300      0.000 
      89      0.000      0.000      0.300      0.000 
      90      1.300     -0.200      0.200      0.000 
      91      0.000      0.000      0.300      0.000 
      92      0.000      0.000      0.300      0.000 
      93      0.000      0.000      0.300      0.000 
      94      0.000      0.000      0.300      0.000 
      95      0.000      0.000      0.360      0.000 
      96      0.000      0.000      0.300      0.000 
      97      1.300     -0.200      0.200      0.000 
      98      0.000      0.000      0.300      0.000 
      99      0.000      0.000      0.300      0.000 
     100      0.000      0.000      0.300      0.000 
     101      0.000      0.000      0.300      0.000 
     102      0.000      0.000      0.300      0.000 
     103      0.000      0.000      0.300      0.000 
     104      0.000      0.000      0.300      0.000 
     105      1.300     -0.200      0.200      0.000 
     106      0.000      0.000      0.300      0.000 
     107      1.300     -0.200      0.200      0.000 
     108      0.000      0.000      0.300      0.000 
     109      0.000      0.000      0.300      0.000 
     110      1.300     -0.200      0.200      0.000 
     111      1.300     -0.200      0.200      0.000 
     112      0.000      0.000      0.300      0.000 
     113      0.000      0.000      0.300      0.000 
     114      0.000      0.000      0.300      0.000 
     115      0.000      0.000      0.300      0.000 
     116      0.000      0.000      0.300      0.000 
     117      0.000      0.000      0.300      0.000 
     118      0.000      0.000      0.300      0.000 
     119      0.000      0.000      0.300      0.000 
     120      0.000      0.000      0.300      0.000 
     121      0.000      0.000      0.300      0.000 
     122      0.000      0.000      0.300      0.000 
     123      0.000      0.000      0.300      0.000 
     124      0.000      0.000      0.300      0.000 
     125      0.000      0.000      0.300      0.000 
     126      0.000      0.000      0.300      0.000 
     127      0.000      0.000      0.300      0.000 
     128      1.300     -0.200      0.200      0.000 
     129      0.000      0.000      0.300      0.000 
     130      0.000      0.000      0.360      0.000 
     131      0.000      0.000      0.000      0.000 
     132      0.000      0.000      0.300      0.000 
     133      0.000      0.000      0.300      0.000 
     134      0.000      0.000      0.300      0.000 
     135      0.000      0.000      0.300      0.000 
     136      0.000      0.000      0.300      0.000 
     137      0.000      0.000      0.300      0.000 
     138      0.000      0.000      0.300      0.000 
     139      0.000      0.000      0.300      0.000 
     140      0.000      0.000      0.300      0.000 
     141      0.000      0.000      0.300      0.000 
     142      0.000      0.000      0.300      0.000 
     143      0.000      0.000      0.300      0.000 
     144      0.000      0.000      0.300      0.000 
     145      0.000      0.000      0.300      0.000 
     146      1.300     -0.200      0.200      0.000 
     147      0.000      0.000      0.300      0.000 
     148      0.000      0.000      0.300      0.000 
     149      1.300     -0.200      0.200      0.000 
     150      1.300     -0.200      0.200      0.000 
     151      1.300     -0.200      0.200      0.000 
     152      0.000      0.000      0.300      0.000 
     153      0.000      0.000      0.300      0.000 
     154      0.000      0.000      0.300      0.000 
     155      0.000      0.000      0.300      0.000 
     156      0.000      0.000      0.300      0.000 
     157      0.000      0.000      0.300      0.000 
     158      0.000      0.000      0.300      0.000 
     159      0.000      0.000      0.300      0.000 
     160      0.000      0.000      0.300      0.000 
     161      0.000      0.000      0.300      0.000 
     162      0.000      0.000      0.000      0.000 
     163      1.300     -0.200      0.200      0.000 
     164      0.000      0.000      0.000      0.000 
     165      1.300     -0.200      0.200      0.000 
     166      0.000      0.000      0.300      0.000 
     167      0.000      0.000      0.300      0.000 
     168      0.000      0.000      0.300      0.000 
     169      0.000      0.000      0.300      0.000 
     170      0.000      0.000      0.300      0.000 
     171      0.000      0.000      0.300      0.000 
     172      0.000      0.000      0.300      0.000 
     173      1.300     -0.200      0.200      0.000 
     174      0.000      0.000      0.300      0.000 
     175      0.000      0.000      0.300      0.000 
     176      0.000      0.000      0.300      0.000 
     177      0.000      0.000      0.300      0.000 
     178      0.000      0.000      0.300      0.000 
     179      1.300     -0.200      0.200      0.000 
     180      0.000      0.000      0.300      0.000 
     181      0.000      0.000      0.300      0.000 
     182      1.300     -0.200      0.200      0.000 
     183      0.000      0.000      0.300      0.000 
     184      0.000      0.000      0.300      0.000 
     185      0.000      0.000      0.300      0.000 
     186      0.000      0.000      0.300      0.000 
     187      0.000      0.000      0.360      0.000 
     188      0.000      0.000      0.000      0.000 
     189      0.000      0.000      0.300      0.000 

Improper Coeffs 

       1      0.000      -1       2 
       2      0.000      -1       2 
       3      0.000      -1       2 
       4      0.000      -1       2 
       5      0.000      -1       2 
       6      0.000      -1       2 
       7      0.000      -1       2 
       8      0.000      -1       2 
       9      0.000      -1       2 
      10      0.000      -1       2 
      11      0.000      -1       2 
      12      0.000      -1       2 
      13      0.000      -1       2 
      14      0.000      -1       2 
      15      0.000      -1       2 
      16      0.000      -1       2 
      17      0.000      -1       2 
      18      0.000      -1       2 
      19      0.000      -1       2 
      20      0.000      -1       2 
      21      0.000      -1       2 
      22      0.000      -1       2 
      23      0.000      -1       2 
      24      0.000      -1       2 
      25      0.000      -1       2 
      26      0.000      -1       2 
      27      0.000      -1       2 
      28      0.000      -1       2 
      29      0.000      -1       2 
      30      0.000      -1       2 
      31      0.000      -1       2 
      32      0.000      -1       2 
      33      0.000      -1       2 
      34      0.000      -1       2 
      35      0.000      -1       2 
      36      0.000      -1       2 

Atoms 

     1      1      1 -0.23000000    1.000  1.00000  0.00000
     2      1      2 -0.05290000   -0.546  1.00000  0.00000
     3      1      3 -0.16810000   -0.983  1.00000  1.48164
     4      1      4 -0.16710000   -2.463  1.00166  1.84404
     5      1      5 -0.09350000   -2.784  0.99973  3.37279
     6      1      6 -0.17690000   -4.333  0.90550  3.48361
     7      1      7 -0.17430000   -4.854  0.88831  4.91445
     8      1      8 -0.17290000   -4.299  2.03058  5.75236
     9      1      9 -0.16070000   -2.768  2.04927  5.69342
    10      1     10 0.30170000   -2.194  3.06356  6.68918
    11      1     11 -0.17840000   -2.638  4.31290  6.40967
    12      1     12 -0.17840000   -2.646  2.77455  7.94088
    13      1     13 -0.24080000   -0.676  3.05899  6.72393
    14      1     14 -0.17870000   -0.085  3.20751  5.33927
    15      1     15 -0.18080000   -0.668  2.18831  4.36351
    16      1     16 -0.01400000   -2.215  2.19463  4.25447
    17      1     17 -0.23860000   -2.622  3.54127  3.60788
    18      1     18 -0.17210000   -1.065  2.23812 -0.75428
    19      1     19 -0.18080000   -2.406  1.83290 -1.34406
    20      1     20 -0.17920000   -2.370  0.31579 -1.48567
    21      1     21 -0.16960000   -1.094 -0.17820 -0.80739
    22      1     22 0.08210000    1.391  1.87856  0.52834
    23      1     23 0.08210000    1.401  1.02369 -1.01757
    24      1     24 0.08210000    1.392  0.10626  0.49731
    25      1     25 0.08860000   -0.572  1.93915  1.83767
    26      1     26 0.08860000   -0.490  0.17869  2.00990
    27      1     27 0.09230000   -2.928  0.11146  1.40285
    28      1     28 0.09230000   -2.953  1.86861  1.39362
    29      1     29 0.09270000   -2.378  0.06390  3.78415
    30      1     30 0.08990000   -4.685 -0.00255  2.97912
    31      1     31 0.08990000   -4.799  1.74400  2.94781
    32      1     32 0.09020000   -4.589 -0.06806  5.38005
    33      1     33 0.09020000   -5.950  0.94113  4.90638
    34      1     34 0.10520000   -4.632  1.89300  6.78803
    35      1     35 0.10520000   -4.717  2.98573  5.41558
    36      1     36 0.11600000   -2.441  1.06068  6.05359
    37      1     37 0.11800000   -0.320  2.12484  7.17293
    38      1     38 0.11800000   -0.314  3.87516  7.35914
    39      1     39 0.10060000    1.003  3.07394  5.38382
    40      1     40 0.10060000   -0.251  4.22379  4.96287
    41      1     41 0.09550000   -0.327  1.18217  4.63823
    42      1     42 0.09550000   -0.182  2.44359  3.43009
    43      1     43 0.08810000   -2.178  3.65066  2.61339
    44      1     44 0.08810000   -2.290  4.40515  4.18662
    45      1     45 0.08810000   -3.704  3.63719  3.48954
    46      1     46 0.09310000   -0.382  2.50800 -1.56785
    47      1     47 0.09310000   -1.158  3.11757 -0.10682
    48      1     48 0.08940000   -2.576  2.32703 -2.30518
    49      1     49 0.08940000   -3.232  2.13207 -0.69117
    50      1     50 0.08810000   -2.375  0.02426 -2.54194
    51      1     51 0.08810000   -3.257 -0.13157 -1.02511
    52      1     52 0.09270000   -0.379 -0.47984 -1.58323
    53      1     53 0.09270000   -1.280 -1.06153 -0.18723

Bonds 

     1      1      2      1
     2      2      3      2
     3      3      4      3
     4      4      5      4
     5      5      6      5
     6      6      7      6
     7      7      8      7
     8      8      9      8
     9      9     10      9
    10     10     11     10
    11     11     12     10
    12     12     13     10
    13     13     14     13
    14     14     15     14
    15     15     16      5
    16     16     17     16
    17     17     18      2
    18     18     19     18
    19     19     20     19
    20     20     21      2
    21     21     22      1
    22     22     23      1
    23     23     24      1
    24     24     25      3
    25     25     26      3
    26     26     27      4
    27     27     28      4
    28     28     29      5
    29     29     30      6
    30     30     31      6
    31     31     32      7
    32     32     33      7
    33     33     34      8
    34     34     35      8
    35     35     36      9
    36     36     37     13
    37     37     38     13
    38     38     39     14
    39     39     40     14
    40     40     41     15
    41     41     42     15
    42     42     43     17
    43     43     44     17
    44     44     45     17
    45     45     46     18
    46     46     47     18
    47     47     48     19
    48     48     49     19
    49     49     50     20
    50     50     51     20
    51     51     52     21
    52     52     53     21
    53     53     16      9
    54     54     16     15
    55     55     21     20

Angles 

     1      1      1      2      3
     2      2      2      3      4
     3      3      3      4      5
     4      4      4      5      6
     5      5      5      6      7
     6      6      6      7      8
     7      7      7      8      9
     8      8      8      9     10
     9      9      9     10     11
    10     10      9     10     12
    11     11      9     10     13
    12     12     10     13     14
    13     13     13     14     15
    14     14      4      5     16
    15     15      5     16     17
    16     16      1      2     18
    17     17      2     18     19
    18     18     18     19     20
    19     19      1      2     21
    20     20      2      1     22
    21     21      2      1     23
    22     22      2      1     24
    23     23      2      3     25
    24     24      2      3     26
    25     25      3      4     27
    26     26      3      4     28
    27     27      4      5     29
    28     28      5      6     30
    29     29      5      6     31
    30     30      6      7     32
    31     31      6      7     33
    32     32      7      8     34
    33     33      7      8     35
    34     34      8      9     36
    35     35     10     13     37
    36     36     10     13     38
    37     37     13     14     39
    38     38     13     14     40
    39     39     14     15     41
    40     40     14     15     42
    41     41     16     17     43
    42     42     16     17     44
    43     43     16     17     45
    44     44      2     18     46
    45     45      2     18     47
    46     46     18     19     48
    47     47     18     19     49
    48     48     19     20     50
    49     49     19     20     51
    50     50      2     21     52
    51     51      2     21     53
    52     52     10      9     16
    53     53     11     10     12
    54     54     27      4     28
    55     55     15     14     40
    56     56     43     17     45
    57     57     44     17     45
    58     58     16     15     42
    59     59     39     14     40
    60     60      6      5     16
    61     61     19     20     21
    62     62      5      4     27
    63     63      8      9     16
    64     64      7      6     31
    65     65     16     15     41
    66     66     34      8     35
    67     67      5      4     28
    68     68     21     20     51
    69     69      5     16     15
    70     70      2     21     20
    71     71     23      1     24
    72     72      9     16     15
    73     73      8      7     32
    74     74      9      8     34
    75     75     37     13     38
    76     76      8      7     33
    77     77     11     10     13
    78     78     20     19     48
    79     79     15     16     17
    80     80     20     21     52
    81     81     41     15     42
    82     82     16      9     36
    83     83     43     17     44
    84     84     52     21     53
    85     85     21     20     50
    86     86     32      7     33
    87     87     19     18     47
    88     88     18      2     21
    89     89     20     19     49
    90     90     50     20     51
    91     91     46     18     47
    92     92      4      3     25
    93     93     14     13     38
    94     94     20     21     53
    95     95     22      1     24
    96     96     14     15     16
    97     97     25      3     26
    98     98      4      3     26
    99     99     15     14     39
   100    100     48     19     49
   101    101      3      2     18
   102    102      3      2     21
   103    103     14     13     37
   104    104      9     16     17
   105    105      7      6     30
   106    106     30      6     31
   107    107     12     10     13
   108    108     22      1     23
   109    109      9      8     35
   110    110      5     16      9
   111    111     10      9     36
   112    112     16      5     29
   113    113     19     18     46
   114    114      6      5     29

Dihedrals

     1      1      4      3      2      1 
     2      2      5      4      3      2 
     3      3      6      5      4      3 
     4      4      7      6      5      4 
     5      5      8      7      6      5 
     6      6      9      8      7      6 
     7      7     10      9      8      7 
     8      8     11     10      9      8 
     9      9     14     13     10      9 
    10     10     15     14     13     10 
    11     11     19     18      2      1 
    12     12     20     19     18      2 
    13     13     22      1      2      3 
    14     14     43     17     16      5 
    15     15     41     15     16      9 
    16     16     34      8      7      6 
    17     17     22      1      2     21 
    18     18     14     13     10     11 
    19     19     51     20     21      2 
    20     20     21      2     18     19 
    21     21     39     14     15     16 
    22     22     46     18     19     20 
    23     23     25      3      4      5 
    24     24     28      4      3      2 
    25     25     29      5      4     28 
    26     26     29      5     16     15 
    27     27     46     18      2     21 
    28     28     17     16      9     10 
    29     29     40     14     13     38 
    30     30     53     21      2     18 
    31     31     50     20     19     18 
    32     32     35      8      9     10 
    33     33     43     17     16      9 
    34     34     15     16      5      4 
    35     35     25      3      2     21 
    36     36     13     10      9      8 
    37     37     52     21      2     18 
    38     38     23      1      2      3 
    39     39     34      8      9     16 
    40     40     27      4      5     16 
    41     41      8      9     16      5 
    42     42     37     13     10      9 
    43     43     52     21     20     51 
    44     44     33      7      6     30 
    45     45     32      7      6     31 
    46     46     26      3      2      1 
    47     47     33      7      6     31 
    48     48     45     17     16      9 
    49     49     30      6      5     16 
    50     50     53     21      2      1 
    51     51     14     15     16      9 
    52     52     42     15     16     17 
    53     53     27      4      3     25 
    54     54     16      5      4      3 
    55     55     53     21     20     51 
    56     56      9     16      5      6 
    57     57     35      8      7     33 
    58     58     38     13     10     11 
    59     59     16      9      8      7 
    60     60     17     16      5      6 
    61     61     51     20     19     49 
    62     62     36      9     10     12 
    63     63     36      9      8      7 
    64     64     39     14     13     37 
    65     65     50     20     19     49 
    66     66     52     21     20     19 
    67     67     16      9     10     13 
    68     68     21     20     19     18 
    69     69     28      4      3     25 
    70     70     36      9     10     13 
    71     71     48     19     18     46 
    72     72     43     17     16     15 
    73     73     29      5     16     17 
    74     74     48     19     20     21 
    75     75     14     15     16      5 
    76     76     17     16     15     14 
    77     77     33      7      6      5 
    78     78     47     18      2      1 
    79     79     30      6      7      8 
    80     80     42     15     16      5 
    81     81     44     17     16     15 
    82     82     24      1      2     18 
    83     83     36      9     10     11 
    84     84     52     21     20     50 
    85     85     34      8      9     10 
    86     86     41     15     16     17 
    87     87     35      8      7     32 
    88     88     32      7      6     30 
    89     89     26      3      4      5 
    90     90     19     18      2      3 
    91     91     50     20     21      2 
    92     92     27      4      5      6 
    93     93     38     13     14     15 
    94     94     49     19     18      2 
    95     95     37     13     10     11 
    96     96     24      1      2      3 
    97     97     20     21      2      1 
    98     98     30      6      5      4 
    99     99     39     14     13     10 
   100    100     50     20     19     48 
   101    101     40     14     15     16 
   102    102     34      8      7     32 
   103    103     42     15     14     40 
   104    104     38     13     10      9 
   105    105     20     21      2     18 
   106    106     41     15     16      5 
   107    107     15     16      5      6 
   108    108     39     14     13     38 
   109    109     40     14     13     37 
   110    110     15     16      9      8 
   111    111     17     16      5      4 
   112    112     29      5      4     27 
   113    113     36      9     16      5 
   114    114     27      4      3     26 
   115    115     28      4      5      6 
   116    116     23      1      2     18 
   117    117     29      5     16      9 
   118    118     41     15     14     40 
   119    119     53     21     20     50 
   120    120     51     20     19     48 
   121    121     30      6      5     29 
   122    122     41     15     14     39 
   123    123     52     21      2      3 
   124    124     42     15     16      9 
   125    125     41     15     14     13 
   126    126     47     18      2      3 
   127    127     24      1      2     21 
   128    128     17     16      9      8 
   129    129     31      6      7      8 
   130    130     37     13     10     12 
   131    131     14     13     10     12 
   132    132     32      7      6      5 
   133    133     27      4      3      2 
   134    134     42     15     14     13 
   135    135     29      5      6      7 
   136    136     23      1      2     21 
   137    137     31      6      5      4 
   138    138     45     17     16     15 
   139    139     36      9      8     34 
   140    140     31      6      5     16 
   141    141     44     17     16      9 
   142    142     32      7      8      9 
   143    143     35      8      7      6 
   144    144     31      6      5     29 
   145    145     28      4      5     16 
   146    146     15     16      9     10 
   147    147     36      9     16     15 
   148    148     45     17     16      5 
   149    149     16      5      6      7 
   150    150     10      9     16      5 
   151    151     21      2      3      4 
   152    152     48     19     18     47 
   153    153     26      3      2     18 
   154    154     33      7      8      9 
   155    155     26      3      2     21 
   156    156     49     19     18     46 
   157    157     36      9     16     17 
   158    158     37     13     14     15 
   159    159     48     19     18      2 
   160    160     40     14     13     10 
   161    161     29      5      4      3 
   162    162     16      9     10     12 
   163    163     19     20     21      2 
   164    164     12     10      9      8 
   165    165     16     15     14     13 
   166    166     46     18      2      1 
   167    167     47     18      2     21 
   168    168     47     18     19     20 
   169    169     51     20     19     18 
   170    170     22      1      2     18 
   171    171     25      3      2      1 
   172    172     42     15     14     39 
   173    173     18      2      3      4 
   174    174     34      8      7     33 
   175    175     35      8      9     16 
   176    176     49     19     20     21 
   177    177     28      4      3     26 
   178    178     44     17     16      5 
   179    179      9     16      5      4 
   180    180     53     21     20     19 
   181    181     49     19     18     47 
   182    182     20     21      2      3 
   183    183     36      9      8     35 
   184    184     25      3      2     18 
   185    185     46     18      2      3 
   186    186     53     21      2      3 
   187    187     38     13     10     12 
   188    188     16      9     10     11 
   189    189     52     21      2      1 

Impropers

     1      1     10      9     11     12 
     2      2     10      9     11     13 
     3      3      5      4      6     16 
     4      4     16     17      9      5 
     5      5      2      1     18      3 
     6      6      2      1      3     21 
     7      7      1      2     22     23 
     8      8      1      2     22     24 
     9      9      3     25      2      4 
    10     10      3     26      4      2 
    11     11      4     27      5      3 
    12     12      4      3     28      5 
    13     13      5      4     29      6 
    14     14      6      5     30      7 
    15     15      6      7      5     31 
    16     16      7      8      6     32 
    17     17      7     33      6      8 
    18     18      8      9     34      7 
    19     19      8      9     35      7 
    20     20      9     10     36      8 
    21     21     13     37     14     10 
    22     22     13     10     38     14 
    23     23     14     15     13     39 
    24     24     14     13     15     40 
    25     25     15     41     14     16 
    26     26     15     42     14     16 
    27     27     17     43     44     16 
    28     28     17     43     45     16 
    29     29     18     19     46      2 
    30     30     18     19     47      2 
    31     31     19     18     20     48 
    32     32     19     49     18     20 
    33     33     20     50     19     21 
    34     34     20     51     21     19 
    35     35     21     20      2     52 
    36     36     21     20     53      2 

