LAMMPS data file Created by LigParGen - (Written by Leela S. Dodda)

      33 atoms
      32 bonds
      61 angles
      84 dihedrals
      20 impropers
 
      33 atom types
      32 bond types
      61 angle types
      84 dihedral types
      20 improper types
 
   -4.472260    45.527740 xlo xhi
   -5.142320    44.857680 ylo yhi
   -1.295950    48.704050 zlo zhi

Masses

       1     12.011  
       2     12.011  
       3     12.011  
       4     12.011  
       5     14.007  
       6     12.011  
       7     12.011  
       8     12.011  
       9     12.011  
      10     12.011  
      11     12.011  
      12     12.011  
      13      1.008  
      14      1.008  
      15      1.008  
      16      1.008  
      17      1.008  
      18      1.008  
      19      1.008  
      20      1.008  
      21      1.008  
      22      1.008  
      23      1.008  
      24      1.008  
      25      1.008  
      26      1.008  
      27      1.008  
      28      1.008  
      29      1.008  
      30      1.008  
      31      1.008  
      32      1.008  
      33      1.008  

Pair Coeffs 

       1      0.066  3.5000000 
       2      0.066  3.5000000 
       3      0.066  3.5000000 
       4      0.066  3.3000000 
       5      0.170  3.2000000 
       6      0.066  3.5000000 
       7      0.066  3.5000000 
       8      0.066  3.5000000 
       9      0.066  3.5000000 
      10      0.066  3.5000000 
      11      0.066  3.5000000 
      12      0.066  3.5000000 
      13      0.030  2.5000000 
      14      0.030  2.5000000 
      15      0.030  2.5000000 
      16      0.030  2.5000000 
      17      0.030  2.5000000 
      18      0.030  2.5000000 
      19      0.030  2.5000000 
      20      0.030  2.5000000 
      21      0.030  2.5000000 
      22      0.030  2.5000000 
      23      0.030  2.5000000 
      24      0.030  2.5000000 
      25      0.030  2.5000000 
      26      0.030  2.5000000 
      27      0.030  2.5000000 
      28      0.030  2.5000000 
      29      0.030  2.5000000 
      30      0.030  2.5000000 
      31      0.030  2.5000000 
      32      0.030  2.5000000 
      33      0.030  2.5000000 

Bond Coeffs 

       1   268.0000     1.5290 
       2   268.0000     1.5290 
       3   390.0000     1.4700 
       4   650.0000     1.1570 
       5   268.0000     1.5290 
       6   268.0000     1.5290 
       7   268.0000     1.5290 
       8   268.0000     1.5290 
       9   268.0000     1.5290 
      10   268.0000     1.5290 
      11   268.0000     1.5290 
      12   340.0000     1.0900 
      13   340.0000     1.0900 
      14   340.0000     1.0900 
      15   340.0000     1.0900 
      16   340.0000     1.0900 
      17   340.0000     1.0900 
      18   340.0000     1.0900 
      19   340.0000     1.0900 
      20   340.0000     1.0900 
      21   340.0000     1.0900 
      22   340.0000     1.0900 
      23   340.0000     1.0900 
      24   340.0000     1.0900 
      25   340.0000     1.0900 
      26   340.0000     1.0900 
      27   340.0000     1.0900 
      28   340.0000     1.0900 
      29   340.0000     1.0900 
      30   340.0000     1.0900 
      31   340.0000     1.0900 
      32   340.0000     1.0900 

Angle Coeffs 

       1     58.350    112.700
       2     58.350    112.700
       3    150.000    180.000
       4     58.350    112.700
       5     58.350    112.700
       6     58.350    112.700
       7     58.350    112.700
       8     58.350    112.700
       9     58.350    112.700
      10     58.350    112.700
      11     37.500    110.700
      12     37.500    110.700
      13     37.500    110.700
      14     37.500    110.700
      15     37.500    110.700
      16     37.500    110.700
      17     37.500    110.700
      18     37.500    110.700
      19     37.500    110.700
      20     37.500    110.700
      21     37.500    110.700
      22     37.500    110.700
      23     37.500    110.700
      24     37.500    110.700
      25     37.500    110.700
      26     37.500    110.700
      27     37.500    110.700
      28     37.500    110.700
      29     37.500    110.700
      30     37.500    110.700
      31     37.500    110.700
      32     33.000    107.800
      33     37.500    110.700
      34     33.000    107.800
      35     33.000    107.800
      36     33.000    107.800
      37     58.350    112.700
      38     33.000    107.800
      39     33.000    107.800
      40     37.500    110.700
      41     37.500    110.700
      42     33.000    107.800
      43     33.000    107.800
      44     37.500    110.700
      45     33.000    107.800
      46     33.000    107.800
      47     37.500    110.700
      48     33.000    107.800
      49     35.000    108.500
      50     37.500    110.700
      51     33.000    107.800
      52     33.000    107.800
      53     33.000    107.800
      54     37.500    110.700
      55     58.350    112.700
      56     58.350    112.700
      57     37.500    110.700
      58     37.500    110.700
      59     37.500    110.700
      60     37.500    110.700
      61     33.000    107.800

Dihedral Coeffs  

       1      0.000     -0.650      0.000      0.000 
       2      0.000      0.000      0.000      0.000 
       3      1.300     -0.200      0.200      0.000 
       4      1.300     -0.200      0.200      0.000 
       5      1.300     -0.200      0.200      0.000 
       6      1.300     -0.200      0.200      0.000 
       7      0.000      0.000      0.300      0.000 
       8      0.000      0.000      0.300      0.000 
       9      0.000      0.000      0.300      0.000 
      10      0.000      0.000      0.300      0.000 
      11      0.000      0.000      0.366      0.000 
      12      0.000      0.000      0.300      0.000 
      13      0.000      0.000      0.300      0.000 
      14      0.000      0.000      0.300      0.000 
      15      0.000      0.000      0.300      0.000 
      16      0.000      0.000      0.300      0.000 
      17      0.000      0.000      0.300      0.000 
      18      0.000      0.000      0.300      0.000 
      19      0.000      0.000      0.300      0.000 
      20      0.000      0.000      0.300      0.000 
      21      0.000      0.000      0.300      0.000 
      22      0.000      0.000      0.300      0.000 
      23      0.000      0.000      0.300      0.000 
      24      1.300     -0.200      0.200      0.000 
      25      0.000      0.000      0.300      0.000 
      26      0.000     -0.650      0.000      0.000 
      27      0.000      0.000      0.300      0.000 
      28      0.000      0.000      0.300      0.000 
      29      0.000      0.000      0.300      0.000 
      30      0.000      0.000      0.300      0.000 
      31      0.000      0.000      0.300      0.000 
      32      0.000      0.000      0.300      0.000 
      33      0.000      0.000      0.300      0.000 
      34      0.000      0.000      0.300      0.000 
      35      0.000      0.000      0.300      0.000 
      36      0.000      0.000      0.000      0.000 
      37      0.000      0.000      0.300      0.000 
      38      0.000      0.000      0.300      0.000 
      39      0.000      0.000      0.300      0.000 
      40      0.000      0.000      0.300      0.000 
      41      0.000      0.000      0.300      0.000 
      42      0.000      0.000      0.300      0.000 
      43      0.000      0.000      0.300      0.000 
      44      1.300     -0.200      0.200      0.000 
      45      0.000      0.000      0.366      0.000 
      46      0.000      0.000      0.300      0.000 
      47      0.000      0.000      0.300      0.000 
      48      0.000      0.000      0.300      0.000 
      49      0.000      0.000      0.300      0.000 
      50      0.000      0.000      0.300      0.000 
      51      1.300     -0.200      0.200      0.000 
      52      0.000      0.000      0.300      0.000 
      53      0.000      0.000      0.300      0.000 
      54      0.000      0.000      0.300      0.000 
      55      0.000      0.000      0.300      0.000 
      56      0.000      0.000      0.300      0.000 
      57      0.000      0.000      0.300      0.000 
      58      0.000      0.000      0.300      0.000 
      59      0.000      0.000      0.300      0.000 
      60      0.000      0.000      0.300      0.000 
      61      0.000      0.000      0.300      0.000 
      62      1.300     -0.200      0.200      0.000 
      63      0.000      0.000      0.300      0.000 
      64      0.000      0.000      0.300      0.000 
      65      0.000      0.000      0.300      0.000 
      66      0.000      0.000      0.300      0.000 
      67      0.000      0.000      0.300      0.000 
      68      0.000      0.000      0.300      0.000 
      69      0.000      0.000      0.300      0.000 
      70      0.000      0.000      0.300      0.000 
      71      0.000      0.000      0.300      0.000 
      72      0.000      0.000      0.300      0.000 
      73      0.000      0.000      0.000      0.000 
      74      0.000      0.000      0.300      0.000 
      75      0.000     -0.650      0.000      0.000 
      76      0.000      0.000      0.300      0.000 
      77      0.000      0.000      0.300      0.000 
      78      0.000      0.000      0.300      0.000 
      79      0.000      0.000      0.300      0.000 
      80      0.000      0.000      0.300      0.000 
      81      0.000      0.000      0.300      0.000 
      82      0.000      0.000      0.366      0.000 
      83      0.000      0.000      0.300      0.000 
      84      0.000      0.000      0.300      0.000 

Improper Coeffs 

       1      0.000      -1       2 
       2      0.000      -1       2 
       3      0.000      -1       2 
       4      0.000      -1       2 
       5      0.000      -1       2 
       6      0.000      -1       2 
       7      0.000      -1       2 
       8      0.000      -1       2 
       9      0.000      -1       2 
      10      0.000      -1       2 
      11      0.000      -1       2 
      12      0.000      -1       2 
      13      0.000      -1       2 
      14      0.000      -1       2 
      15      0.000      -1       2 
      16      0.000      -1       2 
      17      0.000      -1       2 
      18      0.000      -1       2 
      19      0.000      -1       2 
      20      0.000      -1       2 

Atoms 

     1      1      1 -0.24610000    1.000  1.00000  0.00000
     2      1      2 -0.17680000   -0.526  1.00000  0.00000
     3      1      3 0.03190000   -1.149  1.00000  1.41820
     4      1      4 0.13780000   -0.675  2.24594  2.14827
     5      1      5 -0.40500000   -0.280  3.27920  2.75378
     6      1      6 -0.10580000   -2.697  0.88185  1.41340
     7      1      7 -0.24070000   -3.384  2.06450  0.71060
     8      1      8 -0.17500000   -3.196 -0.43601  0.76620
     9      1      9 -0.17720000   -2.640 -1.69771  1.43805
    10      1     10 -0.11620000   -3.128 -3.01167  0.80246
    11      1     11 -0.23520000   -2.661 -3.16017 -0.64765
    12      1     12 -0.23720000   -2.611 -4.19392  1.62771
    13      1     13 0.08850000    1.372  0.95265 -1.02919
    14      1     14 0.08850000    1.394  0.13569  0.54268
    15      1     15 0.08850000    1.408  1.91059  0.45065
    16      1     16 0.10340000   -0.849  0.11128 -0.55294
    17      1     17 0.10340000   -0.861  1.87743 -0.56778
    18      1     18 0.13230000   -0.726  0.16035  1.98160
    19      1     19 0.10850000   -3.035  0.89006  2.46011
    20      1     20 0.08930000   -3.126  2.11118 -0.35225
    21      1     21 0.08930000   -3.109  3.01861  1.17065
    22      1     22 0.08930000   -4.472  1.97002  0.77892
    23      1     23 0.09580000   -2.949 -0.42912 -0.30014
    24      1     24 0.09580000   -4.293 -0.46536  0.82182
    25      1     25 0.08980000   -2.931 -1.67776  2.49626
    26      1     26 0.08980000   -1.546 -1.69606  1.40784
    27      1     27 0.09920000   -4.225 -3.03191  0.82000
    28      1     28 0.08190000   -1.576 -3.05265 -0.72615
    29      1     29 0.08190000   -3.127 -2.41214 -1.29595
    30      1     30 0.08190000   -2.933 -4.14504 -1.04396
    31      1     31 0.08280000   -1.516 -4.22189  1.63776
    32      1     32 0.08280000   -2.972 -5.14232  1.21698
    33      1     33 0.08280000   -2.958 -4.12645  2.66422

Bonds 

     1      1      2      1
     2      2      3      2
     3      3      4      3
     4      4      5      4
     5      5      6      3
     6      6      7      6
     7      7      8      6
     8      8      9      8
     9      9     10      9
    10     10     11     10
    11     11     12     10
    12     12     13      1
    13     13     14      1
    14     14     15      1
    15     15     16      2
    16     16     17      2
    17     17     18      3
    18     18     19      6
    19     19     20      7
    20     20     21      7
    21     21     22      7
    22     22     23      8
    23     23     24      8
    24     24     25      9
    25     25     26      9
    26     26     27     10
    27     27     28     11
    28     28     29     11
    29     29     30     11
    30     30     31     12
    31     31     32     12
    32     32     33     12

Angles 

     1      1      1      2      3
     2      2      2      3      4
     3      3      3      4      5
     4      4      2      3      6
     5      5      3      6      7
     6      6      3      6      8
     7      7      6      8      9
     8      8      8      9     10
     9      9      9     10     11
    10     10      9     10     12
    11     11      2      1     13
    12     12      2      1     14
    13     13      2      1     15
    14     14      1      2     16
    15     15      1      2     17
    16     16      2      3     18
    17     17      3      6     19
    18     18      6      7     20
    19     19      6      7     21
    20     20      6      7     22
    21     21      6      8     23
    22     22      6      8     24
    23     23      8      9     25
    24     24      8      9     26
    25     25      9     10     27
    26     26     10     11     28
    27     27     10     11     29
    28     28     10     11     30
    29     29     10     12     31
    30     30     10     12     32
    31     31     10     12     33
    32     32     31     12     32
    33     33     11     10     27
    34     34     23      8     24
    35     35     13      1     14
    36     36     31     12     33
    37     37     11     10     12
    38     38     25      9     26
    39     39     21      7     22
    40     40      3      2     17
    41     41      9      8     23
    42     42     28     11     29
    43     43     29     11     30
    44     44      7      6     19
    45     45     28     11     30
    46     46     32     12     33
    47     47      3      2     16
    48     48     20      7     22
    49     49      4      3     18
    50     50      9      8     24
    51     51     20      7     21
    52     52     16      2     17
    53     53     14      1     15
    54     54     10      9     25
    55     55      7      6      8
    56     56      4      3      6
    57     57      6      3     18
    58     58     10      9     26
    59     59      8      6     19
    60     60     12     10     27
    61     61     13      1     15

Dihedrals

     1      1      4      3      2      1 
     2      2      5      4      3      2 
     3      3      7      6      3      2 
     4      4      9      8      6      3 
     5      5     10      9      8      6 
     6      6     11     10      9      8 
     7      7     13      1      2      3 
     8      8     20      7      6      3 
     9      9     28     11     10      9 
    10     10     31     12     10      9 
    11     11     16      2      3      4 
    12     12     28     11     10     12 
    13     13     20      7      6     19 
    14     14     16      2      3      6 
    15     15     19      6      3      2 
    16     16     18      3      6      7 
    17     17     18      3      2      1 
    18     18     17      2      1     13 
    19     19     26      9      8     24 
    20     20     26      9     10     12 
    21     21     26      9     10     11 
    22     22     25      9     10     12 
    23     23     25      9      8     24 
    24     24      9      8      6      7 
    25     25     18      3      6      8 
    26     26      8      6      3      4 
    27     27     19      6      8      9 
    28     28     29     11     10     27 
    29     29     14      1      2      3 
    30     30     27     10      9     26 
    31     31     23      8      6      3 
    32     32     27     10      9     25 
    33     33     26      9      8      6 
    34     34     28     11     10     27 
    35     35     25      9     10     11 
    36     36     18      3      4      5 
    37     37     17      2      3      6 
    38     38     29     11     10      9 
    39     39     31     12     10     11 
    40     40     23      8      6     19 
    41     41     33     12     10      9 
    42     42     32     12     10     11 
    43     43     30     11     10     27 
    44     44     12     10      9      8 
    45     45     19      6      3      4 
    46     46     16      2      1     13 
    47     47     21      7      6     19 
    48     48     31     12     10     27 
    49     49     22      7      6     19 
    50     50     17      2      1     15 
    51     51      8      6      3      2 
    52     52     27     10      9      8 
    53     53     23      8      6      7 
    54     54     24      8      6      7 
    55     55     30     11     10      9 
    56     56     23      8      9     10 
    57     57     21      7      6      8 
    58     58     20      7      6      8 
    59     59     32     12     10      9 
    60     60     25      9      8     23 
    61     61     22      7      6      8 
    62     62      6      3      2      1 
    63     63     24      8      9     10 
    64     64     24      8      6      3 
    65     65     18      3      2     17 
    66     66     25      9      8      6 
    67     67     18      3      2     16 
    68     68     26      9      8     23 
    69     69     19      6      3     18 
    70     70     21      7      6      3 
    71     71     17      2      1     14 
    72     72     33     12     10     11 
    73     73      6      3      4      5 
    74     74     16      2      1     14 
    75     75      7      6      3      4 
    76     76     33     12     10     27 
    77     77     30     11     10     12 
    78     78     15      1      2      3 
    79     79     24      8      6     19 
    80     80     22      7      6      3 
    81     81     29     11     10     12 
    82     82     17      2      3      4 
    83     83     16      2      1     15 
    84     84     32     12     10     27 

Impropers

     1      1      3      2      4      6 
     2      2      6      3      7      8 
     3      3     10      9     11     12 
     4      4      1      2     13     14 
     5      5      1      2     13     15 
     6      6      2      1      3     16 
     7      7      2     17      3      1 
     8      8      3     18      4      2 
     9      9      6     19      3      7 
    10     10      7     20     21      6 
    11     11      7     20     22      6 
    12     12      8      9      6     23 
    13     13      8      9      6     24 
    14     14      9     25     10      8 
    15     15      9     26     10      8 
    16     16     10      9     27     11 
    17     17     11     10     28     29 
    18     18     11     10     28     30 
    19     19     12     10     31     32 
    20     20     12     33     10     31 

