LAMMPS data file Created by LigParGen - (Written by Leela S. Dodda)

      48 atoms
      47 bonds
      87 angles
     108 dihedrals
      28 impropers
 
      48 atom types
      47 bond types
      87 angle types
     108 dihedral types
      28 improper types
 
   -8.050670    41.949330 xlo xhi
   -1.265980    48.734020 ylo yhi
   -1.018640    48.981360 zlo zhi

Masses

       1     12.011  
       2     12.011  
       3     12.011  
       4     12.011  
       5     15.999  
       6     12.011  
       7     12.011  
       8     12.011  
       9     12.011  
      10     15.999  
      11     12.011  
      12     15.999  
      13     12.011  
      14     12.011  
      15     12.011  
      16     15.999  
      17     12.011  
      18     12.011  
      19     15.999  
      20     12.011  
      21      1.008  
      22      1.008  
      23      1.008  
      24      1.008  
      25      1.008  
      26      1.008  
      27      1.008  
      28      1.008  
      29      1.008  
      30      1.008  
      31      1.008  
      32      1.008  
      33      1.008  
      34      1.008  
      35      1.008  
      36      1.008  
      37      1.008  
      38      1.008  
      39      1.008  
      40      1.008  
      41      1.008  
      42      1.008  
      43      1.008  
      44      1.008  
      45      1.008  
      46      1.008  
      47      1.008  
      48      1.008  

Pair Coeffs 

       1      0.066  3.5000000 
       2      0.066  3.5000000 
       3      0.066  3.5000000 
       4      0.066  3.5000000 
       5      0.140  2.9000000 
       6      0.066  3.5000000 
       7      0.066  3.5000000 
       8      0.066  3.5000000 
       9      0.070  3.5500000 
      10      0.210  2.9600000 
      11      0.066  3.5000000 
      12      0.140  2.9000000 
      13      0.066  3.5000000 
      14      0.066  3.5000000 
      15      0.070  3.5500000 
      16      0.210  2.9600000 
      17      0.066  3.5000000 
      18      0.066  3.5000000 
      19      0.140  2.9000000 
      20      0.066  3.5000000 
      21      0.030  2.5000000 
      22      0.030  2.5000000 
      23      0.030  2.5000000 
      24      0.030  2.5000000 
      25      0.030  2.5000000 
      26      0.030  2.5000000 
      27      0.030  2.5000000 
      28      0.030  2.5000000 
      29      0.030  2.5000000 
      30      0.030  2.5000000 
      31      0.030  2.5000000 
      32      0.030  2.5000000 
      33      0.030  2.5000000 
      34      0.030  2.5000000 
      35      0.030  2.5000000 
      36      0.030  2.5000000 
      37      0.030  2.5000000 
      38      0.030  2.5000000 
      39      0.030  2.5000000 
      40      0.030  2.5000000 
      41      0.030  2.5000000 
      42      0.030  2.5000000 
      43      0.030  2.5000000 
      44      0.030  2.5000000 
      45      0.030  2.5000000 
      46      0.030  2.5000000 
      47      0.030  2.5000000 
      48      0.030  2.5000000 

Bond Coeffs 

       1   268.0000     1.5290 
       2   268.0000     1.5290 
       3   268.0000     1.5290 
       4   320.0000     1.4100 
       5   320.0000     1.4100 
       6   268.0000     1.5290 
       7   268.0000     1.5290 
       8   317.0000     1.5220 
       9   570.0000     1.2290 
      10   268.0000     1.5290 
      11   320.0000     1.4100 
      12   320.0000     1.4100 
      13   268.0000     1.5290 
      14   317.0000     1.5220 
      15   570.0000     1.2290 
      16   317.0000     1.5220 
      17   268.0000     1.5290 
      18   320.0000     1.4100 
      19   320.0000     1.4100 
      20   340.0000     1.0900 
      21   340.0000     1.0900 
      22   340.0000     1.0900 
      23   340.0000     1.0900 
      24   340.0000     1.0900 
      25   340.0000     1.0900 
      26   340.0000     1.0900 
      27   340.0000     1.0900 
      28   340.0000     1.0900 
      29   340.0000     1.0900 
      30   340.0000     1.0900 
      31   340.0000     1.0900 
      32   340.0000     1.0900 
      33   340.0000     1.0900 
      34   340.0000     1.0900 
      35   340.0000     1.0900 
      36   340.0000     1.0900 
      37   340.0000     1.0900 
      38   340.0000     1.0900 
      39   340.0000     1.0900 
      40   340.0000     1.0900 
      41   340.0000     1.0900 
      42   340.0000     1.0900 
      43   340.0000     1.0900 
      44   340.0000     1.0900 
      45   340.0000     1.0900 
      46   340.0000     1.0900 
      47   340.0000     1.0900 

Angle Coeffs 

       1     58.350    112.700
       2     58.350    112.700
       3     50.000    109.500
       4     60.000    109.500
       5     58.350    112.700
       6     58.350    112.700
       7     63.000    111.100
       8     80.000    120.400
       9     58.350    112.700
      10     50.000    109.500
      11     60.000    109.500
      12     58.350    112.700
      13     63.000    111.100
      14     80.000    120.400
      15     70.000    116.000
      16     63.000    111.100
      17     50.000    109.500
      18     60.000    109.500
      19     37.500    110.700
      20     37.500    110.700
      21     37.500    110.700
      22     37.500    110.700
      23     37.500    110.700
      24     37.500    110.700
      25     37.500    110.700
      26     37.500    110.700
      27     35.000    109.500
      28     35.000    109.500
      29     35.000    109.500
      30     37.500    110.700
      31     37.500    110.700
      32     35.000    115.000
      33     37.500    110.700
      34     37.500    110.700
      35     35.000    109.500
      36     35.000    109.500
      37     35.000    109.500
      38     37.500    110.700
      39     37.500    110.700
      40     35.000    109.500
      41     37.500    110.700
      42     37.500    110.700
      43     37.500    110.700
      44     35.000    109.500
      45     35.000    109.500
      46     35.000    109.500
      47     33.000    107.800
      48     50.000    109.500
      49     33.000    107.800
      50     33.000    107.800
      51     37.500    110.700
      52     33.000    107.800
      53     35.000    109.500
      54     80.000    120.400
      55     33.000    107.800
      56     33.000    107.800
      57     37.500    110.700
      58     35.000    109.500
      59     33.000    107.800
      60     33.000    107.800
      61     33.000    107.800
      62     35.000    109.500
      63     33.000    107.800
      64     33.000    107.800
      65     58.350    112.700
      66     33.000    107.800
      67     35.000    109.500
      68     35.000    109.500
      69     33.000    107.800
      70     33.000    107.800
      71     33.000    107.800
      72     33.000    107.800
      73     37.500    110.700
      74     37.500    110.700
      75     58.350    112.700
      76     37.500    110.700
      77     35.000    109.500
      78     35.000    109.500
      79     33.000    107.800
      80     33.000    107.800
      81     35.000    123.000
      82     33.000    107.800
      83     35.000    109.500
      84     50.000    109.500
      85     33.000    107.800
      86     37.500    110.700
      87     58.350    112.700

Dihedral Coeffs  

       1      1.300     -0.200      0.200      0.000 
       2      1.711     -0.500      0.663      0.000 
       3      0.650     -0.250      0.670      0.000 
       4      1.300     -0.200      0.200      0.000 
       5     -2.060     -0.313      0.315      0.000 
       6      0.000      0.000      0.000      0.000 
       7      1.711     -0.500      0.663      0.000 
       8      0.650     -0.250      0.670      0.000 
       9     -2.060     -0.313      0.315      0.000 
      10      0.000      0.000      0.000      0.000 
      11      1.454     -0.144     -0.775      0.000 
      12      0.650     -0.250      0.670      0.000 
      13      0.000      0.000      0.300      0.000 
      14      0.000      0.000      0.760      0.000 
      15      0.000      0.000      0.760      0.000 
      16      0.000      0.000     -0.100      0.000 
      17      0.000      0.000      0.760      0.000 
      18      0.000      0.000      0.468      0.000 
      19      0.000      0.000      0.300      0.000 
      20      0.000      0.000      0.300      0.000 
      21      0.000      0.000      0.760      0.000 
      22      0.000      0.000      0.300      0.000 
      23      0.000      0.000      0.300      0.000 
      24      0.000      0.000      0.300      0.000 
      25      0.000      0.000      0.300      0.000 
      26      0.000      0.000      0.468      0.000 
      27      1.711     -0.500      0.663      0.000 
      28      0.000      0.000      0.360      0.000 
      29      0.000      0.000      0.760      0.000 
      30      0.000      0.000      0.300      0.000 
      31      0.000      0.000      0.300      0.000 
      32      0.000      0.000      0.300      0.000 
      33     -2.060     -0.313      0.315      0.000 
      34      0.000      0.000      0.300      0.000 
      35      0.000      0.000      0.360      0.000 
      36      0.650     -0.250      0.670      0.000 
      37      1.300     -0.200      0.200      0.000 
      38      0.000      0.000     -0.100      0.000 
      39      0.000      0.000      0.300      0.000 
      40      0.000      0.000      0.300      0.000 
      41      0.000      0.000      0.300      0.000 
      42      0.000      0.000      0.300      0.000 
      43      0.000      0.000      0.300      0.000 
      44      0.000      0.000      0.300      0.000 
      45     -2.060     -0.313      0.315      0.000 
      46      0.000      0.000      0.300      0.000 
      47      0.000      0.000      0.760      0.000 
      48      0.000      0.000      0.300      0.000 
      49      0.000      0.000      0.300      0.000 
      50      0.000      0.000      0.000      0.000 
      51      0.000      0.000      0.300      0.000 
      52      0.000      0.000      0.468      0.000 
      53      1.711     -0.500      0.663      0.000 
      54      0.000      0.000      0.300      0.000 
      55      1.300     -0.200      0.200      0.000 
      56      0.000      0.000      0.000      0.000 
      57      0.000      0.000      0.000      0.000 
      58      0.000      0.000      0.300      0.000 
      59      0.000      0.000      0.760      0.000 
      60      0.000      0.000      0.300      0.000 
      61      0.000      0.000      0.000      0.000 
      62      0.000      0.000      0.300      0.000 
      63      0.000      0.000      0.300      0.000 
      64      0.000      0.000      0.760      0.000 
      65      0.000      0.000      0.760      0.000 
      66      1.711     -0.500      0.663      0.000 
      67      0.000      0.000      0.300      0.000 
      68      0.000      0.000      0.760      0.000 
      69      0.000      0.000      0.300      0.000 
      70      1.300     -0.200      0.200      0.000 
      71      0.000      0.000      0.000      0.000 
      72     -2.060     -0.313      0.315      0.000 
      73      1.711     -0.500      0.663      0.000 
      74      0.000      0.000      0.300      0.000 
      75      0.000      0.000      0.300      0.000 
      76      1.711     -0.500      0.663      0.000 
      77      0.000      0.000      0.300      0.000 
      78      0.000      0.000      0.300      0.000 
      79      0.000      0.000      0.468      0.000 
      80      0.000      0.000      0.300      0.000 
      81      0.000      0.000     -0.100      0.000 
      82      0.000      0.000      0.300      0.000 
      83      0.000      0.000      0.275      0.000 
      84      0.000      0.000      0.300      0.000 
      85      0.000      0.000      0.468      0.000 
      86      0.000      0.000      0.300      0.000 
      87      0.000      0.000      0.300      0.000 
      88      0.000      0.000      0.300      0.000 
      89     -2.060     -0.313      0.315      0.000 
      90      0.000      0.000      0.000      0.000 
      91      0.000      0.000      0.275      0.000 
      92      0.000      0.000      0.300      0.000 
      93      0.000      0.000      0.300      0.000 
      94      0.000      0.000      0.300      0.000 
      95      0.000      0.000      0.000      0.000 
      96      0.000      0.000      0.300      0.000 
      97      0.000      0.000      0.300      0.000 
      98      0.000      0.000      0.300      0.000 
      99      0.000      0.000      0.760      0.000 
     100      0.000      0.000      0.300      0.000 
     101      0.000      0.000      0.760      0.000 
     102      0.000      0.000      0.300      0.000 
     103      0.000      0.000      0.760      0.000 
     104      0.000      0.000      0.000      0.000 
     105      0.650     -0.250      0.670      0.000 
     106      1.454     -0.144     -0.775      0.000 
     107      1.711     -0.500      0.663      0.000 
     108      0.000      0.000      0.275      0.000 

Improper Coeffs 

       1      0.000      -1       2 
       2      0.000      -1       2 
       3      0.000      -1       2 
       4     10.500      -1       2 
       5      0.000      -1       2 
       6      0.000      -1       2 
       7      0.000      -1       2 
       8      0.000      -1       2 
       9      0.000      -1       2 
      10      0.000      -1       2 
      11      0.000      -1       2 
      12      0.000      -1       2 
      13      0.000      -1       2 
      14      0.000      -1       2 
      15      0.000      -1       2 
      16      0.000      -1       2 
      17     10.500      -1       2 
      18      0.000      -1       2 
      19      0.000      -1       2 
      20      0.000      -1       2 
      21      0.000      -1       2 
      22      0.000      -1       2 
      23      0.000      -1       2 
      24      0.000      -1       2 
      25      0.000      -1       2 
      26      0.000      -1       2 
      27      0.000      -1       2 
      28      0.000      -1       2 

Atoms 

     1      1      1 -0.24110000    1.000  1.00000  0.00000
     2      1      2 -0.17910000   -0.527  1.00000  0.00000
     3      1      3 -0.21660000   -1.044  1.00000  1.44320
     4      1      4 0.08540000   -2.575  1.00171  1.69439
     5      1      5 -0.39380000   -3.170 -0.24209  1.28659
     6      1      6 -0.04460000   -3.295 -0.45766 -0.10990
     7      1      7 0.00860000   -2.980  1.20123  3.23498
     8      1      8 -0.24610000   -2.498  0.00566  4.11120
     9      1      9 0.32340000   -1.010 -0.22235  4.21456
    10      1     10 -0.46440000   -0.181  0.64189  4.47005
    11      1     11 0.00470000   -2.438  2.55650  3.75785
    12      1     12 -0.38340000   -2.854  2.75355  5.10773
    13      1     13 -0.04920000   -2.316  3.94275  5.66879
    14      1     14 -0.21720000   -4.556  1.25295  3.31166
    15      1     15 0.38820000   -5.215  1.25619  4.70278
    16      1     16 -0.42600000   -5.170  0.23720  5.40094
    17      1     17 0.03860000   -5.993  2.52362  5.14560
    18      1     18 -0.27940000   -7.222  2.69992  4.25506
    19      1     19 -0.35920000   -6.386  2.37967  6.51648
    20      1     20 -0.04640000   -7.023  3.50820  7.09364
    21      1     21 0.08520000    1.384  0.89649 -1.01864
    22      1     22 0.08520000    1.390  0.16281  0.59114
    23      1     23 0.08520000    1.392  1.92863  0.42543
    24      1     24 0.08840000   -0.838  0.09968 -0.53136
    25      1     25 0.08840000   -0.903  1.86725 -0.55102
    26      1     26 0.10790000   -0.600  1.87365  1.92687
    27      1     27 0.10790000   -0.620  0.09913  1.88894
    28      1     28 0.08710000   -3.032  1.81969  1.12024
    29      1     29 0.08280000   -4.238 -0.98027 -0.29717
    30      1     30 0.08280000   -2.494 -1.12354 -0.44130
    31      1     31 0.08280000   -3.291  0.47224 -0.68643
    32      1     32 0.14760000   -2.933 -0.92732  3.73189
    33      1     33 0.14760000   -2.822  0.10222  5.15052
    34      1     34 0.10340000   -0.685 -1.26598  4.04004
    35      1     35 0.08860000   -2.839  3.37610  3.14852
    36      1     36 0.08860000   -1.351  2.61194  3.71629
    37      1     37 0.08470000   -2.558  3.95836  6.73450
    38      1     38 0.08470000   -2.774  4.81490  5.19295
    39      1     39 0.08470000   -1.228  3.97525  5.55558
    40      1     40 0.11690000   -4.989  0.37955  2.80616
    41      1     41 0.11690000   -4.907  2.12571  2.75196
    42      1     42 0.11790000   -5.326  3.38739  5.05613
    43      1     43 0.09670000   -7.910  1.85696  4.38127
    44      1     44 0.09670000   -6.958  2.77007  3.19691
    45      1     45 0.09670000   -7.776  3.60827  4.51279
    46      1     46 0.08070000   -7.072  3.35519  8.17606
    47      1     47 0.08070000   -8.051  3.59599  6.72908
    48      1     48 0.08070000   -6.466  4.42799  6.89563

Bonds 

     1      1      2      1
     2      2      3      2
     3      3      4      3
     4      4      5      4
     5      5      6      5
     6      6      7      4
     7      7      8      7
     8      8      9      8
     9      9     10      9
    10     10     11      7
    11     11     12     11
    12     12     13     12
    13     13     14      7
    14     14     15     14
    15     15     16     15
    16     16     17     15
    17     17     18     17
    18     18     19     17
    19     19     20     19
    20     20     21      1
    21     21     22      1
    22     22     23      1
    23     23     24      2
    24     24     25      2
    25     25     26      3
    26     26     27      3
    27     27     28      4
    28     28     29      6
    29     29     30      6
    30     30     31      6
    31     31     32      8
    32     32     33      8
    33     33     34      9
    34     34     35     11
    35     35     36     11
    36     36     37     13
    37     37     38     13
    38     38     39     13
    39     39     40     14
    40     40     41     14
    41     41     42     17
    42     42     43     18
    43     43     44     18
    44     44     45     18
    45     45     46     20
    46     46     47     20
    47     47     48     20

Angles 

     1      1      1      2      3
     2      2      2      3      4
     3      3      3      4      5
     4      4      4      5      6
     5      5      3      4      7
     6      6      4      7      8
     7      7      7      8      9
     8      8      8      9     10
     9      9      4      7     11
    10     10      7     11     12
    11     11     11     12     13
    12     12      4      7     14
    13     13      7     14     15
    14     14     14     15     16
    15     15     14     15     17
    16     16     15     17     18
    17     17     15     17     19
    18     18     17     19     20
    19     19      2      1     21
    20     20      2      1     22
    21     21      2      1     23
    22     22      1      2     24
    23     23      1      2     25
    24     24      2      3     26
    25     25      2      3     27
    26     26      3      4     28
    27     27      5      6     29
    28     28      5      6     30
    29     29      5      6     31
    30     30      7      8     32
    31     31      7      8     33
    32     32      8      9     34
    33     33      7     11     35
    34     34      7     11     36
    35     35     12     13     37
    36     36     12     13     38
    37     37     12     13     39
    38     38      7     14     40
    39     39      7     14     41
    40     40     15     17     42
    41     41     17     18     43
    42     42     17     18     44
    43     43     17     18     45
    44     44     19     20     46
    45     45     19     20     47
    46     46     19     20     48
    47     47     46     20     48
    48     48      5      4      7
    49     49     29      6     30
    50     50     35     11     36
    51     51      7      4     28
    52     52     38     13     39
    53     53     15     14     40
    54     54     16     15     17
    55     55     40     14     41
    56     56     21      1     23
    57     57      3      2     25
    58     58      5      4     28
    59     59     47     20     48
    60     60     37     13     39
    61     61     43     18     44
    62     62     15     14     41
    63     63     44     18     45
    64     64     37     13     38
    65     65      8      7     11
    66     66     32      8     33
    67     67     12     11     35
    68     68     12     11     36
    69     69     29      6     31
    70     70     24      2     25
    71     71     21      1     22
    72     72     46     20     47
    73     73      4      3     27
    74     74     18     17     42
    75     75      8      7     14
    76     76      4      3     26
    77     77      9      8     32
    78     78      9      8     33
    79     79     30      6     31
    80     80     26      3     27
    81     81     10      9     34
    82     82     22      1     23
    83     83     19     17     42
    84     84     18     17     19
    85     85     43     18     45
    86     86      3      2     24
    87     87     11      7     14

Dihedrals

     1      1      4      3      2      1 
     2      2      5      4      3      2 
     3      3      6      5      4      3 
     4      4      8      7      4      3 
     5      5      9      8      7      4 
     6      6     10      9      8      7 
     7      7     12     11      7      4 
     8      8     13     12     11      7 
     9      9     15     14      7      4 
    10     10     16     15     14      7 
    11     11     18     17     15     14 
    12     12     20     19     17     15 
    13     13     21      1      2      3 
    14     14     29      6      5      4 
    15     15     37     13     12     11 
    16     16     43     18     17     15 
    17     17     46     20     19     17 
    18     18     27      3      4      5 
    19     19     28      4      3      2 
    20     20     33      8      7     11 
    21     21     36     11     12     13 
    22     22     33      8      7      4 
    23     23     28      4      3     27 
    24     24     23      1      2      3 
    25     25     28      4      7     14 
    26     26     43     18     17     19 
    27     27     14      7     11     12 
    28     28     34      9      8     33 
    29     29     42     17     19     20 
    30     30     26      3      2      1 
    31     31     27      3      4      7 
    32     32     32      8      7     14 
    33     33     15     14      7     11 
    34     34     41     14      7      4 
    35     35     34      9      8     32 
    36     36      7      4      5      6 
    37     37     14      7      4      3 
    38     38     44     18     17     15 
    39     39     32      8      7      4 
    40     40     32      8      7     11 
    41     41     40     14      7      8 
    42     42     33      8      7     14 
    43     43     26      3      2     25 
    44     44     27      3      2     24 
    45     45     14      7      8      9 
    46     46     36     11      7      4 
    47     47     47     20     19     17 
    48     48     24      2      1     22 
    49     49     25      2      1     21 
    50     50     32      8      9     10 
    51     51     43     18     17     42 
    52     52     26      3      4      5 
    53     53     12     11      7      8 
    54     54     40     14      7     11 
    55     55      7      4      3      2 
    56     56     42     17     15     16 
    57     57     19     17     15     16 
    58     58     35     11      7      8 
    59     59     30      6      5      4 
    60     60     36     11      7     14 
    61     61     40     14     15     16 
    62     62     27      3      2      1 
    63     63     24      2      3      4 
    64     64     28      4      5      6 
    65     65     38     13     12     11 
    66     66     19     17     15     14 
    67     67     28      4      7      8 
    68     68     48     20     19     17 
    69     69     24      2      1     21 
    70     70     11      7      4      3 
    71     71     34      9      8      7 
    72     72     15     14      7      8 
    73     73     14      7      4      5 
    74     74     40     14      7      4 
    75     75     25      2      1     23 
    76     76      8      7      4      5 
    77     77     44     18     17     42 
    78     78     41     14      7      8 
    79     79     44     18     17     19 
    80     80     26      3      2     24 
    81     81     45     18     17     15 
    82     82     22      1      2      3 
    83     83     42     17     15     14 
    84     84     36     11      7      8 
    85     85     45     18     17     19 
    86     86     24      2      1     23 
    87     87     25      2      1     22 
    88     88     35     11      7     14 
    89     89     11      7      8      9 
    90     90     41     14     15     16 
    91     91     40     14     15     17 
    92     92     45     18     17     42 
    93     93     35     11      7      4 
    94     94     41     14      7     11 
    95     95     18     17     15     16 
    96     96     26      3      4      7 
    97     97     28      4      7     11 
    98     98     25      2      3      4 
    99     99     35     11     12     13 
   100    100     28      4      3     26 
   101    101     39     13     12     11 
   102    102     27      3      2     25 
   103    103     31      6      5      4 
   104    104     33      8      9     10 
   105    105     20     19     17     18 
   106    106     17     15     14      7 
   107    107     11      7      4      5 
   108    108     41     14     15     17 

Impropers

     1      1      4      3      5      7 
     2      2      7     11      4      8 
     3      3      7      4     14      8 
     4      4     15     17     14     16 
     5      5     17     18     19     15 
     6      6      1      2     21     22 
     7      7      1      2     21     23 
     8      8      2      1      3     24 
     9      9      2     25      3      1 
    10     10      3     26      4      2 
    11     11      3      2     27      4 
    12     12      4      3     28      5 
    13     13      6     29      5     30 
    14     14      6     29      5     31 
    15     15      8      9      7     32 
    16     16      8     33      9      7 
    17     17      9     34     10      8 
    18     18     11     35     12      7 
    19     19     11     12     36      7 
    20     20     13     37     12     38 
    21     21     13     37     12     39 
    22     22     14     15      7     40 
    23     23     14     41     15      7 
    24     24     17     42     15     18 
    25     25     18     17     43     44 
    26     26     18     17     43     45 
    27     27     20     19     46     47 
    28     28     20     19     46     48 

