LAMMPS data file Created by LigParGen - (Written by Leela S. Dodda)

      53 atoms
      52 bonds
     102 angles
     144 dihedrals
      34 impropers
 
      53 atom types
      52 bond types
     102 angle types
     144 dihedral types
      34 improper types
 
  -10.619170    39.380830 xlo xhi
   -6.432700    43.567300 ylo yhi
   -1.025590    48.974410 zlo zhi

Masses

       1     12.011  
       2     12.011  
       3     12.011  
       4     12.011  
       5     12.011  
       6     12.011  
       7     12.011  
       8     12.011  
       9     12.011  
      10     12.011  
      11     12.011  
      12     12.011  
      13     12.011  
      14     12.011  
      15     12.011  
      16     12.011  
      17     12.011  
      18      1.008  
      19      1.008  
      20      1.008  
      21      1.008  
      22      1.008  
      23      1.008  
      24      1.008  
      25      1.008  
      26      1.008  
      27      1.008  
      28      1.008  
      29      1.008  
      30      1.008  
      31      1.008  
      32      1.008  
      33      1.008  
      34      1.008  
      35      1.008  
      36      1.008  
      37      1.008  
      38      1.008  
      39      1.008  
      40      1.008  
      41      1.008  
      42      1.008  
      43      1.008  
      44      1.008  
      45      1.008  
      46      1.008  
      47      1.008  
      48      1.008  
      49      1.008  
      50      1.008  
      51      1.008  
      52      1.008  
      53      1.008  

Pair Coeffs 

       1      0.066  3.5000000 
       2      0.066  3.5000000 
       3      0.066  3.5000000 
       4      0.066  3.5000000 
       5      0.066  3.5000000 
       6      0.066  3.5000000 
       7      0.066  3.5000000 
       8      0.066  3.5000000 
       9      0.066  3.5000000 
      10      0.066  3.5000000 
      11      0.066  3.5000000 
      12      0.066  3.5000000 
      13      0.066  3.5000000 
      14      0.066  3.5000000 
      15      0.066  3.5000000 
      16      0.066  3.5000000 
      17      0.066  3.5000000 
      18      0.030  2.5000000 
      19      0.030  2.5000000 
      20      0.030  2.5000000 
      21      0.030  2.5000000 
      22      0.030  2.5000000 
      23      0.030  2.5000000 
      24      0.030  2.5000000 
      25      0.030  2.5000000 
      26      0.030  2.5000000 
      27      0.030  2.5000000 
      28      0.030  2.5000000 
      29      0.030  2.5000000 
      30      0.030  2.5000000 
      31      0.030  2.5000000 
      32      0.030  2.5000000 
      33      0.030  2.5000000 
      34      0.030  2.5000000 
      35      0.030  2.5000000 
      36      0.030  2.5000000 
      37      0.030  2.5000000 
      38      0.030  2.5000000 
      39      0.030  2.5000000 
      40      0.030  2.5000000 
      41      0.030  2.5000000 
      42      0.030  2.5000000 
      43      0.030  2.5000000 
      44      0.030  2.5000000 
      45      0.030  2.5000000 
      46      0.030  2.5000000 
      47      0.030  2.5000000 
      48      0.030  2.5000000 
      49      0.030  2.5000000 
      50      0.030  2.5000000 
      51      0.030  2.5000000 
      52      0.030  2.5000000 
      53      0.030  2.5000000 

Bond Coeffs 

       1   268.0000     1.5290 
       2   268.0000     1.5290 
       3   268.0000     1.5290 
       4   268.0000     1.5290 
       5   268.0000     1.5290 
       6   268.0000     1.5290 
       7   268.0000     1.5290 
       8   268.0000     1.5290 
       9   268.0000     1.5290 
      10   268.0000     1.5290 
      11   268.0000     1.5290 
      12   268.0000     1.5290 
      13   268.0000     1.5290 
      14   268.0000     1.5290 
      15   268.0000     1.5290 
      16   268.0000     1.5290 
      17   340.0000     1.0900 
      18   340.0000     1.0900 
      19   340.0000     1.0900 
      20   340.0000     1.0900 
      21   340.0000     1.0900 
      22   340.0000     1.0900 
      23   340.0000     1.0900 
      24   340.0000     1.0900 
      25   340.0000     1.0900 
      26   340.0000     1.0900 
      27   340.0000     1.0900 
      28   340.0000     1.0900 
      29   340.0000     1.0900 
      30   340.0000     1.0900 
      31   340.0000     1.0900 
      32   340.0000     1.0900 
      33   340.0000     1.0900 
      34   340.0000     1.0900 
      35   340.0000     1.0900 
      36   340.0000     1.0900 
      37   340.0000     1.0900 
      38   340.0000     1.0900 
      39   340.0000     1.0900 
      40   340.0000     1.0900 
      41   340.0000     1.0900 
      42   340.0000     1.0900 
      43   340.0000     1.0900 
      44   340.0000     1.0900 
      45   340.0000     1.0900 
      46   340.0000     1.0900 
      47   340.0000     1.0900 
      48   340.0000     1.0900 
      49   340.0000     1.0900 
      50   340.0000     1.0900 
      51   340.0000     1.0900 
      52   340.0000     1.0900 

Angle Coeffs 

       1     58.350    112.700
       2     58.350    112.700
       3     58.350    112.700
       4     58.350    112.700
       5     58.350    112.700
       6     58.350    112.700
       7     58.350    112.700
       8     58.350    112.700
       9     58.350    112.700
      10     58.350    112.700
      11     58.350    112.700
      12     58.350    112.700
      13     58.350    112.700
      14     58.350    112.700
      15     58.350    112.700
      16     37.500    110.700
      17     37.500    110.700
      18     37.500    110.700
      19     37.500    110.700
      20     37.500    110.700
      21     37.500    110.700
      22     37.500    110.700
      23     37.500    110.700
      24     37.500    110.700
      25     37.500    110.700
      26     37.500    110.700
      27     37.500    110.700
      28     37.500    110.700
      29     37.500    110.700
      30     37.500    110.700
      31     37.500    110.700
      32     37.500    110.700
      33     37.500    110.700
      34     37.500    110.700
      35     37.500    110.700
      36     37.500    110.700
      37     37.500    110.700
      38     37.500    110.700
      39     37.500    110.700
      40     37.500    110.700
      41     37.500    110.700
      42     37.500    110.700
      43     37.500    110.700
      44     37.500    110.700
      45     37.500    110.700
      46     37.500    110.700
      47     37.500    110.700
      48     37.500    110.700
      49     37.500    110.700
      50     37.500    110.700
      51     37.500    110.700
      52     33.000    107.800
      53     33.000    107.800
      54     33.000    107.800
      55     37.500    110.700
      56     33.000    107.800
      57     37.500    110.700
      58     33.000    107.800
      59     33.000    107.800
      60     37.500    110.700
      61     33.000    107.800
      62     37.500    110.700
      63     37.500    110.700
      64     33.000    107.800
      65     37.500    110.700
      66     33.000    107.800
      67     33.000    107.800
      68     37.500    110.700
      69     37.500    110.700
      70     37.500    110.700
      71     37.500    110.700
      72     37.500    110.700
      73     37.500    110.700
      74     33.000    107.800
      75     33.000    107.800
      76     37.500    110.700
      77     37.500    110.700
      78     33.000    107.800
      79     33.000    107.800
      80     33.000    107.800
      81     37.500    110.700
      82     37.500    110.700
      83     33.000    107.800
      84     37.500    110.700
      85     37.500    110.700
      86     33.000    107.800
      87     33.000    107.800
      88     37.500    110.700
      89     33.000    107.800
      90     37.500    110.700
      91     37.500    110.700
      92     37.500    110.700
      93     37.500    110.700
      94     33.000    107.800
      95     37.500    110.700
      96     33.000    107.800
      97     37.500    110.700
      98     58.350    112.700
      99     58.350    112.700
     100     33.000    107.800
     101     33.000    107.800
     102     37.500    110.700

Dihedral Coeffs  

       1      1.300     -0.200      0.200      0.000 
       2      1.300     -0.200      0.200      0.000 
       3      1.300     -0.200      0.200      0.000 
       4      1.300     -0.200      0.200      0.000 
       5      1.300     -0.200      0.200      0.000 
       6      1.300     -0.200      0.200      0.000 
       7      1.300     -0.200      0.200      0.000 
       8      1.300     -0.200      0.200      0.000 
       9      1.300     -0.200      0.200      0.000 
      10      1.300     -0.200      0.200      0.000 
      11      1.300     -0.200      0.200      0.000 
      12      1.300     -0.200      0.200      0.000 
      13      0.000      0.000      0.300      0.000 
      14      0.000      0.000      0.300      0.000 
      15      0.000      0.000      0.300      0.000 
      16      0.000      0.000      0.300      0.000 
      17      0.000      0.000      0.300      0.000 
      18      0.000      0.000      0.300      0.000 
      19      0.000      0.000      0.300      0.000 
      20      0.000      0.000      0.300      0.000 
      21      0.000      0.000      0.300      0.000 
      22      0.000      0.000      0.300      0.000 
      23      0.000      0.000      0.300      0.000 
      24      0.000      0.000      0.300      0.000 
      25      0.000      0.000      0.300      0.000 
      26      0.000      0.000      0.300      0.000 
      27      0.000      0.000      0.300      0.000 
      28      0.000      0.000      0.300      0.000 
      29      0.000      0.000      0.300      0.000 
      30      0.000      0.000      0.300      0.000 
      31      0.000      0.000      0.300      0.000 
      32      0.000      0.000      0.300      0.000 
      33      0.000      0.000      0.300      0.000 
      34      0.000      0.000      0.300      0.000 
      35      0.000      0.000      0.300      0.000 
      36      0.000      0.000      0.300      0.000 
      37      0.000      0.000      0.300      0.000 
      38      1.300     -0.200      0.200      0.000 
      39      0.000      0.000      0.300      0.000 
      40      0.000      0.000      0.300      0.000 
      41      0.000      0.000      0.300      0.000 
      42      0.000      0.000      0.300      0.000 
      43      0.000      0.000      0.300      0.000 
      44      0.000      0.000      0.300      0.000 
      45      0.000      0.000      0.300      0.000 
      46      0.000      0.000      0.300      0.000 
      47      0.000      0.000      0.300      0.000 
      48      0.000      0.000      0.300      0.000 
      49      0.000      0.000      0.300      0.000 
      50      0.000      0.000      0.300      0.000 
      51      0.000      0.000      0.300      0.000 
      52      0.000      0.000      0.300      0.000 
      53      0.000      0.000      0.300      0.000 
      54      0.000      0.000      0.300      0.000 
      55      0.000      0.000      0.300      0.000 
      56      0.000      0.000      0.300      0.000 
      57      0.000      0.000      0.300      0.000 
      58      0.000      0.000      0.300      0.000 
      59      0.000      0.000      0.300      0.000 
      60      0.000      0.000      0.300      0.000 
      61      0.000      0.000      0.300      0.000 
      62      0.000      0.000      0.300      0.000 
      63      0.000      0.000      0.300      0.000 
      64      0.000      0.000      0.300      0.000 
      65      0.000      0.000      0.300      0.000 
      66      1.300     -0.200      0.200      0.000 
      67      0.000      0.000      0.300      0.000 
      68      0.000      0.000      0.300      0.000 
      69      0.000      0.000      0.300      0.000 
      70      0.000      0.000      0.300      0.000 
      71      0.000      0.000      0.300      0.000 
      72      0.000      0.000      0.300      0.000 
      73      0.000      0.000      0.300      0.000 
      74      0.000      0.000      0.300      0.000 
      75      0.000      0.000      0.300      0.000 
      76      0.000      0.000      0.300      0.000 
      77      0.000      0.000      0.300      0.000 
      78      0.000      0.000      0.300      0.000 
      79      0.000      0.000      0.300      0.000 
      80      0.000      0.000      0.300      0.000 
      81      0.000      0.000      0.300      0.000 
      82      0.000      0.000      0.300      0.000 
      83      0.000      0.000      0.300      0.000 
      84      0.000      0.000      0.300      0.000 
      85      0.000      0.000      0.300      0.000 
      86      0.000      0.000      0.300      0.000 
      87      1.300     -0.200      0.200      0.000 
      88      0.000      0.000      0.300      0.000 
      89      0.000      0.000      0.300      0.000 
      90      0.000      0.000      0.300      0.000 
      91      0.000      0.000      0.300      0.000 
      92      0.000      0.000      0.300      0.000 
      93      0.000      0.000      0.300      0.000 
      94      0.000      0.000      0.300      0.000 
      95      1.300     -0.200      0.200      0.000 
      96      0.000      0.000      0.300      0.000 
      97      1.300     -0.200      0.200      0.000 
      98      0.000      0.000      0.300      0.000 
      99      0.000      0.000      0.300      0.000 
     100      0.000      0.000      0.300      0.000 
     101      0.000      0.000      0.300      0.000 
     102      0.000      0.000      0.300      0.000 
     103      0.000      0.000      0.300      0.000 
     104      0.000      0.000      0.300      0.000 
     105      0.000      0.000      0.300      0.000 
     106      0.000      0.000      0.300      0.000 
     107      0.000      0.000      0.300      0.000 
     108      0.000      0.000      0.300      0.000 
     109      0.000      0.000      0.300      0.000 
     110      0.000      0.000      0.300      0.000 
     111      0.000      0.000      0.300      0.000 
     112      0.000      0.000      0.300      0.000 
     113      0.000      0.000      0.300      0.000 
     114      0.000      0.000      0.300      0.000 
     115      0.000      0.000      0.300      0.000 
     116      0.000      0.000      0.300      0.000 
     117      0.000      0.000      0.300      0.000 
     118      0.000      0.000      0.300      0.000 
     119      0.000      0.000      0.300      0.000 
     120      0.000      0.000      0.300      0.000 
     121      0.000      0.000      0.300      0.000 
     122      0.000      0.000      0.300      0.000 
     123      0.000      0.000      0.300      0.000 
     124      0.000      0.000      0.300      0.000 
     125      0.000      0.000      0.300      0.000 
     126      0.000      0.000      0.300      0.000 
     127      0.000      0.000      0.300      0.000 
     128      0.000      0.000      0.300      0.000 
     129      0.000      0.000      0.300      0.000 
     130      0.000      0.000      0.300      0.000 
     131      0.000      0.000      0.300      0.000 
     132      0.000      0.000      0.300      0.000 
     133      0.000      0.000      0.300      0.000 
     134      0.000      0.000      0.300      0.000 
     135      0.000      0.000      0.300      0.000 
     136      0.000      0.000      0.300      0.000 
     137      0.000      0.000      0.300      0.000 
     138      0.000      0.000      0.300      0.000 
     139      0.000      0.000      0.300      0.000 
     140      0.000      0.000      0.300      0.000 
     141      0.000      0.000      0.300      0.000 
     142      0.000      0.000      0.300      0.000 
     143      0.000      0.000      0.300      0.000 
     144      0.000      0.000      0.300      0.000 

Improper Coeffs 

       1      0.000      -1       2 
       2      0.000      -1       2 
       3      0.000      -1       2 
       4      0.000      -1       2 
       5      0.000      -1       2 
       6      0.000      -1       2 
       7      0.000      -1       2 
       8      0.000      -1       2 
       9      0.000      -1       2 
      10      0.000      -1       2 
      11      0.000      -1       2 
      12      0.000      -1       2 
      13      0.000      -1       2 
      14      0.000      -1       2 
      15      0.000      -1       2 
      16      0.000      -1       2 
      17      0.000      -1       2 
      18      0.000      -1       2 
      19      0.000      -1       2 
      20      0.000      -1       2 
      21      0.000      -1       2 
      22      0.000      -1       2 
      23      0.000      -1       2 
      24      0.000      -1       2 
      25      0.000      -1       2 
      26      0.000      -1       2 
      27      0.000      -1       2 
      28      0.000      -1       2 
      29      0.000      -1       2 
      30      0.000      -1       2 
      31      0.000      -1       2 
      32      0.000      -1       2 
      33      0.000      -1       2 
      34      0.000      -1       2 

Atoms 

     1      1      1 -0.23920000    1.000  1.00000  0.00000
     2      1      2 -0.17920000   -0.520  1.00000  0.00000
     3      1      3 -0.17910000   -1.063  1.00000  1.42513
     4      1      4 -0.17920000   -2.591  0.99820  1.44151
     5      1      5 -0.17980000   -3.106  0.99643  2.87853
     6      1      6 -0.18010000   -4.629  0.99641  2.92095
     7      1      7 -0.17990000   -5.129  0.99644  4.36546
     8      1      8 -0.17380000   -6.658  0.99824  4.39660
     9      1      9 -0.10560000   -7.251  0.99660  5.82060
    10      1     10 -0.23540000   -6.844  2.25334  6.60416
    11      1     11 -0.10650000   -8.801  0.81021  5.81780
    12      1     12 -0.23530000   -9.535  1.94141  5.08074
    13      1     13 -0.17470000   -9.264 -0.54527  5.22882
    14      1     14 -0.17990000   -8.713 -1.76177  5.97603
    15      1     15 -0.17900000   -9.203 -3.06817  5.34850
    16      1     16 -0.17930000   -8.649 -4.27717  6.10205
    17      1     17 -0.23880000   -9.128 -5.58157  5.48660
    18      1     18 0.08070000    1.380  0.99870 -1.02559
    19      1     19 0.08070000    1.389  0.11256  0.51013
    20      1     20 0.08070000    1.389  1.88880  0.50793
    21      1     21 0.08860000   -0.882  0.11664 -0.53816
    22      1     22 0.08860000   -0.880  1.88300 -0.53794
    23      1     23 0.08930000   -0.694  1.88374  1.95949
    24      1     24 0.08930000   -0.692  0.11790  1.96127
    25      1     25 0.08970000   -2.967  0.11550  0.91130
    26      1     26 0.08970000   -2.969  1.88311  0.91421
    27      1     27 0.08930000   -2.723  1.87863  3.40618
    28      1     28 0.08930000   -2.725  0.11314  3.40430
    29      1     29 0.08940000   -5.015  0.11578  2.39220
    30      1     30 0.08940000   -5.011  1.88293  2.39977
    31      1     31 0.08970000   -4.734  1.88005  4.87513
    32      1     32 0.08970000   -4.748  0.11217  4.89100
    33      1     33 0.09040000   -6.997  0.10891  3.85503
    34      1     34 0.09040000   -7.019  1.87041  3.84033
    35      1     35 0.09520000   -6.807  0.15630  6.36694
    36      1     36 0.08090000   -7.127  3.17094  6.07962
    37      1     37 0.08090000   -5.763  2.28350  6.76710
    38      1     38 0.08090000   -7.314  2.26027  7.59321
    39      1     39 0.09420000   -9.136  0.83916  6.86366
    40      1     40 0.08110000   -9.278  1.96554  4.01698
    41      1     41 0.08110000   -9.304  2.91956  5.51189
    42      1     42 0.08110000  -10.619  1.80489  5.15145
    43      1     43 0.08840000   -9.001 -0.60989  4.16688
    44      1     44 0.08840000  -10.361 -0.58560  5.26839
    45      1     45 0.09020000   -9.025 -1.71356  7.02643
    46      1     46 0.09020000   -7.619 -1.76251  5.95749
    47      1     47 0.08920000   -8.881 -3.11092  4.30081
    48      1     48 0.08920000  -10.299 -3.09527  5.35625
    49      1     49 0.08830000   -8.964 -4.23598  7.15150
    50      1     50 0.08830000   -7.553 -4.25540  6.08838
    51      1     51 0.08070000  -10.220 -5.64625  5.50739
    52      1     52 0.08070000   -8.725 -6.43270  6.04440
    53      1     53 0.08070000   -8.797 -5.66778  4.44669

Bonds 

     1      1      2      1
     2      2      3      2
     3      3      4      3
     4      4      5      4
     5      5      6      5
     6      6      7      6
     7      7      8      7
     8      8      9      8
     9      9     10      9
    10     10     11      9
    11     11     12     11
    12     12     13     11
    13     13     14     13
    14     14     15     14
    15     15     16     15
    16     16     17     16
    17     17     18      1
    18     18     19      1
    19     19     20      1
    20     20     21      2
    21     21     22      2
    22     22     23      3
    23     23     24      3
    24     24     25      4
    25     25     26      4
    26     26     27      5
    27     27     28      5
    28     28     29      6
    29     29     30      6
    30     30     31      7
    31     31     32      7
    32     32     33      8
    33     33     34      8
    34     34     35      9
    35     35     36     10
    36     36     37     10
    37     37     38     10
    38     38     39     11
    39     39     40     12
    40     40     41     12
    41     41     42     12
    42     42     43     13
    43     43     44     13
    44     44     45     14
    45     45     46     14
    46     46     47     15
    47     47     48     15
    48     48     49     16
    49     49     50     16
    50     50     51     17
    51     51     52     17
    52     52     53     17

Angles 

     1      1      1      2      3
     2      2      2      3      4
     3      3      3      4      5
     4      4      4      5      6
     5      5      5      6      7
     6      6      6      7      8
     7      7      7      8      9
     8      8      8      9     10
     9      9      8      9     11
    10     10      9     11     12
    11     11      9     11     13
    12     12     11     13     14
    13     13     13     14     15
    14     14     14     15     16
    15     15     15     16     17
    16     16      2      1     18
    17     17      2      1     19
    18     18      2      1     20
    19     19      1      2     21
    20     20      1      2     22
    21     21      2      3     23
    22     22      2      3     24
    23     23      3      4     25
    24     24      3      4     26
    25     25      4      5     27
    26     26      4      5     28
    27     27      5      6     29
    28     28      5      6     30
    29     29      6      7     31
    30     30      6      7     32
    31     31      7      8     33
    32     32      7      8     34
    33     33      8      9     35
    34     34      9     10     36
    35     35      9     10     37
    36     36      9     10     38
    37     37      9     11     39
    38     38     11     12     40
    39     39     11     12     41
    40     40     11     12     42
    41     41     11     13     43
    42     42     11     13     44
    43     43     13     14     45
    44     44     13     14     46
    45     45     14     15     47
    46     46     14     15     48
    47     47     15     16     49
    48     48     15     16     50
    49     49     16     17     51
    50     50     16     17     52
    51     51     16     17     53
    52     52     47     15     48
    53     53     40     12     41
    54     54     25      4     26
    55     55      4      3     23
    56     56     37     10     38
    57     57      4      3     24
    58     58     40     12     42
    59     59     51     17     53
    60     60     17     16     50
    61     61     41     12     42
    62     62     13     11     39
    63     63      5      4     26
    64     64     27      5     28
    65     65     11      9     35
    66     66     18      1     19
    67     67     31      7     32
    68     68     12     11     39
    69     69      8      7     32
    70     70      9      8     34
    71     71      5      4     25
    72     72      8      7     31
    73     73     15     14     46
    74     74     21      2     22
    75     75     45     14     46
    76     76     14     13     43
    77     77      6      5     28
    78     78     51     17     52
    79     79     33      8     34
    80     80     23      3     24
    81     81     16     15     47
    82     82      6      5     27
    83     83     49     16     50
    84     84      7      6     29
    85     85     10      9     35
    86     86     29      6     30
    87     87     18      1     20
    88     88     15     14     45
    89     89     52     17     53
    90     90      9      8     33
    91     91      3      2     21
    92     92      7      6     30
    93     93     16     15     48
    94     94     43     13     44
    95     95      3      2     22
    96     96     36     10     38
    97     97     17     16     49
    98     98     10      9     11
    99     99     12     11     13
   100    100     19      1     20
   101    101     36     10     37
   102    102     14     13     44

Dihedrals

     1      1      4      3      2      1 
     2      2      5      4      3      2 
     3      3      6      5      4      3 
     4      4      7      6      5      4 
     5      5      8      7      6      5 
     6      6      9      8      7      6 
     7      7     10      9      8      7 
     8      8     12     11      9      8 
     9      9     14     13     11      9 
    10     10     15     14     13     11 
    11     11     16     15     14     13 
    12     12     17     16     15     14 
    13     13     18      1      2      3 
    14     14     36     10      9      8 
    15     15     40     12     11      9 
    16     16     51     17     16     15 
    17     17     34      8      7      6 
    18     18     50     16     15     48 
    19     19     31      7      6      5 
    20     20     31      7      8      9 
    21     21     38     10      9      8 
    22     22     29      6      5      4 
    23     23     42     12     11     13 
    24     24     47     15     14     13 
    25     25     26      4      3     23 
    26     26     25      4      3     24 
    27     27     19      1      2      3 
    28     28     48     15     16     17 
    29     29     33      8      7      6 
    30     30     53     17     16     15 
    31     31     38     10      9     11 
    32     32     32      7      6     29 
    33     33     39     11      9     10 
    34     34     25      4      5      6 
    35     35     32      7      8      9 
    36     36     28      5      4      3 
    37     37     23      3      4      5 
    38     38     11      9      8      7 
    39     39     24      3      2     22 
    40     40     34      8      9     11 
    41     41     51     17     16     50 
    42     42     52     17     16     49 
    43     43     37     10      9     11 
    44     44     45     14     13     44 
    45     45     35      9     11     13 
    46     46     49     16     15     14 
    47     47     24      3      2     21 
    48     48     23      3      2     22 
    49     49     45     14     13     11 
    50     50     26      4      3      2 
    51     51     28      5      6      7 
    52     52     33      8      7     32 
    53     53     34      8      7     31 
    54     54     30      6      7      8 
    55     55     51     17     16     49 
    56     56     30      6      5     27 
    57     57     40     12     11     13 
    58     58     39     11     13     14 
    59     59     44     13     11      9 
    60     60     22      2      1     20 
    61     61     46     14     13     43 
    62     62     36     10      9     11 
    63     63     41     12     11      9 
    64     64     21      2      1     18 
    65     65     37     10      9     35 
    66     66     13     11      9      8 
    67     67     32      7      6     30 
    68     68     44     13     14     15 
    69     69     52     17     16     15 
    70     70     35      9      8     33 
    71     71     30      6      5      4 
    72     72     27      5      6      7 
    73     73     42     12     11      9 
    74     74     37     10      9      8 
    75     75     42     12     11     39 
    76     76     23      3      2     21 
    77     77     48     15     14     46 
    78     78     36     10      9     35 
    79     79     24      3      4      5 
    80     80     48     15     14     13 
    81     81     41     12     11     39 
    82     82     49     16     15     47 
    83     83     45     14     15     16 
    84     84     47     15     16     17 
    85     85     21      2      1     20 
    86     86     22      2      1     19 
    87     87     14     13     11     12 
    88     88     35      9      8      7 
    89     89     33      8      7     31 
    90     90     45     14     13     43 
    91     91     29      6      7      8 
    92     92     32      7      6      5 
    93     93     31      7      6     29 
    94     94     25      4      3     23 
    95     95     12     11      9     10 
    96     96     50     16     15     14 
    97     97     13     11      9     10 
    98     98     34      8      9     10 
    99     99     33      8      9     11 
   100    100     30      6      5     28 
   101    101     29      6      5     27 
   102    102     23      3      2      1 
   103    103     53     17     16     50 
   104    104     40     12     11     39 
   105    105     43     13     11      9 
   106    106     34      8      7     32 
   107    107     21      2      3      4 
   108    108     48     15     14     45 
   109    109     35      9      8     34 
   110    110     43     13     11     39 
   111    111     24      3      2      1 
   112    112     47     15     14     46 
   113    113     20      1      2      3 
   114    114     38     10      9     35 
   115    115     28      5      4     26 
   116    116     28      5      4     25 
   117    117     27      5      4     26 
   118    118     27      5      4     25 
   119    119     26      4      5      6 
   120    120     46     14     13     44 
   121    121     44     13     11     12 
   122    122     27      5      4      3 
   123    123     46     14     13     11 
   124    124     22      2      3      4 
   125    125     22      2      1     18 
   126    126     21      2      1     19 
   127    127     29      6      5     28 
   128    128     43     13     11     12 
   129    129     31      7      6     30 
   130    130     47     15     14     45 
   131    131     44     13     11     39 
   132    132     25      4      3      2 
   133    133     52     17     16     50 
   134    134     39     11      9     35 
   135    135     33      8      9     10 
   136    136     39     11      9      8 
   137    137     26      4      3     24 
   138    138     43     13     14     15 
   139    139     35      9     11     12 
   140    140     46     14     15     16 
   141    141     41     12     11     13 
   142    142     50     16     15     47 
   143    143     49     16     15     48 
   144    144     53     17     16     49 

Impropers

     1      1      9     10     11      8 
     2      2     11      9     12     13 
     3      3      1      2     19     18 
     4      4      1      2     20     18 
     5      5      2      1      3     21 
     6      6      2      1      3     22 
     7      7      3      2      4     23 
     8      8      3      2      4     24 
     9      9      4     25      3      5 
    10     10      4     26      3      5 
    11     11      5     27      4      6 
    12     12      5      4     28      6 
    13     13      6      5     29      7 
    14     14      6      5     30      7 
    15     15      7      8     31      6 
    16     16      7      8      6     32 
    17     17      8     33      9      7 
    18     18      8      9     34      7 
    19     19      9     10     35      8 
    20     20     10      9     36     37 
    21     21     10      9     36     38 
    22     22     11      9     12     39 
    23     23     12     41     11     40 
    24     24     12     42     11     40 
    25     25     13     43     11     14 
    26     26     13     11     44     14 
    27     27     14     13     45     15 
    28     28     14     13     46     15 
    29     29     15     16     47     14 
    30     30     15     16     14     48 
    31     31     16     49     17     15 
    32     32     16     17     50     15 
    33     33     17     51     52     16 
    34     34     17     51     53     16 

