LAMMPS data file Created by LigParGen - (Written by Leela S. Dodda)

      27 atoms
      26 bonds
      49 angles
      66 dihedrals
      16 impropers
 
      27 atom types
      26 bond types
      49 angle types
      66 dihedral types
      16 improper types
 
   -5.806140    44.193860 xlo xhi
   -1.175050    48.824950 ylo yhi
   -1.025560    48.974440 zlo zhi

Masses

       1     12.011  
       2     12.011  
       3     12.011  
       4     12.011  
       5     12.011  
       6     12.011  
       7     12.011  
       8     12.011  
       9     35.450  
      10     12.011  
      11     14.007  
      12      1.008  
      13      1.008  
      14      1.008  
      15      1.008  
      16      1.008  
      17      1.008  
      18      1.008  
      19      1.008  
      20      1.008  
      21      1.008  
      22      1.008  
      23      1.008  
      24      1.008  
      25      1.008  
      26      1.008  
      27      1.008  

Pair Coeffs 

       1      0.066  3.5000000 
       2      0.066  3.5000000 
       3      0.066  3.5000000 
       4      0.066  3.5000000 
       5      0.066  3.5000000 
       6      0.066  3.5000000 
       7      0.066  3.5000000 
       8      0.066  3.5000000 
       9      0.300  3.4000000 
      10      0.066  3.3000000 
      11      0.170  3.2000000 
      12      0.030  2.5000000 
      13      0.030  2.5000000 
      14      0.030  2.5000000 
      15      0.030  2.5000000 
      16      0.030  2.5000000 
      17      0.030  2.5000000 
      18      0.030  2.5000000 
      19      0.030  2.5000000 
      20      0.030  2.5000000 
      21      0.030  2.5000000 
      22      0.030  2.5000000 
      23      0.030  2.5000000 
      24      0.030  2.5000000 
      25      0.030  2.5000000 
      26      0.030  2.5000000 
      27      0.030  2.5000000 

Bond Coeffs 

       1   268.0000     1.5290 
       2   268.0000     1.5290 
       3   268.0000     1.5290 
       4   268.0000     1.5290 
       5   268.0000     1.5290 
       6   268.0000     1.5290 
       7   268.0000     1.5290 
       8   245.0000     1.7810 
       9   390.0000     1.4700 
      10   650.0000     1.1570 
      11   340.0000     1.0900 
      12   340.0000     1.0900 
      13   340.0000     1.0900 
      14   340.0000     1.0900 
      15   340.0000     1.0900 
      16   340.0000     1.0900 
      17   340.0000     1.0900 
      18   340.0000     1.0900 
      19   340.0000     1.0900 
      20   340.0000     1.0900 
      21   340.0000     1.0900 
      22   340.0000     1.0900 
      23   340.0000     1.0900 
      24   340.0000     1.0900 
      25   340.0000     1.0900 
      26   340.0000     1.0900 

Angle Coeffs 

       1     58.350    112.700
       2     58.350    112.700
       3     58.350    112.700
       4     58.350    112.700
       5     58.350    112.700
       6     58.350    112.700
       7     69.000    109.800
       8     58.350    112.700
       9    150.000    180.000
      10     37.500    110.700
      11     37.500    110.700
      12     37.500    110.700
      13     37.500    110.700
      14     37.500    110.700
      15     37.500    110.700
      16     37.500    110.700
      17     37.500    110.700
      18     37.500    110.700
      19     37.500    110.700
      20     37.500    110.700
      21     37.500    110.700
      22     37.500    110.700
      23     37.500    110.700
      24     37.500    110.700
      25     37.500    110.700
      26     37.500    110.700
      27     33.000    107.800
      28     33.000    107.800
      29     33.000    107.800
      30     35.000    108.500
      31     51.650    110.580
      32     33.000    107.800
      33     37.500    110.700
      34     33.000    107.800
      35     37.500    110.700
      36     51.000    107.600
      37     58.350    112.700
      38     33.000    107.800
      39     33.000    107.800
      40     37.500    110.700
      41     33.000    107.800
      42     58.350    112.700
      43     33.000    107.800
      44     37.500    110.700
      45     58.350    112.700
      46     37.500    110.700
      47     33.000    107.800
      48     33.000    107.800
      49     33.000    107.800

Dihedral Coeffs  

       1      1.300     -0.200      0.200      0.000 
       2      1.300     -0.200      0.200      0.000 
       3      1.300     -0.200      0.200      0.000 
       4      0.000      0.000      0.400      0.000 
       5      0.000      0.000      0.000      0.000 
       6      0.000      0.000      0.300      0.000 
       7      0.000      0.000      0.300      0.000 
       8      0.000      0.000      0.300      0.000 
       9      0.000      0.000      0.300      0.000 
      10      0.000      0.000      0.300      0.000 
      11      0.000      0.000      0.300      0.000 
      12      0.000      0.000      0.400      0.000 
      13      0.000     -0.650      0.000      0.000 
      14      0.000      0.000      0.300      0.000 
      15      0.000      0.000      0.300      0.000 
      16      0.000      0.000      0.300      0.000 
      17      0.000      0.000      0.300      0.000 
      18      0.000      0.000      0.300      0.000 
      19      0.000      0.000      0.300      0.000 
      20      0.000      0.000      0.300      0.000 
      21      0.000      0.000      0.300      0.000 
      22      0.000      0.000      0.300      0.000 
      23      0.000      0.000      0.300      0.000 
      24      0.000      0.000      0.300      0.000 
      25      0.000      0.000      0.300      0.000 
      26      0.000      0.000      0.000      0.000 
      27      0.000      0.000      0.300      0.000 
      28      0.000      0.000      0.300      0.000 
      29      0.000      0.000      0.300      0.000 
      30      0.000      0.000      0.300      0.000 
      31      1.300     -0.200      0.200      0.000 
      32      0.000      0.000      0.300      0.000 
      33      0.000      0.000      0.300      0.000 
      34      0.000      0.000      0.300      0.000 
      35      0.000      0.000      0.300      0.000 
      36      0.000      0.000      0.300      0.000 
      37      0.000      0.000      0.300      0.000 
      38      0.000      0.000      0.300      0.000 
      39      0.000     -0.650      0.000      0.000 
      40      0.000      0.000      0.000      0.000 
      41      0.000      0.000      0.300      0.000 
      42      0.000      0.000      0.300      0.000 
      43      0.000      0.000      0.300      0.000 
      44      0.000      0.000      0.300      0.000 
      45      0.000      0.000      0.300      0.000 
      46      0.000      0.000      0.300      0.000 
      47      0.000      0.000      0.300      0.000 
      48      0.000      0.000      0.300      0.000 
      49      0.000      0.000      0.300      0.000 
      50      0.000      0.000      0.300      0.000 
      51      0.000      0.000      0.300      0.000 
      52      0.000      0.000      0.300      0.000 
      53      0.000      0.000      0.400      0.000 
      54      0.000      0.000      0.300      0.000 
      55      0.000      0.000      0.300      0.000 
      56      0.000      0.000      0.300      0.000 
      57      0.000      0.000      0.300      0.000 
      58      0.000      0.000      0.300      0.000 
      59      0.000      0.000      0.300      0.000 
      60      0.000      0.000      0.300      0.000 
      61      0.000      0.000      0.300      0.000 
      62      1.300     -0.200      0.200      0.000 
      63      0.000     -0.650      0.000      0.000 
      64      0.000      0.000      0.300      0.000 
      65      0.000      0.000      0.300      0.000 
      66      0.000      0.000      0.300      0.000 

Improper Coeffs 

       1      0.000      -1       2 
       2      0.000      -1       2 
       3      0.000      -1       2 
       4      0.000      -1       2 
       5      0.000      -1       2 
       6      0.000      -1       2 
       7      0.000      -1       2 
       8      0.000      -1       2 
       9      0.000      -1       2 
      10      0.000      -1       2 
      11      0.000      -1       2 
      12      0.000      -1       2 
      13      0.000      -1       2 
      14      0.000      -1       2 
      15      0.000      -1       2 
      16      0.000      -1       2 

Atoms 

     1      1      1 -0.23910000    1.000  1.00000  0.00000
     2      1      2 -0.18030000   -0.521  1.00000  0.00000
     3      1      3 -0.17500000   -1.066  1.00000  1.42942
     4      1      4 -0.17310000   -2.601  1.00180  1.44753
     5      1      5 -0.03890000   -3.255  1.00015  2.86627
     6      1      6 -0.24000000   -2.809 -0.25353  3.65753
     7      1      7 -0.23720000   -2.784  2.23510  3.67146
     8      1      8 0.19450000   -4.822  1.00203  2.77703
     9      1      9 -0.24140000   -5.478  2.47708  1.98527
    10      1     10 0.14940000   -5.373 -0.16520  2.06011
    11      1     11 -0.35200000   -5.806 -1.08479  1.49671
    12      1     12 0.08210000    1.381  1.00130 -1.02556
    13      1     13 0.08210000    1.390  0.11172  0.50763
    14      1     14 0.08210000    1.390  1.88698  0.50987
    15      1     15 0.09180000   -0.882  0.11606 -0.53851
    16      1     16 0.09180000   -0.882  1.88386 -0.53846
    17      1     17 0.09080000   -0.682  1.88395  1.94900
    18      1     18 0.09080000   -0.682  0.11624  1.94992
    19      1     19 0.10190000   -2.945  0.12345  0.88668
    20      1     20 0.10190000   -2.943  1.88047  0.88682
    21      1     21 0.09320000   -1.735 -0.23519  3.87687
    22      1     22 0.09320000   -3.016 -1.17505  3.10500
    23      1     23 0.09320000   -3.327 -0.31188  4.62227
    24      1     24 0.09370000   -1.712  2.19145  3.89080
    25      1     25 0.09370000   -3.301  2.29421  4.63584
    26      1     26 0.09370000   -2.967  3.16872  3.13002
    27      1     27 0.15710000   -5.236  1.01256  3.79205

Bonds 

     1      1      2      1
     2      2      3      2
     3      3      4      3
     4      4      5      4
     5      5      6      5
     6      6      7      5
     7      7      8      5
     8      8      9      8
     9      9     10      8
    10     10     11     10
    11     11     12      1
    12     12     13      1
    13     13     14      1
    14     14     15      2
    15     15     16      2
    16     16     17      3
    17     17     18      3
    18     18     19      4
    19     19     20      4
    20     20     21      6
    21     21     22      6
    22     22     23      6
    23     23     24      7
    24     24     25      7
    25     25     26      7
    26     26     27      8

Angles 

     1      1      1      2      3
     2      2      2      3      4
     3      3      3      4      5
     4      4      4      5      6
     5      5      4      5      7
     6      6      4      5      8
     7      7      5      8      9
     8      8      5      8     10
     9      9      8     10     11
    10     10      2      1     12
    11     11      2      1     13
    12     12      2      1     14
    13     13      1      2     15
    14     14      1      2     16
    15     15      2      3     17
    16     16      2      3     18
    17     17      3      4     19
    18     18      3      4     20
    19     19      5      6     21
    20     20      5      6     22
    21     21      5      6     23
    22     22      5      7     24
    23     23      5      7     25
    24     24      5      7     26
    25     25      5      8     27
    26     26      3      2     15
    27     27     13      1     14
    28     28     15      2     16
    29     29     21      6     22
    30     30     10      8     27
    31     31      9      8     10
    32     32     19      4     20
    33     33      3      2     16
    34     34     12      1     14
    35     35      4      3     18
    36     36      9      8     27
    37     37      6      5      7
    38     38     12      1     13
    39     39     22      6     23
    40     40      5      4     19
    41     41     25      7     26
    42     42      6      5      8
    43     43     24      7     26
    44     44      5      4     20
    45     45      7      5      8
    46     46      4      3     17
    47     47     17      3     18
    48     48     24      7     25
    49     49     21      6     23

Dihedrals

     1      1      4      3      2      1 
     2      2      5      4      3      2 
     3      3      6      5      4      3 
     4      4      9      8      5      4 
     5      5     11     10      8      5 
     6      6     12      1      2      3 
     7      7     21      6      5      4 
     8      8     24      7      5      4 
     9      9     16      2      3      4 
    10     10     13      1      2      3 
    11     11     18      3      2      1 
    12     12      9      8      5      6 
    13     13     10      8      5      6 
    14     14     27      8      5      6 
    15     15     15      2      1     12 
    16     16     26      7      5      4 
    17     17     21      6      5      8 
    18     18     16      2      1     14 
    19     19     19      4      5      7 
    20     20     20      4      5      6 
    21     21     25      7      5      6 
    22     22     15      2      3      4 
    23     23     27      8      5      7 
    24     24     18      3      4      5 
    25     25     25      7      5      8 
    26     26     27      8     10     11 
    27     27     18      3      2     15 
    28     28     19      4      5      8 
    29     29     19      4      3      2 
    30     30     20      4      3     17 
    31     31      7      5      4      3 
    32     32     22      6      5      4 
    33     33     16      2      1     13 
    34     34     15      2      1     14 
    35     35     20      4      3     18 
    36     36     23      6      5      8 
    37     37     20      4      5      7 
    38     38     19      4      3     18 
    39     39     10      8      5      4 
    40     40     11     10      8      9 
    41     41     22      6      5      7 
    42     42     23      6      5      4 
    43     43     17      3      2     15 
    44     44     17      3      4      5 
    45     45     20      4      3      2 
    46     46     17      3      2      1 
    47     47     19      4      5      6 
    48     48     14      1      2      3 
    49     49     19      4      3     17 
    50     50     24      7      5      8 
    51     51     26      7      5      8 
    52     52     20      4      5      8 
    53     53      9      8      5      7 
    54     54     24      7      5      6 
    55     55     25      7      5      4 
    56     56     18      3      2     16 
    57     57     22      6      5      8 
    58     58     23      6      5      7 
    59     59     17      3      2     16 
    60     60     27      8      5      4 
    61     61     21      6      5      7 
    62     62      8      5      4      3 
    63     63     10      8      5      7 
    64     64     26      7      5      6 
    65     65     15      2      1     13 
    66     66     16      2      1     12 

Impropers

     1      1      5      4      6      7 
     2      2      5      4      6      8 
     3      3      8      9     10      5 
     4      4      1      2     12     13 
     5      5      1      2     12     14 
     6      6      2      1      3     15 
     7      7      2      1      3     16 
     8      8      3     17      2      4 
     9      9      3     18      4      2 
    10     10      4     19      5      3 
    11     11      4      3     20      5 
    12     12      6     21      5     22 
    13     13      6     21      5     23 
    14     14      7     25      5     24 
    15     15      7     26      5     24 
    16     16      8      9     27      5 

