LAMMPS data file Created by LigParGen - (Written by Leela S. Dodda)

      51 atoms
      51 bonds
     102 angles
     153 dihedrals
      34 impropers
 
      51 atom types
      51 bond types
     102 angle types
     153 dihedral types
      34 improper types
 
   -5.911830    44.088170 xlo xhi
   -1.372680    48.627320 ylo yhi
   -1.023000    48.977000 zlo zhi

Masses

       1     12.011  
       2     12.011  
       3     12.011  
       4     12.011  
       5     12.011  
       6     12.011  
       7     12.011  
       8     12.011  
       9     12.011  
      10     12.011  
      11     12.011  
      12     12.011  
      13     12.011  
      14     12.011  
      15     12.011  
      16     12.011  
      17     12.011  
      18      1.008  
      19      1.008  
      20      1.008  
      21      1.008  
      22      1.008  
      23      1.008  
      24      1.008  
      25      1.008  
      26      1.008  
      27      1.008  
      28      1.008  
      29      1.008  
      30      1.008  
      31      1.008  
      32      1.008  
      33      1.008  
      34      1.008  
      35      1.008  
      36      1.008  
      37      1.008  
      38      1.008  
      39      1.008  
      40      1.008  
      41      1.008  
      42      1.008  
      43      1.008  
      44      1.008  
      45      1.008  
      46      1.008  
      47      1.008  
      48      1.008  
      49      1.008  
      50      1.008  
      51      1.008  

Pair Coeffs 

       1      0.066  3.5000000 
       2      0.066  3.5000000 
       3      0.066  3.5000000 
       4      0.066  3.5000000 
       5      0.066  3.5000000 
       6      0.066  3.5000000 
       7      0.066  3.5000000 
       8      0.066  3.5000000 
       9      0.066  3.5000000 
      10      0.066  3.5000000 
      11      0.066  3.5000000 
      12      0.066  3.5000000 
      13      0.066  3.5000000 
      14      0.066  3.5000000 
      15      0.066  3.5000000 
      16      0.066  3.5000000 
      17      0.066  3.5000000 
      18      0.030  2.5000000 
      19      0.030  2.5000000 
      20      0.030  2.5000000 
      21      0.030  2.5000000 
      22      0.030  2.5000000 
      23      0.030  2.5000000 
      24      0.030  2.5000000 
      25      0.030  2.5000000 
      26      0.030  2.5000000 
      27      0.030  2.5000000 
      28      0.030  2.5000000 
      29      0.030  2.5000000 
      30      0.030  2.5000000 
      31      0.030  2.5000000 
      32      0.030  2.5000000 
      33      0.030  2.5000000 
      34      0.030  2.5000000 
      35      0.030  2.5000000 
      36      0.030  2.5000000 
      37      0.030  2.5000000 
      38      0.030  2.5000000 
      39      0.030  2.5000000 
      40      0.030  2.5000000 
      41      0.030  2.5000000 
      42      0.030  2.5000000 
      43      0.030  2.5000000 
      44      0.030  2.5000000 
      45      0.030  2.5000000 
      46      0.030  2.5000000 
      47      0.030  2.5000000 
      48      0.030  2.5000000 
      49      0.030  2.5000000 
      50      0.030  2.5000000 
      51      0.030  2.5000000 

Bond Coeffs 

       1   268.0000     1.5290 
       2   268.0000     1.5290 
       3   268.0000     1.5290 
       4   268.0000     1.5290 
       5   268.0000     1.5290 
       6   268.0000     1.5290 
       7   268.0000     1.5290 
       8   268.0000     1.5290 
       9   268.0000     1.5290 
      10   268.0000     1.5290 
      11   268.0000     1.5290 
      12   268.0000     1.5290 
      13   268.0000     1.5290 
      14   268.0000     1.5290 
      15   268.0000     1.5290 
      16   268.0000     1.5290 
      17   340.0000     1.0900 
      18   340.0000     1.0900 
      19   340.0000     1.0900 
      20   340.0000     1.0900 
      21   340.0000     1.0900 
      22   340.0000     1.0900 
      23   340.0000     1.0900 
      24   340.0000     1.0900 
      25   340.0000     1.0900 
      26   340.0000     1.0900 
      27   340.0000     1.0900 
      28   340.0000     1.0900 
      29   340.0000     1.0900 
      30   340.0000     1.0900 
      31   340.0000     1.0900 
      32   340.0000     1.0900 
      33   340.0000     1.0900 
      34   340.0000     1.0900 
      35   340.0000     1.0900 
      36   340.0000     1.0900 
      37   340.0000     1.0900 
      38   340.0000     1.0900 
      39   340.0000     1.0900 
      40   340.0000     1.0900 
      41   340.0000     1.0900 
      42   340.0000     1.0900 
      43   340.0000     1.0900 
      44   340.0000     1.0900 
      45   340.0000     1.0900 
      46   340.0000     1.0900 
      47   340.0000     1.0900 
      48   340.0000     1.0900 
      49   340.0000     1.0900 
      50   340.0000     1.0900 
      51   268.0000     1.5290 

Angle Coeffs 

       1     58.350    112.700
       2     58.350    112.700
       3     58.350    112.700
       4     58.350    112.700
       5     58.350    112.700
       6     58.350    112.700
       7     58.350    112.700
       8     58.350    112.700
       9     58.350    112.700
      10     58.350    112.700
      11     58.350    112.700
      12     58.350    112.700
      13     58.350    112.700
      14     58.350    112.700
      15     58.350    112.700
      16     37.500    110.700
      17     37.500    110.700
      18     37.500    110.700
      19     37.500    110.700
      20     37.500    110.700
      21     37.500    110.700
      22     37.500    110.700
      23     37.500    110.700
      24     37.500    110.700
      25     37.500    110.700
      26     37.500    110.700
      27     37.500    110.700
      28     37.500    110.700
      29     37.500    110.700
      30     37.500    110.700
      31     37.500    110.700
      32     37.500    110.700
      33     37.500    110.700
      34     37.500    110.700
      35     37.500    110.700
      36     37.500    110.700
      37     37.500    110.700
      38     37.500    110.700
      39     37.500    110.700
      40     37.500    110.700
      41     37.500    110.700
      42     37.500    110.700
      43     37.500    110.700
      44     37.500    110.700
      45     37.500    110.700
      46     37.500    110.700
      47     37.500    110.700
      48     37.500    110.700
      49     37.500    110.700
      50     33.000    107.800
      51     33.000    107.800
      52     33.000    107.800
      53     33.000    107.800
      54     37.500    110.700
      55     37.500    110.700
      56     37.500    110.700
      57     37.500    110.700
      58     33.000    107.800
      59     37.500    110.700
      60     37.500    110.700
      61     58.350    112.700
      62     33.000    107.800
      63     58.350    112.700
      64     58.350    112.700
      65     37.500    110.700
      66     33.000    107.800
      67     33.000    107.800
      68     58.350    112.700
      69     37.500    110.700
      70     33.000    107.800
      71     33.000    107.800
      72     37.500    110.700
      73     33.000    107.800
      74     58.350    112.700
      75     33.000    107.800
      76     37.500    110.700
      77     33.000    107.800
      78     33.000    107.800
      79     33.000    107.800
      80     37.500    110.700
      81     37.500    110.700
      82     33.000    107.800
      83     33.000    107.800
      84     37.500    110.700
      85     37.500    110.700
      86     37.500    110.700
      87     33.000    107.800
      88     33.000    107.800
      89     58.350    112.700
      90     37.500    110.700
      91     37.500    110.700
      92     33.000    107.800
      93     37.500    110.700
      94     37.500    110.700
      95     37.500    110.700
      96     37.500    110.700
      97     37.500    110.700
      98     37.500    110.700
      99     58.350    112.700
     100     33.000    107.800
     101     33.000    107.800
     102     37.500    110.700

Dihedral Coeffs  

       1      1.300     -0.200      0.200      0.000 
       2      1.300     -0.200      0.200      0.000 
       3      1.300     -0.200      0.200      0.000 
       4      1.300     -0.200      0.200      0.000 
       5      1.300     -0.200      0.200      0.000 
       6      1.300     -0.200      0.200      0.000 
       7      1.300     -0.200      0.200      0.000 
       8      1.300     -0.200      0.200      0.000 
       9      1.300     -0.200      0.200      0.000 
      10      0.000      0.000      0.300      0.000 
      11      0.000      0.000      0.300      0.000 
      12      0.000      0.000      0.300      0.000 
      13      0.000      0.000      0.300      0.000 
      14      0.000      0.000      0.300      0.000 
      15      0.000      0.000      0.300      0.000 
      16      0.000      0.000      0.300      0.000 
      17      0.000      0.000      0.300      0.000 
      18      0.000      0.000      0.300      0.000 
      19      0.000      0.000      0.300      0.000 
      20      0.000      0.000      0.300      0.000 
      21      0.000      0.000      0.300      0.000 
      22      0.000      0.000      0.300      0.000 
      23      0.000      0.000      0.300      0.000 
      24      0.000      0.000      0.300      0.000 
      25      0.000      0.000      0.300      0.000 
      26      0.000      0.000      0.300      0.000 
      27      0.000      0.000      0.300      0.000 
      28      0.000      0.000      0.300      0.000 
      29      0.000      0.000      0.300      0.000 
      30      0.000      0.000      0.300      0.000 
      31      0.000      0.000      0.300      0.000 
      32      1.300     -0.200      0.200      0.000 
      33      0.000      0.000      0.300      0.000 
      34      0.000      0.000      0.300      0.000 
      35      0.000      0.000      0.300      0.000 
      36      0.000      0.000      0.300      0.000 
      37      0.000      0.000      0.300      0.000 
      38      1.300     -0.200      0.200      0.000 
      39      0.000      0.000      0.300      0.000 
      40      0.000      0.000      0.300      0.000 
      41      0.000      0.000      0.300      0.000 
      42      0.000      0.000      0.300      0.000 
      43      1.300     -0.200      0.200      0.000 
      44      0.000      0.000      0.300      0.000 
      45      0.000      0.000      0.300      0.000 
      46      0.000      0.000      0.300      0.000 
      47      0.000      0.000      0.300      0.000 
      48      0.000      0.000      0.300      0.000 
      49      0.000      0.000      0.300      0.000 
      50      0.000      0.000      0.300      0.000 
      51      0.000      0.000      0.300      0.000 
      52      0.000      0.000      0.300      0.000 
      53      0.000      0.000      0.300      0.000 
      54      0.000      0.000      0.300      0.000 
      55      0.000      0.000      0.300      0.000 
      56      1.300     -0.200      0.200      0.000 
      57      0.000      0.000      0.300      0.000 
      58      1.300     -0.200      0.200      0.000 
      59      1.300     -0.200      0.200      0.000 
      60      0.000      0.000      0.300      0.000 
      61      0.000      0.000      0.300      0.000 
      62      1.300     -0.200      0.200      0.000 
      63      0.000      0.000      0.300      0.000 
      64      0.000      0.000      0.300      0.000 
      65      0.000      0.000      0.300      0.000 
      66      0.000      0.000      0.300      0.000 
      67      0.000      0.000      0.300      0.000 
      68      0.000      0.000      0.300      0.000 
      69      0.000      0.000      0.300      0.000 
      70      0.000      0.000      0.300      0.000 
      71      0.000      0.000      0.300      0.000 
      72      0.000      0.000      0.300      0.000 
      73      0.000      0.000      0.300      0.000 
      74      0.000      0.000      0.300      0.000 
      75      1.300     -0.200      0.200      0.000 
      76      0.000      0.000      0.300      0.000 
      77      0.000      0.000      0.300      0.000 
      78      0.000      0.000      0.300      0.000 
      79      1.300     -0.200      0.200      0.000 
      80      1.300     -0.200      0.200      0.000 
      81      0.000      0.000      0.300      0.000 
      82      0.000      0.000      0.300      0.000 
      83      0.000      0.000      0.300      0.000 
      84      0.000      0.000      0.300      0.000 
      85      0.000      0.000      0.300      0.000 
      86      0.000      0.000      0.300      0.000 
      87      0.000      0.000      0.300      0.000 
      88      0.000      0.000      0.300      0.000 
      89      0.000      0.000      0.300      0.000 
      90      0.000      0.000      0.300      0.000 
      91      0.000      0.000      0.300      0.000 
      92      0.000      0.000      0.300      0.000 
      93      0.000      0.000      0.300      0.000 
      94      0.000      0.000      0.300      0.000 
      95      1.300     -0.200      0.200      0.000 
      96      0.000      0.000      0.300      0.000 
      97      0.000      0.000      0.300      0.000 
      98      0.000      0.000      0.300      0.000 
      99      1.300     -0.200      0.200      0.000 
     100      1.300     -0.200      0.200      0.000 
     101      0.000      0.000      0.300      0.000 
     102      1.300     -0.200      0.200      0.000 
     103      0.000      0.000      0.300      0.000 
     104      0.000      0.000      0.300      0.000 
     105      0.000      0.000      0.300      0.000 
     106      0.000      0.000      0.300      0.000 
     107      0.000      0.000      0.300      0.000 
     108      0.000      0.000      0.300      0.000 
     109      0.000      0.000      0.300      0.000 
     110      0.000      0.000      0.300      0.000 
     111      0.000      0.000      0.300      0.000 
     112      0.000      0.000      0.300      0.000 
     113      0.000      0.000      0.300      0.000 
     114      0.000      0.000      0.300      0.000 
     115      0.000      0.000      0.300      0.000 
     116      0.000      0.000      0.300      0.000 
     117      0.000      0.000      0.300      0.000 
     118      0.000      0.000      0.300      0.000 
     119      0.000      0.000      0.300      0.000 
     120      0.000      0.000      0.300      0.000 
     121      0.000      0.000      0.300      0.000 
     122      0.000      0.000      0.300      0.000 
     123      0.000      0.000      0.300      0.000 
     124      0.000      0.000      0.300      0.000 
     125      0.000      0.000      0.300      0.000 
     126      0.000      0.000      0.300      0.000 
     127      0.000      0.000      0.300      0.000 
     128      0.000      0.000      0.300      0.000 
     129      0.000      0.000      0.300      0.000 
     130      0.000      0.000      0.300      0.000 
     131      0.000      0.000      0.300      0.000 
     132      1.300     -0.200      0.200      0.000 
     133      1.300     -0.200      0.200      0.000 
     134      0.000      0.000      0.300      0.000 
     135      0.000      0.000      0.300      0.000 
     136      0.000      0.000      0.300      0.000 
     137      0.000      0.000      0.300      0.000 
     138      0.000      0.000      0.300      0.000 
     139      0.000      0.000      0.300      0.000 
     140      0.000      0.000      0.300      0.000 
     141      0.000      0.000      0.300      0.000 
     142      0.000      0.000      0.300      0.000 
     143      0.000      0.000      0.300      0.000 
     144      0.000      0.000      0.300      0.000 
     145      0.000      0.000      0.300      0.000 
     146      0.000      0.000      0.300      0.000 
     147      0.000      0.000      0.300      0.000 
     148      0.000      0.000      0.300      0.000 
     149      0.000      0.000      0.300      0.000 
     150      1.300     -0.200      0.200      0.000 
     151      0.000      0.000      0.300      0.000 
     152      0.000      0.000      0.300      0.000 
     153      0.000      0.000      0.300      0.000 

Improper Coeffs 

       1      0.000      -1       2 
       2      0.000      -1       2 
       3      0.000      -1       2 
       4      0.000      -1       2 
       5      0.000      -1       2 
       6      0.000      -1       2 
       7      0.000      -1       2 
       8      0.000      -1       2 
       9      0.000      -1       2 
      10      0.000      -1       2 
      11      0.000      -1       2 
      12      0.000      -1       2 
      13      0.000      -1       2 
      14      0.000      -1       2 
      15      0.000      -1       2 
      16      0.000      -1       2 
      17      0.000      -1       2 
      18      0.000      -1       2 
      19      0.000      -1       2 
      20      0.000      -1       2 
      21      0.000      -1       2 
      22      0.000      -1       2 
      23      0.000      -1       2 
      24      0.000      -1       2 
      25      0.000      -1       2 
      26      0.000      -1       2 
      27      0.000      -1       2 
      28      0.000      -1       2 
      29      0.000      -1       2 
      30      0.000      -1       2 
      31      0.000      -1       2 
      32      0.000      -1       2 
      33      0.000      -1       2 
      34      0.000      -1       2 

Atoms 

     1      1      1 -0.24170000    1.000  1.00000  0.00000
     2      1      2 -0.18020000   -0.523  1.00000  0.00000
     3      1      3 -0.17260000   -1.071  1.00000  1.43240
     4      1      4 -0.09000000   -2.615  1.10775  1.64515
     5      1      5 -0.10960000   -3.458 -0.13037  1.11957
     6      1      6 -0.24070000   -4.981  0.08298  1.23833
     7      1      7 -0.23490000   -3.236 -0.51947 -0.34727
     8      1      8 -0.09920000   -2.910  1.37613  3.20868
     9      1      9 -0.16230000   -2.218  0.29672  4.08061
    10      1     10 -0.15890000   -2.633  0.05858  5.53665
    11      1     11 -0.10110000   -4.113  0.07832  5.94421
    12      1     12 -0.23000000   -5.069 -0.58107  4.95495
    13      1     13 -0.16700000   -4.617  1.44981  6.43557
    14      1     14 -0.16530000   -4.522  2.65086  5.48924
    15      1     15 -0.16670000   -3.089  3.09536  5.16262
    16      1     16 -0.10150000   -2.613  2.82761  3.71200
    17      1     17 -0.23730000   -3.229  3.90621  2.79984
    18      1     18 0.07970000    1.377  0.86856 -1.02300
    19      1     19 0.07970000    1.395  0.17024  0.60196
    20      1     20 0.07970000    1.399  1.93473  0.39475
    21      1     21 0.08980000   -0.814  0.10064 -0.53503
    22      1     22 0.08980000   -0.896  1.86258 -0.55817
    23      1     23 0.08770000   -0.603  1.85030  1.94270
    24      1     24 0.08770000   -0.701  0.09293  1.92541
    25      1     25 0.09810000   -2.966  1.97171  1.06917
    26      1     26 0.09410000   -3.202 -1.00764  1.72214
    27      1     27 0.08020000   -5.323  0.85948  0.54867
    28      1     28 0.08020000   -5.314  0.36092  2.23142
    29      1     29 0.08020000   -5.511 -0.84623  0.99505
    30      1     30 0.08090000   -3.202  0.36074 -0.99569
    31      1     31 0.08090000   -4.044 -1.16388 -0.71333
    32      1     32 0.08090000   -2.329 -1.11611 -0.46618
    33      1     33 0.10330000   -3.980  1.25919  3.32298
    34      1     34 0.08260000   -1.139  0.50495  4.09955
    35      1     35 0.08260000   -2.314 -0.67308  3.58058
    36      1     36 0.07940000   -2.055  0.70675  6.20421
    37      1     37 0.07940000   -2.256 -0.94667  5.78150
    38      1     38 0.08010000   -4.155 -0.56398  6.83790
    39      1     39 0.08130000   -5.511  0.14570  4.27326
    40      1     40 0.08130000   -5.912 -1.03306  5.49032
    41      1     41 0.08130000   -4.583 -1.37268  4.37733
    42      1     42 0.08230000   -4.084  1.69937  7.36147
    43      1     43 0.08230000   -5.671  1.33541  6.72657
    44      1     44 0.08570000   -5.009  3.48697  6.00995
    45      1     45 0.08570000   -5.125  2.49187  4.59058
    46      1     46 0.08470000   -2.375  2.67860  5.87687
    47      1     47 0.08470000   -3.028  4.17680  5.35006
    48      1     48 0.09150000   -1.526  2.98758  3.70749
    49      1     49 0.08030000   -4.274  3.68354  2.55581
    50      1     50 0.08030000   -2.663  3.99593  1.86795
    51      1     51 0.08030000   -3.199  4.89208  3.27402

Bonds 

     1      1      2      1
     2      2      3      2
     3      3      4      3
     4      4      5      4
     5      5      6      5
     6      6      7      5
     7      7      8      4
     8      8      9      8
     9      9     10      9
    10     10     11     10
    11     11     12     11
    12     12     13     11
    13     13     14     13
    14     14     15     14
    15     15     16      8
    16     16     17     16
    17     17     18      1
    18     18     19      1
    19     19     20      1
    20     20     21      2
    21     21     22      2
    22     22     23      3
    23     23     24      3
    24     24     25      4
    25     25     26      5
    26     26     27      6
    27     27     28      6
    28     28     29      6
    29     29     30      7
    30     30     31      7
    31     31     32      7
    32     32     33      8
    33     33     34      9
    34     34     35      9
    35     35     36     10
    36     36     37     10
    37     37     38     11
    38     38     39     12
    39     39     40     12
    40     40     41     12
    41     41     42     13
    42     42     43     13
    43     43     44     14
    44     44     45     14
    45     45     46     15
    46     46     47     15
    47     47     48     16
    48     48     49     17
    49     49     50     17
    50     50     51     17
    51     51     16     15

Angles 

     1      1      1      2      3
     2      2      2      3      4
     3      3      3      4      5
     4      4      4      5      6
     5      5      4      5      7
     6      6      3      4      8
     7      7      4      8      9
     8      8      8      9     10
     9      9      9     10     11
    10     10     10     11     12
    11     11     10     11     13
    12     12     11     13     14
    13     13     13     14     15
    14     14      4      8     16
    15     15      8     16     17
    16     16      2      1     18
    17     17      2      1     19
    18     18      2      1     20
    19     19      1      2     21
    20     20      1      2     22
    21     21      2      3     23
    22     22      2      3     24
    23     23      3      4     25
    24     24      4      5     26
    25     25      5      6     27
    26     26      5      6     28
    27     27      5      6     29
    28     28      5      7     30
    29     29      5      7     31
    30     30      5      7     32
    31     31      4      8     33
    32     32      8      9     34
    33     33      8      9     35
    34     34      9     10     36
    35     35      9     10     37
    36     36     10     11     38
    37     37     11     12     39
    38     38     11     12     40
    39     39     11     12     41
    40     40     11     13     42
    41     41     11     13     43
    42     42     13     14     44
    43     43     13     14     45
    44     44     14     15     46
    45     45     14     15     47
    46     46      8     16     48
    47     47     16     17     49
    48     48     16     17     50
    49     49     16     17     51
    50     50     42     13     43
    51     51     40     12     41
    52     52     39     12     40
    53     53     27      6     29
    54     54      4      3     23
    55     55     11     10     36
    56     56      4      3     24
    57     57      6      5     26
    58     58     30      7     32
    59     59     12     11     38
    60     60     16     15     46
    61     61      9      8     16
    62     62     44     14     45
    63     63      8     16     15
    64     64      5      4      8
    65     65     14     13     42
    66     66     18      1     19
    67     67     31      7     32
    68     68      6      5      7
    69     69      5      4     25
    70     70     21      2     22
    71     71     49     17     50
    72     72      7      5     26
    73     73     46     15     47
    74     74     15     16     17
    75     75     39     12     41
    76     76     14     13     43
    77     77     30      7     31
    78     78     28      6     29
    79     79     27      6     28
    80     80      8      4     25
    81     81     13     11     38
    82     82     49     17     51
    83     83     23      3     24
    84     84     16     15     47
    85     85     17     16     48
    86     86     15     14     44
    87     87     50     17     51
    88     88     18      1     20
    89     89     14     15     16
    90     90     16      8     33
    91     91     15     14     45
    92     92     34      9     35
    93     93      9      8     33
    94     94      3      2     21
    95     95     10      9     34
    96     96      3      2     22
    97     97     11     10     37
    98     98     10      9     35
    99     99     12     11     13
   100    100     19      1     20
   101    101     36     10     37
   102    102     15     16     48

Dihedrals

     1      1      4      3      2      1 
     2      2      5      4      3      2 
     3      3      6      5      4      3 
     4      4      9      8      4      3 
     5      5     10      9      8      4 
     6      6     11     10      9      8 
     7      7     12     11     10      9 
     8      8     14     13     11     10 
     9      9     15     14     13     11 
    10     10     18      1      2      3 
    11     11     27      6      5      4 
    12     12     30      7      5      4 
    13     13     39     12     11     10 
    14     14     49     17     16      8 
    15     15     24      3      4      8 
    16     16     38     11     10      9 
    17     17     35      9     10     11 
    18     18     51     17     16      8 
    19     19     42     13     11     38 
    20     20     48     16      8     33 
    21     21     47     15     14     13 
    22     22     31      7      5      6 
    23     23     25      4      3     24 
    24     24     47     15     14     44 
    25     25     46     15     14     45 
    26     26     51     17     16     15 
    27     27     49     17     16     48 
    28     28     34      9     10     11 
    29     29     19      1      2      3 
    30     30     38     11     10     36 
    31     31     40     12     11     38 
    32     32     15     16      8      4 
    33     33     43     13     11     38 
    34     34     28      6      5      4 
    35     35     50     17     16     48 
    36     36     47     15     14     45 
    37     37     25      4      5      6 
    38     38      9      8      4      5 
    39     39     23      3      4      5 
    40     40     24      3      2     22 
    41     41     50     17     16      8 
    42     42     38     11     10     37 
    43     43      8      4      5      7 
    44     44     33      8      4      3 
    45     45     33      8      4     25 
    46     46     46     15     14     13 
    47     47     46     15     16     17 
    48     48     24      3      2     21 
    49     49     23      3      2     22 
    50     50     31      7      5     26 
    51     51     49     17     16     15 
    52     52     45     14     13     11 
    53     53     44     14     15     16 
    54     54     48     16     15     47 
    55     55     28      6      5      7 
    56     56     17     16     15     14 
    57     57     21      2      1     19 
    58     58     13     11     10      9 
    59     59      8      4      5      6 
    60     60     34      9      8     33 
    61     61     40     12     11     13 
    62     62     17     16      8      9 
    63     63     43     13     11     10 
    64     64     45     14     13     43 
    65     65     22      2      1     20 
    66     66     21      2      1     20 
    67     67     21      2      1     18 
    68     68     40     12     11     10 
    69     69     33      8     16     17 
    70     70     37     10      9     35 
    71     71     31      7      5      4 
    72     72     38     11     13     14 
    73     73     22      2      1     18 
    74     74     35      9      8     33 
    75     75     16      8      4      5 
    76     76     26      5      4      3 
    77     77     32      7      5     26 
    78     78     41     12     11     10 
    79     79     16      8      9     10 
    80     80     15     16      8      9 
    81     81     27      6      5      7 
    82     82     36     10     11     12 
    83     83     37     10      9      8 
    84     84     47     15     16      8 
    85     85     32      7      5      6 
    86     86     37     10      9     34 
    87     87     36     10      9     35 
    88     88     24      3      4      5 
    89     89     48     16     15     14 
    90     90     25      4      8      9 
    91     91     23      3      4      8 
    92     92     48     16      8      9 
    93     93     45     14     15     16 
    94     94     47     15     16     17 
    95     95      8      4      3      2 
    96     96     22      2      1     19 
    97     97     26      5      4      8 
    98     98     30      7      5     26 
    99     99     14     13     11     12 
   100    100     14     15     16      8 
   101    101     39     12     11     13 
   102    102     17     16      8      4 
   103    103     51     17     16     48 
   104    104     44     14     13     43 
   105    105     36     10      9      8 
   106    106     48     16     15     46 
   107    107     29      6      5      7 
   108    108     48     16      8      4 
   109    109     39     12     11     38 
   110    110     25      4      3     23 
   111    111     36     10      9     34 
   112    112     44     14     13     42 
   113    113     34      9      8     16 
   114    114     50     17     16     15 
   115    115     35      9      8      4 
   116    116     23      3      2      1 
   117    117     25      4      8     16 
   118    118     44     14     13     11 
   119    119     41     12     11     38 
   120    120     23      3      2     21 
   121    121     42     13     11     10 
   122    122     21      2      3      4 
   123    123     28      6      5     26 
   124    124     24      3      2      1 
   125    125     33      8     16     15 
   126    126     27      6      5     26 
   127    127     20      1      2      3 
   128    128     46     15     16      8 
   129    129     25      4      5      7 
   130    130     29      6      5      4 
   131    131     32      7      5      4 
   132    132      7      5      4      3 
   133    133     16     15     14     13 
   134    134     42     13     11     12 
   135    135     22      2      3      4 
   136    136     37     10     11     12 
   137    137     34      9      8      4 
   138    138     36     10     11     13 
   139    139     43     13     11     12 
   140    140     29      6      5     26 
   141    141     42     13     14     15 
   142    142     35      9      8     16 
   143    143     30      7      5      6 
   144    144     25      4      3      2 
   145    145     46     15     14     44 
   146    146     33      8      9     10 
   147    147     45     14     13     42 
   148    148     26      5      4     25 
   149    149     43     13     14     15 
   150    150     16      8      4      3 
   151    151     37     10     11     13 
   152    152     33      8      4      5 
   153    153     41     12     11     13 

Impropers

     1      1      5      4      6      7 
     2      2      4      3      5      8 
     3      3     11     10     12     13 
     4      4      8      4      9     16 
     5      5     16     17      8     15 
     6      6      1      2     19     18 
     7      7      1      2     20     18 
     8      8      2      1      3     21 
     9      9      2      1      3     22 
    10     10      3      2      4     23 
    11     11      3      2      4     24 
    12     12      4     25      3      5 
    13     13      5     26      4      6 
    14     14      6     27     28      5 
    15     15      6      5     27     29 
    16     16      7      5     31     30 
    17     17      7      5     30     32 
    18     18      8     33      9      4 
    19     19      9     34     10      8 
    20     20      9     10     35      8 
    21     21     10      9     11     36 
    22     22     10      9     11     37 
    23     23     11     10     12     38 
    24     24     12     11     39     40 
    25     25     12     41     11     39 
    26     26     13     42     11     14 
    27     27     13     43     11     14 
    28     28     14     44     13     15 
    29     29     14     13     45     15 
    30     30     15     16     46     14 
    31     31     15     16     47     14 
    32     32     16      8     15     48 
    33     33     17     50     49     16 
    34     34     17     49     51     16 

