LAMMPS data file Created by LigParGen - (Written by Leela S. Dodda)

      37 atoms
      37 bonds
      73 angles
     103 dihedrals
      26 impropers
 
      37 atom types
      37 bond types
      73 angle types
     103 dihedral types
      26 improper types
 
   -6.015930    43.984070 xlo xhi
   -2.489630    47.510370 ylo yhi
   -1.023890    48.976110 zlo zhi

Masses

       1     12.011  
       2     12.011  
       3     12.011  
       4     12.011  
       5     12.011  
       6     12.011  
       7     14.007  
       8     32.060  
       9     15.999  
      10     15.999  
      11     12.011  
      12     12.011  
      13     12.011  
      14     12.011  
      15     12.011  
      16     12.011  
      17      1.008  
      18      1.008  
      19      1.008  
      20      1.008  
      21      1.008  
      22      1.008  
      23      1.008  
      24      1.008  
      25      1.008  
      26      1.008  
      27      1.008  
      28      1.008  
      29      1.008  
      30      1.008  
      31      1.008  
      32      1.008  
      33      1.008  
      34      1.008  
      35      1.008  
      36      1.008  
      37      1.008  

Pair Coeffs 

       1      0.066  3.5000000 
       2      0.066  3.5000000 
       3      0.066  3.5000000 
       4      0.083  3.4500000 
       5      0.066  3.5000000 
       6      0.066  3.3000000 
       7      0.170  3.2000000 
       8      0.250  3.5500000 
       9      0.170  2.9600000 
      10      0.170  2.9600000 
      11      0.066  3.5000000 
      12      0.066  3.5000000 
      13      0.083  3.4500000 
      14      0.066  3.5000000 
      15      0.083  3.4500000 
      16      0.066  3.5000000 
      17      0.030  2.5000000 
      18      0.030  2.5000000 
      19      0.030  2.5000000 
      20      0.030  2.5000000 
      21      0.030  2.5000000 
      22      0.030  2.5000000 
      23      0.030  2.5000000 
      24      0.030  2.5000000 
      25      0.030  2.5000000 
      26      0.030  2.5000000 
      27      0.030  2.5000000 
      28      0.030  2.5000000 
      29      0.030  2.5000000 
      30      0.030  2.5000000 
      31      0.030  2.5000000 
      32      0.030  2.5000000 
      33      0.030  2.5000000 
      34      0.030  2.5000000 
      35      0.030  2.5000000 
      36      0.030  2.5000000 
      37      0.030  2.5000000 

Bond Coeffs 

       1   268.0000     1.5290 
       2   268.0000     1.5290 
       3   280.0000     1.5100 
       4   280.0000     1.5100 
       5   390.0000     1.4700 
       6   650.0000     1.1570 
       7   340.0000     1.7700 
       8   700.0000     1.4400 
       9   700.0000     1.4400 
      10   340.0000     1.7700 
      11   268.0000     1.5290 
      12   260.0000     1.5200 
      13   280.0000     1.5100 
      14   260.0000     1.5200 
      15   280.0000     1.5100 
      16   340.0000     1.0900 
      17   340.0000     1.0900 
      18   340.0000     1.0900 
      19   340.0000     1.0900 
      20   340.0000     1.0900 
      21   340.0000     1.0900 
      22   340.0000     1.0900 
      23   340.0000     1.0900 
      24   340.0000     1.0900 
      25   340.0000     1.0900 
      26   340.0000     1.0900 
      27   340.0000     1.0900 
      28   340.0000     1.0900 
      29   340.0000     1.0880 
      30   340.0000     1.0900 
      31   340.0000     1.0900 
      32   340.0000     1.0900 
      33   340.0000     1.0880 
      34   340.0000     1.0900 
      35   340.0000     1.0900 
      36   340.0000     1.0900 
      37   260.0000     1.5200 

Angle Coeffs 

       1     58.350    112.700
       2     58.350    112.700
       3     35.000    114.300
       4     58.350    112.700
       5    150.000    180.000
       6     50.000    108.600
       7     74.000    108.900
       8     74.000    108.900
       9     62.000    102.000
      10     50.000    108.600
      11     37.500    117.200
      12     37.500    117.200
      13     37.500    117.200
      14     37.500    117.200
      15     37.500    110.700
      16     37.500    110.700
      17     37.500    110.700
      18     37.500    110.700
      19     37.500    110.700
      20     37.500    110.700
      21     37.500    110.700
      22     37.500    110.700
      23     35.000    109.500
      24     35.000    109.500
      25     37.500    110.700
      26     37.500    110.700
      27     37.500    110.700
      28     37.500    117.200
      29     37.500    110.700
      30     37.500    110.700
      31     37.500    110.700
      32     37.500    117.200
      33     37.500    110.700
      34     37.500    110.700
      35     37.500    110.700
      36     33.000    107.800
      37     35.000    109.500
      38     37.500    117.200
      39     74.000    108.900
      40     37.500    110.700
      41     35.000    108.500
      42     33.000    107.800
      43     37.500    110.700
      44     37.500    110.700
      45     33.000    107.800
      46     35.000    114.300
      47     33.000    107.800
      48     30.000     83.000
      49     37.500    110.700
      50     37.500    117.200
      51     33.000    107.800
      52     37.500    117.200
      53     37.500    117.200
      54     37.500    110.700
      55     33.000    107.800
      56     33.000    107.800
      57     33.000    107.800
      58     30.000     83.000
      59     33.000    107.800
      60     30.000     83.000
      61     33.000    107.800
      62     37.500    117.200
      63     51.650    110.580
      64     33.000    107.800
      65     74.000    108.900
      66     33.000    107.800
      67     33.000    107.800
      68     33.000    107.800
      69     33.000    107.800
      70     37.500    110.700
      71     35.000    114.300
      72    104.000    119.000
      73     37.500    117.200

Dihedral Coeffs  

       1      1.300     -0.200      0.200      0.000 
       2      1.300     -0.200      0.200      0.000 
       3      0.000     -0.650      0.000      0.000 
       4      0.000      0.000      0.000      0.000 
       5      0.000      0.000      0.000      0.000 
       6      0.000      0.000      0.000      0.000 
       7      0.000      0.000      0.000      0.000 
       8      0.000      0.000      0.000      0.000 
       9      0.000      0.000      0.300      0.000 
      10      0.000      0.000      0.452      0.000 
      11      0.000      0.000      0.300      0.000 
      12      0.000      0.000      0.000      0.000 
      13      0.000      0.000      0.300      0.000 
      14      0.000      0.000      0.300      0.000 
      15      0.000      0.000      0.300      0.000 
      16      0.000      0.000      0.300      0.000 
      17      0.000      0.000      0.300      0.000 
      18      0.000      0.000      0.300      0.000 
      19      0.000      0.000      0.300      0.000 
      20      0.000      0.000      0.000      0.000 
      21      0.000      0.000      0.300      0.000 
      22      0.000      0.000      0.300      0.000 
      23      0.000      0.000      0.300      0.000 
      24      0.000      0.000      0.000      0.000 
      25      0.000      0.000      0.000      0.000 
      26      0.000      0.000      0.300      0.000 
      27      0.000      0.000      0.300      0.000 
      28      0.000      0.000      0.300      0.000 
      29      0.000      0.000      0.300      0.000 
      30      0.000      0.000      0.000      0.000 
      31      0.000      0.000      0.300      0.000 
      32      0.000      0.000      0.300      0.000 
      33      0.000      0.000      0.000      0.000 
      34      0.000      0.000      0.000      0.000 
      35      0.000      0.000      0.000      0.000 
      36      0.000      0.000      0.000      0.000 
      37      0.000      0.000      0.300      0.000 
      38      0.000      0.000      0.000      0.000 
      39      0.000      0.000      0.300      0.000 
      40      0.000      0.000      0.350      0.000 
      41      0.000      0.000      0.000      0.000 
      42      1.262     -0.198      0.465      0.000 
      43      0.000      0.000      0.300      0.000 
      44      0.000      0.000      0.300      0.000 
      45      0.000      0.000      0.000      0.000 
      46      0.000      0.000      0.300      0.000 
      47      0.000      0.000      0.000      0.000 
      48      0.000      0.000      0.350      0.000 
      49      0.000      0.000      0.350      0.000 
      50      0.000      0.000      0.300      0.000 
      51      0.000      0.000      0.300      0.000 
      52      0.000      0.000      0.000      0.000 
      53      0.000      0.000      0.000      0.000 
      54      0.000      0.000      0.350      0.000 
      55      0.000      0.000      0.000      0.000 
      56      0.000      0.000      0.350      0.000 
      57      0.000      0.000      0.300      0.000 
      58      0.000      0.000      0.300      0.000 
      59      0.000      0.000      0.300      0.000 
      60      0.000      0.000      0.300      0.000 
      61      0.000      0.000      0.350      0.000 
      62      0.000      0.000      0.000      0.000 
      63      0.000      0.000      0.000      0.000 
      64      0.000      0.000      0.000      0.000 
      65      0.000      0.000      0.000      0.000 
      66      0.000      0.000      0.300      0.000 
      67      0.000      0.000      0.300      0.000 
      68      0.000      0.000      0.452      0.000 
      69      0.000      0.000      0.300      0.000 
      70      0.000      0.000      0.300      0.000 
      71      0.000      0.000      0.000      0.000 
      72      0.000      0.000      0.300      0.000 
      73      0.000      0.000      0.000      0.000 
      74      0.000      0.000      0.300      0.000 
      75      0.000      0.000      0.452      0.000 
      76      0.000      0.000      0.300      0.000 
      77      0.000      0.000      0.300      0.000 
      78      0.000      0.000      0.000      0.000 
      79      0.000      0.000      0.300      0.000 
      80      1.262     -0.198      0.465      0.000 
      81      0.000      0.000      0.000      0.000 
      82      0.000      0.000      0.300      0.000 
      83      0.000      0.000      0.300      0.000 
      84      0.000      0.000      0.300      0.000 
      85      0.000      0.000      0.000      0.000 
      86      0.000      0.000      0.300      0.000 
      87      0.000      0.000      0.300      0.000 
      88      0.000      0.000      0.300      0.000 
      89      0.000      0.000      0.350      0.000 
      90      0.000      0.000      0.000      0.000 
      91      0.000      0.000      0.300      0.000 
      92      0.000      0.000      0.300      0.000 
      93      0.000      0.000      0.000      0.000 
      94      0.000      0.000      0.000      0.000 
      95      0.000      0.000      0.300      0.000 
      96      0.000      0.000      0.300      0.000 
      97      0.000      0.000      0.000      0.000 
      98      0.000      0.000      0.300      0.000 
      99      0.000      0.000      0.350      0.000 
     100      0.000      0.000      0.300      0.000 
     101      0.000      0.000      0.000      0.000 
     102      0.000      0.000      0.350      0.000 
     103      1.262     -0.198      0.465      0.000 

Improper Coeffs 

       1      0.000      -1       2 
       2      0.000      -1       2 
       3      0.000      -1       2 
       4      0.000      -1       2 
       5      0.000      -1       2 
       6      0.000      -1       2 
       7      0.000      -1       2 
       8      0.000      -1       2 
       9      0.000      -1       2 
      10      0.000      -1       2 
      11      0.000      -1       2 
      12      0.000      -1       2 
      13      0.000      -1       2 
      14      0.000      -1       2 
      15      0.000      -1       2 
      16      0.000      -1       2 
      17      0.000      -1       2 
      18      0.000      -1       2 
      19      0.000      -1       2 
      20      0.000      -1       2 
      21      0.000      -1       2 
      22      0.000      -1       2 
      23      0.000      -1       2 
      24      0.000      -1       2 
      25      0.000      -1       2 
      26      0.000      -1       2 

Atoms 

     1      1      1 -0.23770000    1.000  1.00000  0.00000
     2      1      2 -0.17080000   -0.521  1.00000  0.00000
     3      1      3 -0.15520000   -1.061  1.00000  1.43029
     4      1      4 -0.09900000   -2.596  1.00178  1.51666
     5      1      5 -0.26810000   -3.265  2.22196  0.81291
     6      1      6 0.13420000   -4.769  2.14429  1.02326
     7      1      7 -0.33920000   -6.016  2.07867  1.19670
     8      1      8 1.30600000   -2.704  3.77693  1.46850
     9      1      9 -0.54150000   -3.063  3.87831  2.86802
    10      1     10 -0.54150000   -1.326  3.97583  1.04924
    11      1     11 -0.48730000   -3.656  4.99150  0.55628
    12      1     12 -0.20900000   -3.233  6.40595  0.90506
    13      1     13 -0.16290000   -3.306 -0.37010  1.39498
    14      1     14 -0.21260000   -2.632 -1.67008  1.10918
    15      1     15 -0.13560000   -3.144  0.25506  2.76063
    16      1     16 -0.22880000   -4.360  0.55696  3.56854
    17      1     17 0.08560000    1.380  1.06613 -1.02389
    18      1     18 0.08560000    1.390  0.08291  0.45239
    19      1     19 0.08560000    1.389  1.85537  0.56223
    20      1     20 0.08900000   -0.886  0.12218 -0.54473
    21      1     21 0.08900000   -0.864  1.87980 -0.55171
    22      1     22 0.11030000   -0.665  1.84915  1.99529
    23      1     23 0.11030000   -0.652  0.12398  1.94835
    24      1     24 0.19750000   -3.059  2.20298 -0.26099
    25      1     25 0.15990000   -4.714  4.85108  0.78634
    26      1     26 0.15990000   -3.486  4.80242 -0.50897
    27      1     27 0.10870000   -3.414  6.61745  1.96331
    28      1     28 0.10870000   -3.798  7.12977  0.30964
    29      1     29 0.10870000   -2.167  6.56233  0.71031
    30      1     30 0.14050000   -4.307 -0.40433  0.96988
    31      1     31 0.08970000   -1.635 -1.74990  1.54751
    32      1     32 0.08970000   -2.549 -1.82053  0.02842
    33      1     33 0.08970000   -3.234 -2.48963  1.51727
    34      1     34 0.13990000   -2.388 -0.15961  3.42612
    35      1     35 0.10020000   -5.290  0.45786  3.00448
    36      1     36 0.10020000   -4.304  1.55508  4.00963
    37      1     37 0.10020000   -4.440 -0.16708  4.38789

Bonds 

     1      1      2      1
     2      2      3      2
     3      3      4      3
     4      4      5      4
     5      5      6      5
     6      6      7      6
     7      7      8      5
     8      8      9      8
     9      9     10      8
    10     10     11      8
    11     11     12     11
    12     12     13      4
    13     13     14     13
    14     14     15      4
    15     15     16     15
    16     16     17      1
    17     17     18      1
    18     18     19      1
    19     19     20      2
    20     20     21      2
    21     21     22      3
    22     22     23      3
    23     23     24      5
    24     24     25     11
    25     25     26     11
    26     26     27     12
    27     27     28     12
    28     28     29     12
    29     29     30     13
    30     30     31     14
    31     31     32     14
    32     32     33     14
    33     33     34     15
    34     34     35     16
    35     35     36     16
    36     36     37     16
    37     37     15     13

Angles 

     1      1      1      2      3
     2      2      2      3      4
     3      3      3      4      5
     4      4      4      5      6
     5      5      5      6      7
     6      6      4      5      8
     7      7      5      8      9
     8      8      5      8     10
     9      9      5      8     11
    10     10      8     11     12
    11     11      3      4     13
    12     12      4     13     14
    13     13      3      4     15
    14     14      4     15     16
    15     15      2      1     17
    16     16      2      1     18
    17     17      2      1     19
    18     18      1      2     20
    19     19      1      2     21
    20     20      2      3     22
    21     21      2      3     23
    22     22      4      5     24
    23     23      8     11     25
    24     24      8     11     26
    25     25     11     12     27
    26     26     11     12     28
    27     27     11     12     29
    28     28      4     13     30
    29     29     13     14     31
    30     30     13     14     32
    31     31     13     14     33
    32     32      4     15     34
    33     33     15     16     35
    34     34     15     16     36
    35     35     15     16     37
    36     36     27     12     29
    37     37      8      5     24
    38     38     13     15     34
    39     39     10      8     11
    40     40      3      2     20
    41     41      6      5     24
    42     42     35     16     37
    43     43     12     11     25
    44     44      3      2     21
    45     45     28     12     29
    46     46     14     13     30
    47     47     31     14     32
    48     48     13      4     15
    49     49      4      3     22
    50     50     15     13     30
    51     51     22      3     23
    52     52     14     13     15
    53     53      5      4     13
    54     54      4      3     23
    55     55     27     12     28
    56     56     35     16     36
    57     57     18      1     19
    58     58      4     15     13
    59     59     17      1     19
    60     60      4     13     15
    61     61     31     14     33
    62     62      5      4     15
    63     63      6      5      8
    64     64     20      2     21
    65     65      9      8     11
    66     66     17      1     18
    67     67     36     16     37
    68     68     32     14     33
    69     69     25     11     26
    70     70     12     11     26
    71     71     16     15     34
    72     72      9      8     10
    73     73     13     15     16

Dihedrals

     1      1      4      3      2      1 
     2      2      5      4      3      2 
     3      3      6      5      4      3 
     4      4      7      6      5      4 
     5      5      9      8      5      4 
     6      6     12     11      8      5 
     7      7     14     13      4      3 
     8      8     16     15      4     13 
     9      9     17      1      2      3 
    10     10     27     12     11      8 
    11     11     31     14     13      4 
    12     12     34     15      4     13 
    13     13     35     16     15      4 
    14     14     37     16     15     13 
    15     15     37     16     15     34 
    16     16     35     16     15     34 
    17     17     32     14     13      4 
    18     18     22      3      4     13 
    19     19     32     14     13     30 
    20     20     30     13      4     15 
    21     21     21      2      1     17 
    22     22     20      2      1     18 
    23     23     28     12     11     26 
    24     24     12     11      8     10 
    25     25     14     13     15      4 
    26     26     23      3      2     20 
    27     27     22      3      2     21 
    28     28     23      3      4     15 
    29     29     36     16     15      4 
    30     30     34     15     13     14 
    31     31     23      3      4      5 
    32     32     33     14     13     15 
    33     33     13      4      5      6 
    34     34     34     15     13      4 
    35     35     11      8      5      6 
    36     36     16     15     13     14 
    37     37     27     12     11     26 
    38     38     10      8      5      4 
    39     39     29     12     11     26 
    40     40     24      5      8      9 
    41     41     30     13      4      5 
    42     42     15      4      5      8 
    43     43     33     14     13      4 
    44     44     36     16     15     13 
    45     45     30     13     15     16 
    46     46     31     14     13     15 
    47     47     12     11      8      9 
    48     48     26     11      8      9 
    49     49     25     11      8     10 
    50     50     20      2      1     19 
    51     51     21      2      1     18 
    52     52     30     13     15      4 
    53     53     16     15      4      5 
    54     54     25     11      8      5 
    55     55     16     15     13      4 
    56     56     24      5      8     10 
    57     57     18      1      2      3 
    58     58     29     12     11     25 
    59     59     27     12     11     25 
    60     60     35     16     15     13 
    61     61     25     11      8      9 
    62     62      9      8      5      6 
    63     63     24      5      6      7 
    64     64     34     15     13     30 
    65     65     14     13      4      5 
    66     66     22      3      4     15 
    67     67     23      3      4     13 
    68     68     28     12     11      8 
    69     69     20      2      1     17 
    70     70     22      3      2     20 
    71     71      8      5      6      7 
    72     72     19      1      2      3 
    73     73     11      8      5      4 
    74     74     24      5      4      3 
    75     75     29     12     11      8 
    76     76     36     16     15     34 
    77     77     23      3      2      1 
    78     78     30     13      4      3 
    79     79     20      2      3      4 
    80     80     13      4      5      8 
    81     81     15      4      5      6 
    82     82     32     14     13     15 
    83     83     23      3      2     21 
    84     84     21      2      3      4 
    85     85     10      8      5      6 
    86     86     31     14     13     30 
    87     87     24      5      4     13 
    88     88     24      5      4     15 
    89     89     26     11      8      5 
    90     90     13      4      3      2 
    91     91     37     16     15      4 
    92     92     22      3      2      1 
    93     93     34     15      4      3 
    94     94     15      4      3      2 
    95     95     21      2      1     19 
    96     96     28     12     11     25 
    97     97     16     15      4      3 
    98     98     33     14     13     30 
    99     99     26     11      8     10 
   100    100     22      3      4      5 
   101    101     34     15      4      5 
   102    102     24      5      8     11 
   103    103      8      5      4      3 

Impropers

     1      1      5      4      6      8 
     2      2      8      9     10      5 
     3      3      8      9     11      5 
     4      4      4      5      3     13 
     5      5      4      3      5     15 
     6      6      1     18     17      2 
     7      7      1      2     19     17 
     8      8      2      1      3     20 
     9      9      2      1      3     21 
    10     10      3      2      4     22 
    11     11      3      2      4     23 
    12     12      5      4      6     24 
    13     13     11     25     12      8 
    14     14     11     26     12      8 
    15     15     12     11     28     27 
    16     16     12     11     29     27 
    17     17     13      4     30     14 
    18     18     14     13     31     32 
    19     19     14     33     13     31 
    20     20     16     35     36     15 
    21     21     16     35     37     15 
    22     22     13      4     15     14 
    23     23      4     13     15      5 
    24     24      4     13     15      3 
    25     25      4     13     15      3 
    26     26      4     13     15      5 

