LAMMPS data file Created by LigParGen - (Written by Leela S. Dodda)

      38 atoms
      39 bonds
      78 angles
     126 dihedrals
      24 impropers
 
      38 atom types
      39 bond types
      78 angle types
     126 dihedral types
      24 improper types
 
   -4.643250    45.356750 xlo xhi
   -3.364070    46.635930 ylo yhi
   -1.362110    48.637890 zlo zhi

Masses

       1     12.011  
       2     12.011  
       3     12.011  
       4     12.011  
       5     12.011  
       6     12.011  
       7     12.011  
       8     12.011  
       9     12.011  
      10     12.011  
      11     12.011  
      12     15.999  
      13     12.011  
      14     12.011  
      15     12.011  
      16     15.999  
      17      1.008  
      18      1.008  
      19      1.008  
      20      1.008  
      21      1.008  
      22      1.008  
      23      1.008  
      24      1.008  
      25      1.008  
      26      1.008  
      27      1.008  
      28      1.008  
      29      1.008  
      30      1.008  
      31      1.008  
      32      1.008  
      33      1.008  
      34      1.008  
      35      1.008  
      36      1.008  
      37      1.008  
      38      1.008  

Pair Coeffs 

       1      0.066  3.5000000 
       2      0.066  3.5000000 
       3      0.066  3.5000000 
       4      0.066  3.5000000 
       5      0.066  3.5000000 
       6      0.066  3.5000000 
       7      0.066  3.5000000 
       8      0.066  3.5000000 
       9      0.066  3.5000000 
      10      0.066  3.5000000 
      11      0.070  3.5500000 
      12      0.210  2.9600000 
      13      0.066  3.5000000 
      14      0.066  3.5000000 
      15      0.070  3.5500000 
      16      0.210  2.9600000 
      17      0.030  2.5000000 
      18      0.030  2.5000000 
      19      0.030  2.5000000 
      20      0.030  2.5000000 
      21      0.030  2.5000000 
      22      0.030  2.5000000 
      23      0.030  2.5000000 
      24      0.030  2.5000000 
      25      0.030  2.5000000 
      26      0.030  2.5000000 
      27      0.030  2.5000000 
      28      0.030  2.5000000 
      29      0.030  2.5000000 
      30      0.030  2.5000000 
      31      0.030  2.5000000 
      32      0.030  2.5000000 
      33      0.030  2.5000000 
      34      0.030  2.5000000 
      35      0.030  2.5000000 
      36      0.030  2.5000000 
      37      0.030  2.5000000 
      38      0.030  2.5000000 

Bond Coeffs 

       1   268.0000     1.5290 
       2   268.0000     1.5290 
       3   268.0000     1.5290 
       4   268.0000     1.5290 
       5   268.0000     1.5290 
       6   268.0000     1.5290 
       7   268.0000     1.5290 
       8   268.0000     1.5290 
       9   268.0000     1.5290 
      10   317.0000     1.5220 
      11   570.0000     1.2290 
      12   268.0000     1.5290 
      13   268.0000     1.5290 
      14   317.0000     1.5220 
      15   570.0000     1.2290 
      16   340.0000     1.0900 
      17   340.0000     1.0900 
      18   340.0000     1.0900 
      19   340.0000     1.0900 
      20   340.0000     1.0900 
      21   340.0000     1.0900 
      22   340.0000     1.0900 
      23   340.0000     1.0900 
      24   340.0000     1.0900 
      25   340.0000     1.0900 
      26   340.0000     1.0900 
      27   340.0000     1.0900 
      28   340.0000     1.0900 
      29   340.0000     1.0900 
      30   340.0000     1.0900 
      31   340.0000     1.0900 
      32   340.0000     1.0900 
      33   340.0000     1.0900 
      34   340.0000     1.0900 
      35   340.0000     1.0900 
      36   340.0000     1.0900 
      37   340.0000     1.0900 
      38   268.0000     1.5290 
      39   317.0000     1.5220 

Angle Coeffs 

       1     58.350    112.700
       2     58.350    112.700
       3     58.350    112.700
       4     58.350    112.700
       5     58.350    112.700
       6     58.350    112.700
       7     58.350    112.700
       8     58.350    112.700
       9     63.000    111.100
      10     80.000    120.400
      11     58.350    112.700
      12     58.350    112.700
      13     63.000    111.100
      14     80.000    120.400
      15     37.500    110.700
      16     37.500    110.700
      17     37.500    110.700
      18     37.500    110.700
      19     37.500    110.700
      20     37.500    110.700
      21     37.500    110.700
      22     37.500    110.700
      23     37.500    110.700
      24     37.500    110.700
      25     37.500    110.700
      26     37.500    110.700
      27     37.500    110.700
      28     37.500    110.700
      29     37.500    110.700
      30     37.500    110.700
      31     37.500    110.700
      32     37.500    110.700
      33     37.500    110.700
      34     37.500    110.700
      35     37.500    110.700
      36     35.000    115.000
      37     63.000    111.100
      38     70.000    116.000
      39     58.350    112.700
      40     37.500    110.700
      41     37.500    110.700
      42     37.500    110.700
      43     33.000    107.800
      44     37.500    110.700
      45     33.000    107.800
      46     35.000    109.500
      47     37.500    110.700
      48     37.500    110.700
      49     63.000    111.100
      50     58.350    112.700
      51     37.500    110.700
      52     33.000    107.800
      53     37.500    110.700
      54     35.000    109.500
      55     33.000    107.800
      56     35.000    109.500
      57     58.350    112.700
      58     35.000    123.000
      59     33.000    107.800
      60     37.500    110.700
      61     58.350    112.700
      62     33.000    107.800
      63     37.500    110.700
      64     33.000    107.800
      65     33.000    107.800
      66     37.500    110.700
      67     80.000    120.400
      68     37.500    110.700
      69     37.500    110.700
      70     33.000    107.800
      71     63.000    111.100
      72     33.000    107.800
      73     37.500    110.700
      74     58.350    112.700
      75     33.000    107.800
      76     35.000    109.500
      77     58.350    112.700
      78     33.000    107.800

Dihedral Coeffs  

       1      1.300     -0.200      0.200      0.000 
       2      1.300     -0.200      0.200      0.000 
       3      1.300     -0.200      0.200      0.000 
       4      1.300     -0.200      0.200      0.000 
       5      1.300     -0.200      0.200      0.000 
       6      1.300     -0.200      0.200      0.000 
       7     -2.060     -0.313      0.315      0.000 
       8      0.000      0.000      0.000      0.000 
       9     -2.060     -0.313      0.315      0.000 
      10      0.000      0.000      0.000      0.000 
      11      0.000      0.000      0.300      0.000 
      12      0.000      0.000      0.300      0.000 
      13      1.300     -0.200      0.200      0.000 
      14      0.000      0.000      0.000      0.000 
      15      0.000      0.000      0.275      0.000 
      16      0.000      0.000      0.300      0.000 
      17      0.000      0.000      0.300      0.000 
      18      0.000      0.000      0.300      0.000 
      19      0.000      0.000      0.300      0.000 
      20      0.000      0.000      0.300      0.000 
      21      1.454     -0.144     -0.775      0.000 
      22      0.000      0.000      0.300      0.000 
      23      0.000      0.000      0.300      0.000 
      24      0.000      0.000      0.300      0.000 
      25      0.000      0.000      0.300      0.000 
      26     -2.060     -0.313      0.315      0.000 
      27      0.000      0.000      0.000      0.000 
      28      0.000      0.000      0.300      0.000 
      29      0.000      0.000      0.300      0.000 
      30      0.000      0.000      0.300      0.000 
      31      0.000      0.000      0.300      0.000 
      32      0.000      0.000      0.300      0.000 
      33      0.000      0.000      0.300      0.000 
      34      0.000      0.000      0.000      0.000 
      35      0.000      0.000      0.000      0.000 
      36      0.000      0.000      0.300      0.000 
      37      0.000      0.000      0.300      0.000 
      38      0.000      0.000      0.300      0.000 
      39      0.000      0.000      0.300      0.000 
      40      0.000      0.000      0.300      0.000 
      41      0.000      0.000      0.300      0.000 
      42      0.000      0.000      0.300      0.000 
      43      0.000      0.000      0.300      0.000 
      44      0.000      0.000      0.300      0.000 
      45      0.000      0.000      0.300      0.000 
      46      0.000      0.000      0.000      0.000 
      47      0.000      0.000      0.300      0.000 
      48      0.000      0.000      0.300      0.000 
      49      1.300     -0.200      0.200      0.000 
      50      1.300     -0.200      0.200      0.000 
      51     -2.060     -0.313      0.315      0.000 
      52      0.000      0.000      0.000      0.000 
      53      0.000      0.000      0.300      0.000 
      54      0.000      0.000      0.300      0.000 
      55      1.300     -0.200      0.200      0.000 
      56      0.000      0.000      0.300      0.000 
      57      0.000      0.000     -0.100      0.000 
      58      1.300     -0.200      0.200      0.000 
      59      0.000      0.000     -0.100      0.000 
      60      0.000      0.000      0.300      0.000 
      61      0.000      0.000      0.300      0.000 
      62      0.000      0.000     -0.100      0.000 
      63      0.000      0.000      0.300      0.000 
      64      0.000      0.000      0.300      0.000 
      65      0.000      0.000      0.300      0.000 
      66      1.300     -0.200      0.200      0.000 
      67     -2.060     -0.313      0.315      0.000 
      68      1.300     -0.200      0.200      0.000 
      69      0.000      0.000      0.300      0.000 
      70      0.000      0.000      0.300      0.000 
      71      0.000      0.000      0.300      0.000 
      72      0.000      0.000      0.275      0.000 
      73      0.000      0.000      0.300      0.000 
      74      0.000      0.000      0.300      0.000 
      75      0.000      0.000      0.300      0.000 
      76      0.000      0.000      0.300      0.000 
      77      1.300     -0.200      0.200      0.000 
      78      1.300     -0.200      0.200      0.000 
      79      0.000      0.000      0.300      0.000 
      80      0.000      0.000      0.300      0.000 
      81      0.000      0.000      0.300      0.000 
      82      0.000      0.000      0.000      0.000 
      83      0.000      0.000      0.300      0.000 
      84      0.000      0.000      0.300      0.000 
      85      0.000      0.000      0.300      0.000 
      86      0.000      0.000      0.300      0.000 
      87      0.000      0.000      0.300      0.000 
      88      0.000      0.000      0.300      0.000 
      89     -0.550      0.000      1.000      0.000 
      90      0.000      0.000      0.300      0.000 
      91      1.300     -0.200      0.200      0.000 
      92      0.000      0.000      0.300      0.000 
      93      0.000      0.000      0.300      0.000 
      94      0.000      0.000     -0.100      0.000 
      95      1.300     -0.200      0.200      0.000 
      96      1.454     -0.144     -0.775      0.000 
      97     -2.060     -0.313      0.315      0.000 
      98      0.000      0.000      0.300      0.000 
      99      0.000      0.000      0.300      0.000 
     100      1.454     -0.144     -0.775      0.000 
     101      0.000      0.000      0.300      0.000 
     102      0.000      0.000      0.360      0.000 
     103      0.000      0.000      0.300      0.000 
     104      1.300     -0.200      0.200      0.000 
     105      0.000      0.000      0.300      0.000 
     106      0.000      0.000      0.300      0.000 
     107      0.000      0.000      0.300      0.000 
     108      0.000      0.000      0.300      0.000 
     109      0.000      0.000      0.000      0.000 
     110      0.000      0.000     -0.100      0.000 
     111      0.000      0.000      0.360      0.000 
     112      1.300     -0.200      0.200      0.000 
     113      0.000      0.000      0.300      0.000 
     114      0.000      0.000      0.300      0.000 
     115      0.000      0.000      0.300      0.000 
     116      0.000      0.000      0.300      0.000 
     117     -2.060     -0.313      0.315      0.000 
     118      0.000      0.000      0.300      0.000 
     119      0.000      0.000      0.300      0.000 
     120      0.000      0.000     -0.100      0.000 
     121      1.454     -0.144     -0.775      0.000 
     122      0.000      0.000      0.300      0.000 
     123      1.300     -0.200      0.200      0.000 
     124      0.000      0.000      0.300      0.000 
     125      0.000      0.000      0.300      0.000 
     126      1.300     -0.200      0.200      0.000 

Improper Coeffs 

       1      0.000      -1       2 
       2      0.000      -1       2 
       3      0.000      -1       2 
       4      0.000      -1       2 
       5      0.000      -1       2 
       6      0.000      -1       2 
       7      0.000      -1       2 
       8      0.000      -1       2 
       9      0.000      -1       2 
      10      0.000      -1       2 
      11      0.000      -1       2 
      12      0.000      -1       2 
      13      0.000      -1       2 
      14      0.000      -1       2 
      15      0.000      -1       2 
      16      0.000      -1       2 
      17      0.000      -1       2 
      18      0.000      -1       2 
      19      0.000      -1       2 
      20      0.000      -1       2 
      21      0.000      -1       2 
      22      0.000      -1       2 
      23     10.500      -1       2 
      24     10.500      -1       2 

Atoms 

     1      1      1 -0.24600000    1.000  1.00000  0.00000
     2      1      2 -0.17900000   -0.527  1.00000  0.00000
     3      1      3 -0.07330000   -1.415  1.00000  1.30880
     4      1      4 -0.12710000   -2.907  1.20616  0.81456
     5      1      5 -0.22960000   -3.190  1.72891 -0.59862
     6      1      6 -0.17720000   -3.553 -0.17672  0.91489
     7      1      7 -0.11920000   -2.968 -0.70052  2.18951
     8      1      8 -0.17120000   -3.329 -2.11827  2.57045
     9      1      9 -0.17400000   -3.030 -2.30060  4.06155
    10      1     10 -0.22050000   -1.675 -1.71602  4.46366
    11      1     11 0.36450000   -1.409 -0.31862  3.81545
    12      1     12 -0.43930000   -1.149  0.67353  4.47158
    13      1     13 -0.08470000   -1.449 -0.31916  2.24949
    14      1     14 -0.23520000   -0.224 -1.17161  1.93967
    15      1     15 0.30440000    0.984 -0.49539  2.60791
    16      1     16 -0.44380000    1.939 -1.11335  3.06288
    17      1     17 0.08430000    1.348  1.30937 -0.99209
    18      1     18 0.08430000    1.432  0.01239  0.14842
    19      1     19 0.08430000    1.416  1.70774  0.72351
    20      1     20 0.09120000   -0.857  0.18674 -0.65853
    21      1     21 0.09120000   -0.749  1.93646 -0.52395
    22      1     22 0.11740000   -1.118  1.86361  1.91429
    23      1     23 0.10580000   -3.382  1.89691  1.52643
    24      1     24 0.08420000   -2.893  0.99807 -1.36211
    25      1     25 0.08420000   -2.686  2.67627 -0.80586
    26      1     26 0.08420000   -4.265  1.89202 -0.73118
    27      1     27 0.10050000   -3.321 -0.82224  0.06703
    28      1     28 0.10050000   -4.643 -0.07387  0.99594
    29      1     29 0.10300000   -3.495 -0.07973  2.94339
    30      1     30 0.10010000   -2.790 -2.84419  1.95594
    31      1     31 0.10010000   -4.404 -2.28319  2.40866
    32      1     32 0.09870000   -3.095 -3.36407  4.32213
    33      1     33 0.09870000   -3.810 -1.79063  4.64262
    34      1     34 0.12320000   -0.891 -2.41843  4.16402
    35      1     35 0.12320000   -1.596 -1.64044  5.55138
    36      1     36 0.13080000   -0.042 -1.28341  0.87379
    37      1     37 0.13080000   -0.263 -2.19247  2.31882
    38      1     38 0.13030000    0.994  0.61449  2.63246

Bonds 

     1      1      2      1
     2      2      3      2
     3      3      4      3
     4      4      5      4
     5      5      6      4
     6      6      7      6
     7      7      8      7
     8      8      9      8
     9      9     10      9
    10     10     11     10
    11     11     12     11
    12     12     13      3
    13     13     14     13
    14     14     15     14
    15     15     16     15
    16     16     17      1
    17     17     18      1
    18     18     19      1
    19     19     20      2
    20     20     21      2
    21     21     22      3
    22     22     23      4
    23     23     24      5
    24     24     25      5
    25     25     26      5
    26     26     27      6
    27     27     28      6
    28     28     29      7
    29     29     30      8
    30     30     31      8
    31     31     32      9
    32     32     33      9
    33     33     34     10
    34     34     35     10
    35     35     36     14
    36     36     37     14
    37     37     38     15
    38     38     13      7
    39     39     13     11

Angles 

     1      1      1      2      3
     2      2      2      3      4
     3      3      3      4      5
     4      4      3      4      6
     5      5      4      6      7
     6      6      6      7      8
     7      7      7      8      9
     8      8      8      9     10
     9      9      9     10     11
    10     10     10     11     12
    11     11      2      3     13
    12     12      3     13     14
    13     13     13     14     15
    14     14     14     15     16
    15     15      2      1     17
    16     16      2      1     18
    17     17      2      1     19
    18     18      1      2     20
    19     19      1      2     21
    20     20      2      3     22
    21     21      3      4     23
    22     22      4      5     24
    23     23      4      5     25
    24     24      4      5     26
    25     25      4      6     27
    26     26      4      6     28
    27     27      6      7     29
    28     28      7      8     30
    29     29      7      8     31
    30     30      8      9     32
    31     31      8      9     33
    32     32      9     10     34
    33     33      9     10     35
    34     34     13     14     36
    35     35     13     14     37
    36     36     14     15     38
    37     37      3     13     11
    38     38     10     11     13
    39     39      5      4      6
    40     40      3      2     20
    41     41     10      9     32
    42     42      9      8     30
    43     43     24      5     26
    44     44      3      2     21
    45     45     27      6     28
    46     46     11     10     34
    47     47      4      3     22
    48     48      7      6     28
    49     49     11     13     14
    50     50      8      7     13
    51     51     13      7     29
    52     52     17      1     18
    53     53      5      4     23
    54     54     15     14     37
    55     55     18      1     19
    56     56     11     10     35
    57     57      6      7     13
    58     58     16     15     38
    59     59     17      1     19
    60     60      7      6     27
    61     61      3     13      7
    62     62     25      5     26
    63     63     13      3     22
    64     64     24      5     25
    65     65     20      2     21
    66     66      6      4     23
    67     67     12     11     13
    68     68     10      9     33
    69     69      8      7     29
    70     70     30      8     31
    71     71      7     13     11
    72     72     32      9     33
    73     73      9      8     31
    74     74      4      3     13
    75     75     36     14     37
    76     76     15     14     36
    77     77      7     13     14
    78     78     34     10     35

Dihedrals

     1      1      4      3      2      1 
     2      2      5      4      3      2 
     3      3      7      6      4      3 
     4      4      8      7      6      4 
     5      5      9      8      7      6 
     6      6     10      9      8      7 
     7      7     11     10      9      8 
     8      8     12     11     10      9 
     9      9     15     14     13      3 
    10     10     16     15     14     13 
    11     11     17      1      2      3 
    12     12     24      5      4      3 
    13     13     14     13      7      8 
    14     14     35     10     11     12 
    15     15     34     10     11     13 
    16     16     35     10      9      8 
    17     17     28      6      7      8 
    18     18     29      7      6      4 
    19     19     22      3     13      7 
    20     20     31      8      7     13 
    21     21     13     11     10      9 
    22     22     28      6      4      5 
    23     23     27      6      7     13 
    24     24     25      5      4      3 
    25     25     31      8      7      6 
    26     26     15     14     13      7 
    27     27     12     11     13      7 
    28     28     21      2      1     17 
    29     29     20      2      1     18 
    30     30     25      5      4     23 
    31     31     20      2      3     13 
    32     32     19      1      2      3 
    33     33     22      3      2     21 
    34     34     34     10     11     12 
    35     35     36     14     15     16 
    36     36     29      7      8      9 
    37     37     25      5      4      6 
    38     38     33      9      8      7 
    39     39     30      8      9     10 
    40     40     29      7      6     28 
    41     41     29      7     13     14 
    42     42     33      9      8     30 
    43     43     22      3      4      6 
    44     44     34     10      9     32 
    45     45     27      6      4     23 
    46     46     37     14     15     16 
    47     47     30      8      7     13 
    48     48     22      3     13     14 
    49     49     13      7      6      4 
    50     50     14     13      3      2 
    51     51     11     13      7      6 
    52     52     12     11     13      3 
    53     53     37     14     13      3 
    54     54     23      4      6      7 
    55     55      6      4      3      2 
    56     56     35     10      9     33 
    57     57     37     14     13     11 
    58     58      7     13      3      4 
    59     59     36     14     13     11 
    60     60     20      2      1     19 
    61     61     21      2      1     18 
    62     62     32      9     10     11 
    63     63     26      5      4     23 
    64     64     35     10      9     32 
    65     65     27      6      4      3 
    66     66      6      7     13      3 
    67     67     11     13      3      2 
    68     68     14     13      3      4 
    69     69     26      5      4      3 
    70     70     24      5      4     23 
    71     71     18      1      2      3 
    72     72     35     10     11     13 
    73     73     31      8      7     29 
    74     74     32      9      8     30 
    75     75     34     10      9     33 
    76     76     23      4      3      2 
    77     77     14     13      7      6 
    78     78     13      3      4      6 
    79     79     23      4      3     22 
    80     80     34     10      9      8 
    81     81     28      6      7     13 
    82     82     14     13     11     12 
    83     83     36     14     13      3 
    84     84     23      4      3     13 
    85     85     20      2      1     17 
    86     86     27      6      4      5 
    87     87     22      3      2     20 
    88     88     29      7     13      3 
    89     89     15     14     13     11 
    90     90     31      8      9     10 
    91     91     13      3      4      5 
    92     92     30      8      7      6 
    93     93     20      2      3      4 
    94     94     33      9     10     11 
    95     95     13      7      8      9 
    96     96     10     11     13      3 
    97     97     11     13      3      4 
    98     98     28      6      4     23 
    99     99     32      9      8      7 
   100    100     14     13     11     10 
   101    101     27      6      7      8 
   102    102     38     15     14     37 
   103    103     24      5      4      6 
   104    104      7     13      3      2 
   105    105     21      2      3      4 
   106    106     21      2      3     13 
   107    107     30      8      7     29 
   108    108     28      6      4      3 
   109    109     38     15     14     13 
   110    110     29      7     13     11 
   111    111     38     15     14     36 
   112    112      8      7     13      3 
   113    113     26      5      4      6 
   114    114     22      3      2      1 
   115    115     32      9      8     31 
   116    116     21      2      1     19 
   117    117     11     13      7      8 
   118    118     22      3      4      5 
   119    119     33      9      8     31 
   120    120     22      3     13     11 
   121    121     10     11     13      7 
   122    122     29      7      6     27 
   123    123     13      3      2      1 
   124    124     36     14     13      7 
   125    125     37     14     13      7 
   126    126      7      6      4      5 

Impropers

     1      1      4      3      5      6 
     2      2      3      2      4     13 
     3      3     13      3     14      7 
     4      4      1     18     17      2 
     5      5      1      2     19     17 
     6      6      2      1      3     20 
     7      7      2      1      3     21 
     8      8      3      2      4     22 
     9      9      4      3      5     23 
    10     10      5     25      4     24 
    11     11      5     26      4     24 
    12     12      6     27      4      7 
    13     13      6      4     28      7 
    14     14      7     29      6      8 
    15     15      8      9     30      7 
    16     16      8      9      7     31 
    17     17      9     10      8     32 
    18     18      9     33     10      8 
    19     19     10      9     34     11 
    20     20     10      9     35     11 
    21     21     14     36     13     15 
    22     22     14     13     37     15 
    23     23     15     16     38     14 
    24     24     11     10     12     13 

