LAMMPS data file Created by LigParGen - (Written by Leela S. Dodda)

      45 atoms
      45 bonds
      90 angles
     135 dihedrals
      29 impropers
 
      45 atom types
      45 bond types
      90 angle types
     135 dihedral types
      29 improper types
 
   -8.037280    41.962720 xlo xhi
   -1.388690    48.611310 ylo yhi
   -0.980230    49.019770 zlo zhi

Masses

       1     12.011  
       2     12.011  
       3     12.011  
       4     12.011  
       5     12.011  
       6     12.011  
       7     12.011  
       8     12.011  
       9     12.011  
      10     12.011  
      11     12.011  
      12     12.011  
      13     12.011  
      14     12.011  
      15     32.060  
      16     15.999  
      17     15.999  
      18      1.008  
      19      1.008  
      20      1.008  
      21      1.008  
      22      1.008  
      23      1.008  
      24      1.008  
      25      1.008  
      26      1.008  
      27      1.008  
      28      1.008  
      29      1.008  
      30      1.008  
      31      1.008  
      32      1.008  
      33      1.008  
      34      1.008  
      35      1.008  
      36      1.008  
      37      1.008  
      38      1.008  
      39      1.008  
      40      1.008  
      41      1.008  
      42      1.008  
      43      1.008  
      44      1.008  
      45      1.008  

Pair Coeffs 

       1      0.066  3.5000000 
       2      0.066  3.5000000 
       3      0.066  3.5000000 
       4      0.066  3.5000000 
       5      0.066  3.5000000 
       6      0.066  3.5000000 
       7      0.066  3.5000000 
       8      0.066  3.5000000 
       9      0.066  3.5000000 
      10      0.066  3.5000000 
      11      0.066  3.5000000 
      12      0.066  3.5000000 
      13      0.066  3.5000000 
      14      0.066  3.5000000 
      15      0.250  3.5500000 
      16      0.170  2.9600000 
      17      0.170  2.9600000 
      18      0.030  2.5000000 
      19      0.030  2.5000000 
      20      0.030  2.5000000 
      21      0.030  2.5000000 
      22      0.030  2.5000000 
      23      0.030  2.5000000 
      24      0.030  2.5000000 
      25      0.030  2.5000000 
      26      0.030  2.5000000 
      27      0.030  2.5000000 
      28      0.030  2.5000000 
      29      0.030  2.5000000 
      30      0.030  2.5000000 
      31      0.030  2.5000000 
      32      0.030  2.5000000 
      33      0.030  2.5000000 
      34      0.030  2.5000000 
      35      0.030  2.5000000 
      36      0.030  2.5000000 
      37      0.030  2.5000000 
      38      0.030  2.5000000 
      39      0.030  2.5000000 
      40      0.030  2.5000000 
      41      0.030  2.5000000 
      42      0.030  2.5000000 
      43      0.030  2.5000000 
      44      0.030  2.5000000 
      45      0.030  2.5000000 

Bond Coeffs 

       1   268.0000     1.5290 
       2   268.0000     1.5290 
       3   268.0000     1.5290 
       4   268.0000     1.5290 
       5   268.0000     1.5290 
       6   268.0000     1.5290 
       7   268.0000     1.5290 
       8   268.0000     1.5290 
       9   268.0000     1.5290 
      10   268.0000     1.5290 
      11   268.0000     1.5290 
      12   268.0000     1.5290 
      13   268.0000     1.5290 
      14   340.0000     1.7700 
      15   700.0000     1.4400 
      16   700.0000     1.4400 
      17   340.0000     1.0900 
      18   340.0000     1.0900 
      19   340.0000     1.0900 
      20   340.0000     1.0900 
      21   340.0000     1.0900 
      22   340.0000     1.0900 
      23   340.0000     1.0900 
      24   340.0000     1.0900 
      25   340.0000     1.0900 
      26   340.0000     1.0900 
      27   340.0000     1.0900 
      28   340.0000     1.0900 
      29   340.0000     1.0900 
      30   340.0000     1.0900 
      31   340.0000     1.0900 
      32   340.0000     1.0900 
      33   340.0000     1.0900 
      34   340.0000     1.0900 
      35   340.0000     1.0900 
      36   340.0000     1.0900 
      37   340.0000     1.0900 
      38   340.0000     1.0900 
      39   340.0000     1.0900 
      40   340.0000     1.0900 
      41   340.0000     1.0900 
      42   340.0000     1.0900 
      43   340.0000     1.0900 
      44   340.0000     1.0900 
      45   340.0000     1.7700 

Angle Coeffs 

       1     58.350    112.700
       2     58.350    112.700
       3     58.350    112.700
       4     58.350    112.700
       5     58.350    112.700
       6     58.350    112.700
       7     58.350    112.700
       8     58.350    112.700
       9     58.350    112.700
      10     58.350    112.700
      11     58.350    112.700
      12     58.350    112.700
      13     50.000    108.600
      14     74.000    108.900
      15     74.000    108.900
      16     37.500    110.700
      17     37.500    110.700
      18     37.500    110.700
      19     37.500    110.700
      20     37.500    110.700
      21     37.500    110.700
      22     37.500    110.700
      23     37.500    110.700
      24     37.500    110.700
      25     37.500    110.700
      26     37.500    110.700
      27     37.500    110.700
      28     37.500    110.700
      29     37.500    110.700
      30     37.500    110.700
      31     37.500    110.700
      32     37.500    110.700
      33     37.500    110.700
      34     37.500    110.700
      35     37.500    110.700
      36     37.500    110.700
      37     37.500    110.700
      38     37.500    110.700
      39     37.500    110.700
      40     37.500    110.700
      41     37.500    110.700
      42     37.500    110.700
      43     37.500    110.700
      44     35.000    109.500
      45     58.350    112.700
      46     33.000    107.800
      47     33.000    107.800
      48     50.000    108.600
      49     33.000    107.800
      50     62.000    102.000
      51     50.000    108.600
      52     33.000    107.800
      53     37.500    110.700
      54     37.500    110.700
      55     50.000    108.600
      56    104.000    119.000
      57     33.000    107.800
      58     33.000    107.800
      59     33.000    107.800
      60     74.000    108.900
      61     33.000    107.800
      62     37.500    110.700
      63     33.000    107.800
      64     58.350    112.700
      65     37.500    110.700
      66     33.000    107.800
      67     37.500    110.700
      68     33.000    107.800
      69     50.000    108.600
      70     33.000    107.800
      71     37.500    110.700
      72     33.000    107.800
      73     37.500    110.700
      74     37.500    110.700
      75     33.000    107.800
      76     33.000    107.800
      77     37.500    110.700
      78     37.500    110.700
      79     37.500    110.700
      80     33.000    107.800
      81     33.000    107.800
      82     37.500    110.700
      83     37.500    110.700
      84     33.000    107.800
      85     37.500    110.700
      86     37.500    110.700
      87     33.000    107.800
      88     58.350    112.700
      89     33.000    107.800
      90     74.000    108.900

Dihedral Coeffs  

       1      1.300     -0.200      0.200      0.000 
       2      1.300     -0.200      0.200      0.000 
       3      1.300     -0.200      0.200      0.000 
       4      1.300     -0.200      0.200      0.000 
       5      1.300     -0.200      0.200      0.000 
       6      1.300     -0.200      0.200      0.000 
       7      1.300     -0.200      0.200      0.000 
       8      1.300     -0.200      0.200      0.000 
       9      0.000      0.000      0.300      0.000 
      10      0.000      0.000      0.300      0.000 
      11      0.000      0.000      0.300      0.000 
      12      0.000      0.000      0.300      0.000 
      13      0.000      0.000      0.300      0.000 
      14      0.000      0.000      0.300      0.000 
      15      0.000      0.000      0.300      0.000 
      16      0.000      0.000      0.300      0.000 
      17      0.000      0.000      0.300      0.000 
      18      0.000      0.000      0.000      0.000 
      19      0.000      0.000      0.300      0.000 
      20      0.000      0.000      0.300      0.000 
      21      0.000      0.000      0.452      0.000 
      22      1.262     -0.198      0.465      0.000 
      23      0.000      0.000      0.300      0.000 
      24      0.000      0.000      0.300      0.000 
      25      0.000      0.000      0.300      0.000 
      26      0.000      0.000      0.300      0.000 
      27      0.000      0.000      0.300      0.000 
      28      0.000      0.000      0.452      0.000 
      29      0.000      0.000      0.300      0.000 
      30      0.000      0.000      0.300      0.000 
      31      1.300     -0.200      0.200      0.000 
      32      0.000      0.000      0.300      0.000 
      33      0.000      0.000      0.300      0.000 
      34      0.000      0.000      0.300      0.000 
      35      0.000      0.000      0.452      0.000 
      36      0.000      0.000      0.000      0.000 
      37      0.000      0.000      0.452      0.000 
      38      0.000      0.000      0.300      0.000 
      39      0.000      0.000      0.300      0.000 
      40      1.262     -0.198      0.465      0.000 
      41      0.000      0.000      0.000      0.000 
      42      1.300     -0.200      0.200      0.000 
      43      0.000      0.000      0.350      0.000 
      44      0.000      0.000      0.000      0.000 
      45      0.000      0.000      0.000      0.000 
      46      0.000      0.000      0.300      0.000 
      47      0.000      0.000      0.300      0.000 
      48      0.000      0.000      0.300      0.000 
      49      0.000      0.000      0.452      0.000 
      50      0.000      0.000      0.300      0.000 
      51      0.000      0.000      0.452      0.000 
      52      0.000      0.000      0.300      0.000 
      53      0.000      0.000      0.300      0.000 
      54      0.000      0.000      0.300      0.000 
      55      0.000      0.000      0.300      0.000 
      56      0.000      0.000      0.300      0.000 
      57      1.300     -0.200      0.200      0.000 
      58      0.000      0.000      0.300      0.000 
      59      0.000      0.000      0.000      0.000 
      60      0.000      0.000      0.300      0.000 
      61      0.000      0.000      0.300      0.000 
      62      1.300     -0.200      0.200      0.000 
      63      0.000      0.000      0.300      0.000 
      64      0.000      0.000      0.452      0.000 
      65      0.000      0.000      0.300      0.000 
      66      0.000      0.000      0.300      0.000 
      67      0.000      0.000      0.300      0.000 
      68      0.000      0.000      0.300      0.000 
      69      0.000      0.000      0.300      0.000 
      70      0.000      0.000      0.300      0.000 
      71      0.000      0.000      0.000      0.000 
      72      0.000      0.000      0.300      0.000 
      73      0.000      0.000      0.300      0.000 
      74      0.000      0.000      0.300      0.000 
      75      0.000      0.000      0.300      0.000 
      76      0.000      0.000      0.000      0.000 
      77      0.000      0.000      0.350      0.000 
      78      0.000      0.000      0.300      0.000 
      79      0.000      0.000      0.300      0.000 
      80      0.000      0.000      0.300      0.000 
      81      0.000      0.000      0.300      0.000 
      82      0.000      0.000      0.452      0.000 
      83      0.000      0.000      0.300      0.000 
      84      0.000      0.000      0.300      0.000 
      85      0.000      0.000      0.000      0.000 
      86      0.000      0.000      0.300      0.000 
      87      0.000      0.000      0.300      0.000 
      88      0.000      0.000      0.300      0.000 
      89      0.000      0.000      0.300      0.000 
      90      0.000      0.000      0.300      0.000 
      91      0.000      0.000      0.300      0.000 
      92      0.000      0.000      0.300      0.000 
      93      0.000      0.000      0.300      0.000 
      94      0.000      0.000      0.300      0.000 
      95      0.000      0.000      0.300      0.000 
      96      1.300     -0.200      0.200      0.000 
      97      0.000      0.000      0.300      0.000 
      98      1.300     -0.200      0.200      0.000 
      99      0.000      0.000      0.000      0.000 
     100      0.000      0.000      0.300      0.000 
     101      0.000      0.000      0.300      0.000 
     102      0.000      0.000      0.300      0.000 
     103      0.000      0.000      0.300      0.000 
     104      0.000      0.000      0.300      0.000 
     105      0.000      0.000      0.000      0.000 
     106      0.000      0.000      0.300      0.000 
     107      0.000      0.000      0.000      0.000 
     108      0.000      0.000      0.300      0.000 
     109      0.000      0.000      0.000      0.000 
     110      0.000      0.000      0.300      0.000 
     111      0.000      0.000      0.000      0.000 
     112      0.000      0.000      0.300      0.000 
     113      0.000      0.000      0.350      0.000 
     114      0.000      0.000      0.300      0.000 
     115      0.000      0.000      0.300      0.000 
     116      0.000      0.000      0.300      0.000 
     117      0.000      0.000      0.300      0.000 
     118      0.000      0.000      0.300      0.000 
     119      0.000      0.000      0.300      0.000 
     120      0.000      0.000      0.300      0.000 
     121      0.000      0.000      0.300      0.000 
     122      1.300     -0.200      0.200      0.000 
     123      0.000      0.000      0.300      0.000 
     124      0.000      0.000      0.300      0.000 
     125      0.000      0.000      0.452      0.000 
     126      1.262     -0.198      0.465      0.000 
     127      0.000      0.000      0.000      0.000 
     128      0.000      0.000      0.300      0.000 
     129      0.000      0.000      0.300      0.000 
     130      0.000      0.000      0.300      0.000 
     131      0.000      0.000      0.452      0.000 
     132      0.000      0.000      0.300      0.000 
     133      0.000      0.000      0.452      0.000 
     134      0.000      0.000      0.300      0.000 
     135      0.000      0.000      0.452      0.000 

Improper Coeffs 

       1      0.000      -1       2 
       2      0.000      -1       2 
       3      0.000      -1       2 
       4      0.000      -1       2 
       5      0.000      -1       2 
       6      0.000      -1       2 
       7      0.000      -1       2 
       8      0.000      -1       2 
       9      0.000      -1       2 
      10      0.000      -1       2 
      11      0.000      -1       2 
      12      0.000      -1       2 
      13      0.000      -1       2 
      14      0.000      -1       2 
      15      0.000      -1       2 
      16      0.000      -1       2 
      17      0.000      -1       2 
      18      0.000      -1       2 
      19      0.000      -1       2 
      20      0.000      -1       2 
      21      0.000      -1       2 
      22      0.000      -1       2 
      23      0.000      -1       2 
      24      0.000      -1       2 
      25      0.000      -1       2 
      26      0.000      -1       2 
      27      0.000      -1       2 
      28      0.000      -1       2 
      29      0.000      -1       2 

Atoms 

     1      1      1 -0.23480000    1.000  1.00000  0.00000
     2      1      2 -0.17670000   -0.519  1.00000  0.00000
     3      1      3 -0.08390000   -1.225  1.00000  1.38475
     4      1      4 -0.17350000   -0.943  2.25000  2.23791
     5      1      5 -0.23590000    0.497  2.58033  2.59056
     6      1      6 -0.15150000   -2.755  0.79646  1.09188
     7      1      7 -0.27500000   -3.823  0.73594  2.23497
     8      1      8 -0.22520000   -3.512 -0.43772  3.17783
     9      1      9 -0.17170000   -4.036  2.03032  3.05163
    10      1     10 -0.13440000   -4.327  3.26128  2.17758
    11      1     11 -0.23250000   -4.191  4.54145  3.00128
    12      1     12 -0.15040000   -5.723  3.15213  1.54602
    13      1     13 -0.41350000   -5.868  1.93901  0.61703
    14      1     14 -0.21420000   -7.275  1.88678  0.02443
    15      1     15 1.25390000   -5.484  0.39356  1.45759
    16      1     16 -0.57500000   -5.324 -0.62911  0.44022
    17      1     17 -0.57500000   -6.462  0.21540  2.51622
    18      1     18 0.08250000    1.372  0.68007 -0.98023
    19      1     19 0.08250000    1.405  0.31687  0.75242
    20      1     20 0.08250000    1.405  2.00070  0.15976
    21      1     21 0.08720000   -0.829  0.09488 -0.53846
    22      1     22 0.08720000   -0.872  1.85007 -0.59787
    23      1     23 0.10050000   -0.867  0.12233  1.93855
    24      1     24 0.08660000   -1.407  2.08957  3.20809
    25      1     25 0.08660000   -1.401  3.13269  1.78044
    26      1     26 0.08170000    1.084  1.68068  2.79099
    27      1     27 0.08170000    0.518  3.19777  3.49645
    28      1     28 0.08170000    0.974  3.17420  1.80777
    29      1     29 0.09880000   -2.828 -0.15730  0.54815
    30      1     30 0.09880000   -3.054  1.54846  0.35376
    31      1     31 0.10650000   -2.539 -0.31309  3.66172
    32      1     32 0.10650000   -3.503 -1.38869  2.63295
    33      1     33 0.10650000   -4.264 -0.52639  3.96999
    34      1     34 0.11870000   -3.196  2.22085  3.72227
    35      1     35 0.11870000   -4.877  1.89421  3.74605
    36      1     36 0.10840000   -3.592  3.34009  1.37130
    37      1     37 0.08830000   -4.908  4.56591  3.82752
    38      1     38 0.08830000   -4.355  5.42333  2.37356
    39      1     39 0.08830000   -3.181  4.61965  3.42113
    40      1     40 0.11350000   -5.924  4.06479  0.97023
    41      1     41 0.11350000   -6.479  3.10974  2.34139
    42      1     42 0.15710000   -5.154  2.02141 -0.20919
    43      1     43 0.10560000   -8.037  1.82532  0.80834
    44      1     44 0.10560000   -7.396  1.01433 -0.62537
    45      1     45 0.10560000   -7.475  2.78377 -0.57196

Bonds 

     1      1      2      1
     2      2      3      2
     3      3      4      3
     4      4      5      4
     5      5      6      3
     6      6      7      6
     7      7      8      7
     8      8      9      7
     9      9     10      9
    10     10     11     10
    11     11     12     10
    12     12     13     12
    13     13     14     13
    14     14     15      7
    15     15     16     15
    16     16     17     15
    17     17     18      1
    18     18     19      1
    19     19     20      1
    20     20     21      2
    21     21     22      2
    22     22     23      3
    23     23     24      4
    24     24     25      4
    25     25     26      5
    26     26     27      5
    27     27     28      5
    28     28     29      6
    29     29     30      6
    30     30     31      8
    31     31     32      8
    32     32     33      8
    33     33     34      9
    34     34     35      9
    35     35     36     10
    36     36     37     11
    37     37     38     11
    38     38     39     11
    39     39     40     12
    40     40     41     12
    41     41     42     13
    42     42     43     14
    43     43     44     14
    44     44     45     14
    45     45     15     13

Angles 

     1      1      1      2      3
     2      2      2      3      4
     3      3      3      4      5
     4      4      2      3      6
     5      5      3      6      7
     6      6      6      7      8
     7      7      6      7      9
     8      8      7      9     10
     9      9      9     10     11
    10     10      9     10     12
    11     11     10     12     13
    12     12     12     13     14
    13     13      6      7     15
    14     14      7     15     16
    15     15      7     15     17
    16     16      2      1     18
    17     17      2      1     19
    18     18      2      1     20
    19     19      1      2     21
    20     20      1      2     22
    21     21      2      3     23
    22     22      3      4     24
    23     23      3      4     25
    24     24      4      5     26
    25     25      4      5     27
    26     26      4      5     28
    27     27      3      6     29
    28     28      3      6     30
    29     29      7      8     31
    30     30      7      8     32
    31     31      7      8     33
    32     32      7      9     34
    33     33      7      9     35
    34     34      9     10     36
    35     35     10     11     37
    36     36     10     11     38
    37     37     10     11     39
    38     38     10     12     40
    39     39     10     12     41
    40     40     12     13     42
    41     41     13     14     43
    42     42     13     14     44
    43     43     13     14     45
    44     44     15     13     42
    45     45     11     10     12
    46     46     31      8     32
    47     47     40     12     41
    48     48      8      7     15
    49     49     43     14     44
    50     50      7     15     13
    51     51     14     13     15
    52     52     37     11     39
    53     53      4      3     23
    54     54     11     10     36
    55     55     12     13     15
    56     56     16     15     17
    57     57     43     14     45
    58     58     38     11     39
    59     59     44     14     45
    60     60     13     15     17
    61     61     24      4     25
    62     62      5      4     24
    63     63     27      5     28
    64     64      8      7      9
    65     65     14     13     42
    66     66     18      1     19
    67     67      5      4     25
    68     68     21      2     22
    69     69      9      7     15
    70     70     32      8     33
    71     71      6      3     23
    72     72     26      5     28
    73     73      7      6     29
    74     74     10      9     35
    75     75     29      6     30
    76     76     18      1     20
    77     77     12     10     36
    78     78     13     12     40
    79     79     13     12     41
    80     80     34      9     35
    81     81     37     11     38
    82     82      3      2     21
    83     83      7      6     30
    84     84     31      8     33
    85     85     10      9     34
    86     86      3      2     22
    87     87     26      5     27
    88     88      4      3      6
    89     89     19      1     20
    90     90     13     15     16

Dihedrals

     1      1      4      3      2      1 
     2      2      5      4      3      2 
     3      3      7      6      3      2 
     4      4      8      7      6      3 
     5      5     10      9      7      6 
     6      6     11     10      9      7 
     7      7     13     12     10      9 
     8      8     14     13     12     10 
     9      9     18      1      2      3 
    10     10     26      5      4      3 
    11     11     31      8      7      6 
    12     12     37     11     10      9 
    13     13     43     14     13     12 
    14     14     36     10      9      7 
    15     15     38     11     10      9 
    16     16     35      9     10     11 
    17     17     34      9     10     12 
    18     18     13     15      7      8 
    19     19     31      8      7      9 
    20     20     30      6      3      2 
    21     21     30      6      7     15 
    22     22     15     13     12     10 
    23     23     35      9      7      8 
    24     24     24      4      3     23 
    25     25     40     12     10      9 
    26     26     19      1      2      3 
    27     27     38     11     10     36 
    28     28     45     14     13     15 
    29     29     40     12     10     36 
    30     30     39     11     10     12 
    31     31     13     12     10     11 
    32     32     23      3      6      7 
    33     33     28      5      4      3 
    34     34     23      3      4      5 
    35     35     31      8      7     15 
    36     36     14     13     15      7 
    37     37     29      6      7     15 
    38     38     39     11     10     36 
    39     39     34      9      7      6 
    40     40     15      7      6      3 
    41     41     16     15     13     14 
    42     42     10      9      7      8 
    43     43     42     13     15     16 
    44     44     17     15      7      8 
    45     45     16     15      7      9 
    46     46     23      3      2     22 
    47     47     22      2      1     18 
    48     48     44     14     13     12 
    49     49     32      8      7     15 
    50     50     23      3      2      1 
    51     51     33      8      7     15 
    52     52     26      5      4     24 
    53     53     21      2      3      6 
    54     54     34      9     10     11 
    55     55     29      6      7      9 
    56     56     30      6      7      8 
    57     57      9      7      6      3 
    58     58     22      2      1     20 
    59     59     16     15     13     12 
    60     60     35      9     10     12 
    61     61     22      2      1     19 
    62     62     12     10      9      7 
    63     63     25      4      3      6 
    64     64     44     14     13     15 
    65     65     22      2      3      6 
    66     66     27      5      4     25 
    67     67     28      5      4     24 
    68     68     39     11     10      9 
    69     69     45     14     13     42 
    70     70     42     13     12     10 
    71     71     13     15      7      6 
    72     72     43     14     13     42 
    73     73     33      8      7      6 
    74     74     36     10      9     35 
    75     75     32      8      7      6 
    76     76     17     15      7      9 
    77     77     42     13     15      7 
    78     78     29      6      3      4 
    79     79     21      2      1     20 
    80     80     36     10     12     13 
    81     81     30      6      3     23 
    82     82     41     12     13     15 
    83     83     21      2      1     19 
    84     84     37     11     10     36 
    85     85     17     15      7      6 
    86     86     30      6      7      9 
    87     87     29      6      7      8 
    88     88     24      4      3      2 
    89     89     41     12     10     11 
    90     90     42     13     12     40 
    91     91     25      4      3     23 
    92     92     36     10      9     34 
    93     93     44     14     13     42 
    94     94     32      8      7      9 
    95     95     29      6      3      2 
    96     96      6      3      4      5 
    97     97     27      5      4     24 
    98     98      7      6      3      4 
    99     99     12     13     15      7 
   100    100     42     13     12     41 
   101    101     41     12     10      9 
   102    102     35      9      7      6 
   103    103     40     12     13     14 
   104    104     23      3      2     21 
   105    105     17     15     13     14 
   106    106     21      2      3      4 
   107    107     17     15     13     12 
   108    108     33      8      7      9 
   109    109     13     15      7      9 
   110    110     20      1      2      3 
   111    111     16     15      7      6 
   112    112     28      5      4     25 
   113    113     42     13     15     17 
   114    114     40     12     10     11 
   115    115     29      6      3     23 
   116    116     27      5      4      3 
   117    117     45     14     13     12 
   118    118     30      6      3      4 
   119    119     22      2      3      4 
   120    120     37     11     10     12 
   121    121     24      4      3      6 
   122    122      6      3      2      1 
   123    123     25      4      3      2 
   124    124     41     12     13     14 
   125    125     40     12     13     15 
   126    126     15      7      9     10 
   127    127     16     15      7      8 
   128    128     41     12     10     36 
   129    129     26      5      4     25 
   130    130     34      9      7      8 
   131    131     43     14     13     15 
   132    132     38     11     10     12 
   133    133     35      9      7     15 
   134    134     21      2      1     18 
   135    135     34      9      7     15 

Impropers

     1      1      3      2      4      6 
     2      2      7      9      6      8 
     3      3     10      9     11     12 
     4      4      7      8     15      6 
     5      5     15     13      7     16 
     6      6     15     17     13      7 
     7      7      1      2     19     18 
     8      8      1      2     20     18 
     9      9      2      1      3     21 
    10     10      2      1      3     22 
    11     11      3      2      4     23 
    12     12      4      3      5     24 
    13     13      4     25      3      5 
    14     14      5     26     27      4 
    15     15      5      4     26     28 
    16     16      6      3     29      7 
    17     17      6      3     30      7 
    18     18      8     31      7     32 
    19     19      8     33     31      7 
    20     20      9     34      7     10 
    21     21      9     10     35      7 
    22     22     10      9     11     36 
    23     23     11     10     37     38 
    24     24     11     10     37     39 
    25     25     12     10     13     40 
    26     26     12     41     10     13 
    27     27     13     42     12     14 
    28     28     14     43     44     13 
    29     29     14     13     43     45 

