LAMMPS data file Created by LigParGen - (Written by Leela S. Dodda)

      35 atoms
      34 bonds
      60 angles
      73 dihedrals
      19 impropers
 
      35 atom types
      34 bond types
      60 angle types
      73 dihedral types
      19 improper types
 
   -7.282030    42.717970 xlo xhi
    0.076420    50.076420 ylo yhi
   -6.625280    43.374720 zlo zhi

Masses

       1     12.011  
       2     12.011  
       3     12.011  
       4     15.999  
       5     15.999  
       6     12.011  
       7     15.999  
       8     15.999  
       9     12.011  
      10     12.011  
      11     12.011  
      12     15.999  
      13     12.011  
      14     12.011  
      15     12.011  
      16     12.011  
      17     15.999  
      18      1.008  
      19      1.008  
      20      1.008  
      21      1.008  
      22      1.008  
      23      1.008  
      24      1.008  
      25      1.008  
      26      1.008  
      27      1.008  
      28      1.008  
      29      1.008  
      30      1.008  
      31      1.008  
      32      1.008  
      33      1.008  
      34      1.008  
      35      1.008  

Pair Coeffs 

       1      0.066  3.5000000 
       2      0.066  3.5000000 
       3      0.070  3.5500000 
       4      0.210  2.9600000 
       5      0.140  2.9000000 
       6      0.070  3.5500000 
       7      0.210  2.9600000 
       8      0.140  2.9000000 
       9      0.066  3.5000000 
      10      0.066  3.5000000 
      11      0.066  3.5000000 
      12      0.140  2.9000000 
      13      0.066  3.5000000 
      14      0.066  3.5000000 
      15      0.066  3.5000000 
      16      0.070  3.5500000 
      17      0.210  2.9600000 
      18      0.030  2.5000000 
      19      0.030  2.5000000 
      20      0.030  2.5000000 
      21      0.030  2.5000000 
      22      0.030  2.5000000 
      23      0.030  2.5000000 
      24      0.030  2.5000000 
      25      0.030  2.5000000 
      26      0.030  2.5000000 
      27      0.030  2.5000000 
      28      0.030  2.5000000 
      29      0.030  2.5000000 
      30      0.030  2.5000000 
      31      0.030  2.5000000 
      32      0.030  2.5000000 
      33      0.030  2.5000000 
      34      0.030  2.5000000 
      35      0.030  2.5000000 

Bond Coeffs 

       1   268.0000     1.5290 
       2   317.0000     1.5220 
       3   570.0000     1.2290 
       4   320.0000     1.4100 
       5   214.0000     1.3270 
       6   570.0000     1.2290 
       7   214.0000     1.3270 
       8   320.0000     1.3800 
       9   268.0000     1.5290 
      10   268.0000     1.5290 
      11   320.0000     1.3800 
      12   320.0000     1.4100 
      13   268.0000     1.5290 
      14   268.0000     1.5290 
      15   317.0000     1.5220 
      16   570.0000     1.2290 
      17   340.0000     1.0900 
      18   340.0000     1.0900 
      19   340.0000     1.0900 
      20   340.0000     1.0900 
      21   340.0000     1.0900 
      22   340.0000     1.0900 
      23   340.0000     1.0900 
      24   340.0000     1.0900 
      25   340.0000     1.0900 
      26   340.0000     1.0900 
      27   340.0000     1.0900 
      28   340.0000     1.0900 
      29   340.0000     1.0900 
      30   340.0000     1.0900 
      31   340.0000     1.0900 
      32   340.0000     1.0900 
      33   340.0000     1.0900 
      34   340.0000     1.0900 

Angle Coeffs 

       1     63.000    111.100
       2     80.000    120.400
       3     50.000    109.500
       4     83.000    116.900
       5     83.000    123.400
       6     69.900    118.180
       7     83.000    116.900
       8     50.000    109.500
       9     50.000    109.500
      10     92.600    111.550
      11     60.000    109.500
      12     50.000    109.500
      13     50.000    109.500
      14     50.000    109.500
      15     80.000    120.400
      16     37.500    110.700
      17     37.500    110.700
      18     37.500    110.700
      19     37.500    110.700
      20     35.000    115.000
      21     37.500    110.700
      22     37.500    110.700
      23     37.500    110.700
      24     37.500    110.700
      25     37.500    110.700
      26     37.500    110.700
      27     37.500    110.700
      28     37.500    110.700
      29     37.500    110.700
      30     37.500    110.700
      31     37.500    110.700
      32     37.500    110.700
      33     35.000    115.000
      34     35.000    109.500
      35     35.000    123.000
      36     33.000    107.800
      37     35.000    109.500
      38     63.000    111.100
      39     33.000    107.800
      40     33.000    107.800
      41     50.000    109.500
      42     35.000    123.000
      43     58.350    112.700
      44     50.000    109.500
      45     58.350    112.700
      46     33.000    107.800
      47     33.000    107.800
      48     33.000    107.800
      49     33.000    107.800
      50     33.000    107.800
      51     50.000    109.500
      52     33.000    107.800
      53     83.000    123.400
      54     33.000    107.800
      55     33.000    107.800
      56     63.000    111.100
      57     33.000    107.800
      58     33.000    107.800
      59     33.000    107.800
      60     33.000    107.800

Dihedral Coeffs  

       1      0.000      0.000      0.000      0.000 
       2     -1.220     -0.126      0.422      0.000 
       3      0.000      5.124      0.000      0.000 
       4      4.669      5.124      0.000      0.000 
       5      0.650     -0.250      0.670      0.000 
       6     -0.375     -1.358      0.004      0.000 
       7      0.650     -0.250      0.670      0.000 
       8      0.000      0.000      0.000      0.000 
       9      0.000      0.000     -0.100      0.000 
      10      0.000      0.000      0.468      0.000 
      11      0.000      0.000      0.468      0.000 
      12      0.000      0.000      0.468      0.000 
      13      0.000      0.000      0.468      0.000 
      14      0.000      0.000      0.000      0.000 
      15      0.000      0.000      0.300      0.000 
      16      0.000      0.000     -0.100      0.000 
      17      0.000      0.000      0.468      0.000 
      18      0.000      0.000      0.300      0.000 
      19      0.000      0.000      0.468      0.000 
      20      0.000      0.000      0.468      0.000 
      21      0.000      5.124      0.000      0.000 
      22      0.000      0.000      0.300      0.000 
      23      0.000      0.000      0.468      0.000 
      24      0.000      0.000     -0.100      0.000 
      25      0.000      0.000      0.468      0.000 
      26      4.669      5.124      0.000      0.000 
      27      0.000      0.000      0.468      0.000 
      28      0.000      0.000      0.300      0.000 
      29      0.000      0.000      0.300      0.000 
      30      0.650     -0.250      0.670      0.000 
      31      0.000      0.000     -0.100      0.000 
      32      0.000      0.000      0.468      0.000 
      33      0.000      0.000      0.468      0.000 
      34      0.000      0.000      0.468      0.000 
      35      0.000      0.000      0.000      0.000 
      36      0.650     -0.250      0.670      0.000 
      37      0.000      0.000      0.300      0.000 
      38      0.000      0.000      0.468      0.000 
      39      0.000      0.000      0.000      0.000 
      40      0.650     -0.250      0.670      0.000 
      41      0.000      0.000      0.468      0.000 
      42      0.000      0.000      0.300      0.000 
      43      0.000      0.000     -0.100      0.000 
      44      0.000      0.000      0.300      0.000 
      45      0.000      0.000      0.300      0.000 
      46      0.000      0.000      0.468      0.000 
      47      0.000      0.000      0.198      0.000 
      48      0.000      0.000     -0.100      0.000 
      49      0.000      0.000      0.000      0.000 
      50      0.000      0.000      0.300      0.000 
      51      0.000      0.000      0.468      0.000 
      52      0.000      0.000      0.468      0.000 
      53      0.000      0.000      0.000      0.000 
      54      0.000      0.000      0.300      0.000 
      55      0.000      0.000      0.300      0.000 
      56      0.650     -0.250      0.670      0.000 
      57     -1.220     -0.126      0.422      0.000 
      58      0.650     -0.250      0.670      0.000 
      59      0.000      0.000      0.360      0.000 
      60      0.000      0.000      0.468      0.000 
      61     -0.375     -1.358      0.004      0.000 
      62      0.000      0.000      0.468      0.000 
      63      0.000      0.000      0.468      0.000 
      64      0.000      0.000      0.000      0.000 
      65      0.000      0.000     -0.100      0.000 
      66      0.000      0.000      0.300      0.000 
      67      0.000      0.000      0.000      0.000 
      68      0.000      0.000      0.468      0.000 
      69      0.000      0.000     -0.100      0.000 
      70      0.000      0.000     -0.100      0.000 
      71      0.000      0.000      0.468      0.000 
      72      0.000      0.000      0.300      0.000 
      73      0.000      0.000      0.300      0.000 

Improper Coeffs 

       1      0.000      -1       2 
       2     10.500      -1       2 
       3      0.000      -1       2 
       4      0.000      -1       2 
       5      0.000      -1       2 
       6      0.000      -1       2 
       7      0.000      -1       2 
       8      0.000      -1       2 
       9      0.000      -1       2 
      10     10.500      -1       2 
      11      0.000      -1       2 
      12      0.000      -1       2 
      13      0.000      -1       2 
      14      0.000      -1       2 
      15      0.000      -1       2 
      16      0.000      -1       2 
      17      0.000      -1       2 
      18      0.000      -1       2 
      19     10.500      -1       2 

Atoms 

     1      1      1 -0.26060000    1.000  1.00000  0.00000
     2      1      2 0.00010000   -0.520  1.00000  0.00000
     3      1      3 0.31330000   -1.046  1.00000  1.41494
     4      1      4 -0.41490000   -1.836  0.16195  1.84098
     5      1      5 -0.30560000   -1.063  2.18742 -0.60381
     6      1      6 0.59770000   -1.578  1.96026 -1.84339
     7      1      7 -0.49670000   -1.346  0.95271 -2.49573
     8      1      8 -0.33450000   -2.447  2.95673 -2.18237
     9      1      9 0.37980000   -3.317  2.72166 -3.34286
    10      1     10 -0.30400000   -2.430  2.57848 -4.58801
    11      1     11 -0.30500000   -4.187  1.50088 -3.00769
    12      1     12 -0.40910000   -4.161  3.89685 -3.48593
    13      1     13 0.10780000   -5.201  4.04732 -4.47952
    14      1     14 -0.27120000   -4.727  3.99078 -5.93457
    15      1     15 -0.27070000   -6.418  3.13728 -4.27297
    16      1     16 0.33250000   -5.714  5.48436 -4.26197
    17      1     17 -0.43850000   -6.611  6.00766 -4.91658
    18      1     18 0.10930000    1.383  0.10376  0.50293
    19      1     19 0.10930000    1.404  1.87482  0.51908
    20      1     20 0.10930000    1.392  1.01282 -1.02210
    21      1     21 0.16130000   -0.883  0.07642 -0.46965
    22      1     22 0.12750000   -0.677  1.81116  2.06394
    23      1     23 0.11590000   -1.506  2.02205 -4.43566
    24      1     24 0.11590000   -2.112  3.56777 -4.93688
    25      1     25 0.11590000   -2.954  2.07009 -5.39781
    26      1     26 0.11460000   -3.652  0.68472 -2.51873
    27      1     27 0.11460000   -4.645  1.07476 -3.90006
    28      1     28 0.11460000   -4.978  1.78941 -2.30450
    29      1     29 0.10570000   -4.549  2.96349 -6.26101
    30      1     30 0.10570000   -3.807  4.56595 -6.07674
    31      1     31 0.10570000   -5.478  4.39370 -6.62528
    32      1     32 0.10580000   -6.226  2.11496 -4.60569
    33      1     33 0.10580000   -7.282  3.47796 -4.85580
    34      1     34 0.10580000   -6.714  3.10281 -3.21969
    35      1     35 0.13690000   -5.220  6.05068 -3.45548

Bonds 

     1      1      2      1
     2      2      3      2
     3      3      4      3
     4      4      5      2
     5      5      6      5
     6      6      7      6
     7      7      8      6
     8      8      9      8
     9      9     10      9
    10     10     11      9
    11     11     12      9
    12     12     13     12
    13     13     14     13
    14     14     15     13
    15     15     16     13
    16     16     17     16
    17     17     18      1
    18     18     19      1
    19     19     20      1
    20     20     21      2
    21     21     22      3
    22     22     23     10
    23     23     24     10
    24     24     25     10
    25     25     26     11
    26     26     27     11
    27     27     28     11
    28     28     29     14
    29     29     30     14
    30     30     31     14
    31     31     32     15
    32     32     33     15
    33     33     34     15
    34     34     35     16

Angles 

     1      1      1      2      3
     2      2      2      3      4
     3      3      1      2      5
     4      4      2      5      6
     5      5      5      6      7
     6      6      5      6      8
     7      7      6      8      9
     8      8      8      9     10
     9      9      8      9     11
    10     10      8      9     12
    11     11      9     12     13
    12     12     12     13     14
    13     13     12     13     15
    14     14     12     13     16
    15     15     13     16     17
    16     16      2      1     18
    17     17      2      1     19
    18     18      2      1     20
    19     19      1      2     21
    20     20      2      3     22
    21     21      9     10     23
    22     22      9     10     24
    23     23      9     10     25
    24     24      9     11     26
    25     25      9     11     27
    26     26      9     11     28
    27     27     13     14     29
    28     28     13     14     30
    29     29     13     14     31
    30     30     13     15     32
    31     31     13     15     33
    32     32     13     15     34
    33     33     13     16     35
    34     34      5      2     21
    35     35     17     16     35
    36     36     30     14     31
    37     37      3      2     21
    38     38     15     13     16
    39     39     27     11     28
    40     40     24     10     25
    41     41     11      9     12
    42     42      4      3     22
    43     43     10      9     11
    44     44     10      9     12
    45     45     14     13     15
    46     46     32     15     33
    47     47     23     10     25
    48     48     18      1     19
    49     49     29     14     31
    50     50     33     15     34
    51     51      3      2      5
    52     52     23     10     24
    53     53      7      6      8
    54     54     18      1     20
    55     55     29     14     30
    56     56     14     13     16
    57     57     26     11     27
    58     58     19      1     20
    59     59     26     11     28
    60     60     32     15     34

Dihedrals

     1      1      4      3      2      1 
     2      2      6      5      2      1 
     3      3      7      6      5      2 
     4      4      9      8      6      5 
     5      5     10      9      8      6 
     6      6     13     12      9      8 
     7      7     14     13     12      9 
     8      8     17     16     13     12 
     9      9     18      1      2      3 
    10     10     23     10      9      8 
    11     11     26     11      9      8 
    12     12     29     14     13     12 
    13     13     32     15     13     12 
    14     14     21      2      3      4 
    15     15     34     15     13     14 
    16     16     32     15     13     16 
    17     17     26     11      9     12 
    18     18     28     11      9     10 
    19     19     24     10      9      8 
    20     20     25     10      9     12 
    21     21      9      8      6      7 
    22     22     24     10      9     11 
    23     23     30     14     13     12 
    24     24     20      1      2      3 
    25     25     18      1      2      5 
    26     26      8      6      5      2 
    27     27     28     11      9     12 
    28     28     30     14     13     15 
    29     29     21      2      1     20 
    30     30     13     12      9     10 
    31     31     33     15     13     16 
    32     32     24     10      9     12 
    33     33     27     11      9     12 
    34     34     33     15     13     12 
    35     35     17     16     13     14 
    36     36     16     13     12      9 
    37     37     29     14     13     15 
    38     38     31     14     13     12 
    39     39     22      3      2      1 
    40     40     11      9      8      6 
    41     41     19      1      2      5 
    42     42     21      2      1     19 
    43     43     19      1      2      3 
    44     44     32     15     13     14 
    45     45     27     11      9     10 
    46     46     34     15     13     12 
    47     47     21      2      5      6 
    48     48     30     14     13     16 
    49     49     35     16     13     14 
    50     50     23     10      9     11 
    51     51     23     10      9     12 
    52     52     27     11      9      8 
    53     53     35     16     13     15 
    54     54     21      2      1     18 
    55     55     25     10      9     11 
    56     56     13     12      9     11 
    57     57      6      5      2      3 
    58     58     15     13     12      9 
    59     59     22      3      2     21 
    60     60     22      3      2      5 
    61     61     12      9      8      6 
    62     62     25     10      9      8 
    63     63     28     11      9      8 
    64     64     17     16     13     15 
    65     65     34     15     13     16 
    66     66     26     11      9     10 
    67     67      5      2      3      4 
    68     68     35     16     13     12 
    69     69     31     14     13     16 
    70     70     29     14     13     16 
    71     71     20      1      2      5 
    72     72     31     14     13     15 
    73     73     33     15     13     14 

Impropers

     1      1      2      1      3      5 
     2      2      6      5      7      8 
     3      3      9     10     11      8 
     4      4      9     10     12      8 
     5      5     13     12     14     15 
     6      6     13     12     14     16 
     7      7      1      2     19     18 
     8      8      1      2     20     18 
     9      9      2      1      3     21 
    10     10      3      2      4     22 
    11     11     10      9     23     24 
    12     12     10     25     23      9 
    13     13     11      9     26     27 
    14     14     11      9     26     28 
    15     15     14     29     13     30 
    16     16     14     29     13     31 
    17     17     15     33     13     32 
    18     18     15     34     13     32 
    19     19     16     17     35     13 

