LAMMPS data file Created by LigParGen - (Written by Leela S. Dodda)

      42 atoms
      42 bonds
      82 angles
     126 dihedrals
      26 impropers
 
      42 atom types
      42 bond types
      82 angle types
     126 dihedral types
      26 improper types
 
   -6.030590    43.969410 xlo xhi
   -1.100800    48.899200 ylo yhi
   -2.803720    47.196280 zlo zhi

Masses

       1     12.011  
       2     12.011  
       3     12.011  
       4     12.011  
       5     12.011  
       6     12.011  
       7     12.011  
       8     12.011  
       9     15.999  
      10     12.011  
      11     12.011  
      12     12.011  
      13     14.007  
      14     12.011  
      15     12.011  
      16     12.011  
      17     12.011  
      18      1.008  
      19      1.008  
      20      1.008  
      21      1.008  
      22      1.008  
      23      1.008  
      24      1.008  
      25      1.008  
      26      1.008  
      27      1.008  
      28      1.008  
      29      1.008  
      30      1.008  
      31      1.008  
      32      1.008  
      33      1.008  
      34      1.008  
      35      1.008  
      36      1.008  
      37      1.008  
      38      1.008  
      39      1.008  
      40      1.008  
      41      1.008  
      42      1.008  

Pair Coeffs 

       1      0.066  3.5000000 
       2      0.066  3.5000000 
       3      0.066  3.5000000 
       4      0.066  3.5000000 
       5      0.066  3.5000000 
       6      0.066  3.5000000 
       7      0.066  3.5000000 
       8      0.070  3.5500000 
       9      0.210  2.9600000 
      10      0.066  3.5000000 
      11      0.066  3.5000000 
      12      0.066  3.3000000 
      13      0.170  3.2000000 
      14      0.066  3.5000000 
      15      0.066  3.5000000 
      16      0.066  3.5000000 
      17      0.066  3.5000000 
      18      0.030  2.5000000 
      19      0.030  2.5000000 
      20      0.030  2.5000000 
      21      0.030  2.5000000 
      22      0.030  2.5000000 
      23      0.030  2.5000000 
      24      0.030  2.5000000 
      25      0.030  2.5000000 
      26      0.030  2.5000000 
      27      0.030  2.5000000 
      28      0.030  2.5000000 
      29      0.030  2.5000000 
      30      0.030  2.5000000 
      31      0.030  2.5000000 
      32      0.030  2.5000000 
      33      0.030  2.5000000 
      34      0.030  2.5000000 
      35      0.030  2.5000000 
      36      0.030  2.5000000 
      37      0.030  2.5000000 
      38      0.030  2.5000000 
      39      0.030  2.5000000 
      40      0.030  2.5000000 
      41      0.030  2.5000000 
      42      0.030  2.5000000 

Bond Coeffs 

       1   268.0000     1.5290 
       2   268.0000     1.5290 
       3   268.0000     1.5290 
       4   268.0000     1.5290 
       5   268.0000     1.5290 
       6   268.0000     1.5290 
       7   317.0000     1.5220 
       8   570.0000     1.2290 
       9   268.0000     1.5290 
      10   268.0000     1.5290 
      11   390.0000     1.4700 
      12   650.0000     1.1570 
      13   268.0000     1.5290 
      14   268.0000     1.5290 
      15   268.0000     1.5290 
      16   268.0000     1.5290 
      17   340.0000     1.0900 
      18   340.0000     1.0900 
      19   340.0000     1.0900 
      20   340.0000     1.0900 
      21   340.0000     1.0900 
      22   340.0000     1.0900 
      23   340.0000     1.0900 
      24   340.0000     1.0900 
      25   340.0000     1.0900 
      26   340.0000     1.0900 
      27   340.0000     1.0900 
      28   340.0000     1.0900 
      29   340.0000     1.0900 
      30   340.0000     1.0900 
      31   340.0000     1.0900 
      32   340.0000     1.0900 
      33   340.0000     1.0900 
      34   340.0000     1.0900 
      35   340.0000     1.0900 
      36   340.0000     1.0900 
      37   340.0000     1.0900 
      38   340.0000     1.0900 
      39   340.0000     1.0900 
      40   340.0000     1.0900 
      41   340.0000     1.0900 
      42   268.0000     1.5290 

Angle Coeffs 

       1     58.350    112.700
       2     58.350    112.700
       3     58.350    112.700
       4     58.350    112.700
       5     58.350    112.700
       6     63.000    111.100
       7     80.000    120.400
       8     58.350    112.700
       9     58.350    112.700
      10     58.350    112.700
      11    150.000    180.000
      12     58.350    112.700
      13     58.350    112.700
      14     58.350    112.700
      15     58.350    112.700
      16     37.500    110.700
      17     37.500    110.700
      18     37.500    110.700
      19     37.500    110.700
      20     37.500    110.700
      21     37.500    110.700
      22     37.500    110.700
      23     37.500    110.700
      24     37.500    110.700
      25     37.500    110.700
      26     37.500    110.700
      27     37.500    110.700
      28     37.500    110.700
      29     35.000    115.000
      30     37.500    110.700
      31     37.500    110.700
      32     37.500    110.700
      33     37.500    110.700
      34     37.500    110.700
      35     37.500    110.700
      36     37.500    110.700
      37     37.500    110.700
      38     37.500    110.700
      39     37.500    110.700
      40     37.500    110.700
      41     58.350    112.700
      42     33.000    107.800
      43     33.000    107.800
      44     37.500    110.700
      45     37.500    110.700
      46     58.350    112.700
      47     58.350    112.700
      48     35.000    108.500
      49     37.500    110.700
      50     35.000    109.500
      51     37.500    110.700
      52     37.500    110.700
      53     35.000    123.000
      54     37.500    110.700
      55     33.000    107.800
      56     37.500    110.700
      57     37.500    110.700
      58     33.000    107.800
      59     58.350    112.700
      60     58.350    112.700
      61     58.350    112.700
      62     35.000    109.500
      63     33.000    107.800
      64     33.000    107.800
      65     33.000    107.800
      66     33.000    107.800
      67     37.500    110.700
      68     58.350    112.700
      69     33.000    107.800
      70     33.000    107.800
      71     33.000    107.800
      72     58.350    112.700
      73     37.500    110.700
      74     37.500    110.700
      75     37.500    110.700
      76     33.000    107.800
      77     33.000    107.800
      78     33.000    107.800
      79     33.000    107.800
      80     35.000    108.500
      81     37.500    110.700
      82     37.500    110.700

Dihedral Coeffs  

       1      1.300     -0.200      0.200      0.000 
       2      1.300     -0.200      0.200      0.000 
       3      1.300     -0.200      0.200      0.000 
       4     -2.060     -0.313      0.315      0.000 
       5      0.000      0.000      0.000      0.000 
       6      1.300     -0.200      0.200      0.000 
       7      0.000     -0.650      0.000      0.000 
       8      0.000      0.000      0.000      0.000 
       9      1.300     -0.200      0.200      0.000 
      10      0.000      0.000      0.300      0.000 
      11      0.000      0.000      0.300      0.000 
      12      0.000      0.000      0.300      0.000 
      13      0.000      0.000      0.300      0.000 
      14      0.000      0.000      0.300      0.000 
      15      0.000      0.000     -0.100      0.000 
      16      0.000      0.000      0.300      0.000 
      17      0.000      0.000      0.300      0.000 
      18      0.000      0.000      0.300      0.000 
      19      0.000      0.000      0.300      0.000 
      20      0.000      0.000      0.300      0.000 
      21      0.000      0.000      0.300      0.000 
      22      1.300     -0.200      0.200      0.000 
      23      0.000      0.000      0.000      0.000 
      24      0.000      0.000      0.300      0.000 
      25      0.000      0.000      0.300      0.000 
      26      1.300     -0.200      0.200      0.000 
      27      0.000      0.000      0.300      0.000 
      28      1.300     -0.200      0.200      0.000 
      29      0.000      0.000      0.300      0.000 
      30      1.300     -0.200      0.200      0.000 
      31      0.000      0.000      0.300      0.000 
      32      0.000      0.000      0.300      0.000 
      33      0.000      0.000      0.300      0.000 
      34      0.000      0.000      0.300      0.000 
      35      0.000      0.000      0.300      0.000 
      36      0.000      0.000      0.300      0.000 
      37      0.000      0.000      0.300      0.000 
      38      0.000      0.000      0.300      0.000 
      39      0.000      0.000      0.300      0.000 
      40      0.000     -0.650      0.000      0.000 
      41      0.000      0.000      0.300      0.000 
      42     -2.060     -0.313      0.315      0.000 
      43      0.000      0.000      0.300      0.000 
      44      0.000      0.000      0.300      0.000 
      45      1.300     -0.200      0.200      0.000 
      46      1.300     -0.200      0.200      0.000 
      47      0.000      0.000      0.300      0.000 
      48      0.000      0.000      0.366      0.000 
      49      0.000      0.000      0.000      0.000 
      50      0.000      0.000      0.300      0.000 
      51      1.300     -0.200      0.200      0.000 
      52      0.000      0.000      0.300      0.000 
      53      0.000      0.000      0.300      0.000 
      54      1.300     -0.200      0.200      0.000 
      55      0.000      0.000      0.300      0.000 
      56      0.000      0.000      0.300      0.000 
      57      1.300     -0.200      0.200      0.000 
      58      0.000      0.000      0.300      0.000 
      59      1.300     -0.200      0.200      0.000 
      60      0.000      0.000      0.300      0.000 
      61      0.000      0.000      0.300      0.000 
      62      0.000      0.000      0.300      0.000 
      63      0.000      0.000      0.300      0.000 
      64      0.000      0.000      0.300      0.000 
      65      0.000      0.000      0.300      0.000 
      66      0.000      0.000      0.300      0.000 
      67      0.000      0.000      0.300      0.000 
      68      1.300     -0.200      0.200      0.000 
      69      0.000      0.000      0.300      0.000 
      70      0.000      0.000      0.360      0.000 
      71      0.000      0.000      0.000      0.000 
      72      1.300     -0.200      0.200      0.000 
      73      0.000      0.000      0.300      0.000 
      74      0.000      0.000      0.000      0.000 
      75      0.000      0.000      0.300      0.000 
      76      0.000      0.000      0.300      0.000 
      77      0.000      0.000      0.300      0.000 
      78      0.000      0.000      0.300      0.000 
      79      0.000      0.000      0.300      0.000 
      80      0.000      0.000      0.300      0.000 
      81      1.300     -0.200      0.200      0.000 
      82      0.000      0.000      0.300      0.000 
      83      1.300     -0.200      0.200      0.000 
      84      0.000      0.000      0.300      0.000 
      85      0.000      0.000      0.300      0.000 
      86      0.000      0.000      0.300      0.000 
      87      0.000      0.000      0.300      0.000 
      88      0.000      0.000      0.300      0.000 
      89      1.300     -0.200      0.200      0.000 
      90      0.000      0.000      0.300      0.000 
      91      0.000      0.000      0.300      0.000 
      92      0.000      0.000      0.300      0.000 
      93      0.000      0.000      0.300      0.000 
      94      0.000      0.000      0.300      0.000 
      95      0.000      0.000      0.300      0.000 
      96      0.000      0.000      0.300      0.000 
      97      0.000      0.000      0.300      0.000 
      98      0.000      0.000      0.360      0.000 
      99      0.000      0.000      0.300      0.000 
     100      0.000      0.000      0.300      0.000 
     101      0.000      0.000      0.300      0.000 
     102      0.000      0.000      0.300      0.000 
     103      0.000      0.000      0.000      0.000 
     104      0.000      0.000      0.300      0.000 
     105      0.000      0.000      0.300      0.000 
     106      0.000      0.000      0.300      0.000 
     107      0.000      0.000      0.300      0.000 
     108      1.300     -0.200      0.200      0.000 
     109      0.000      0.000      0.300      0.000 
     110      0.000      0.000      0.300      0.000 
     111      0.000      0.000      0.300      0.000 
     112      0.000      0.000      0.300      0.000 
     113      0.000      0.000      0.300      0.000 
     114      0.000      0.000      0.300      0.000 
     115      0.000      0.000      0.300      0.000 
     116      0.000      0.000      0.300      0.000 
     117      0.000      0.000      0.300      0.000 
     118      1.300     -0.200      0.200      0.000 
     119      0.000      0.000      0.300      0.000 
     120      0.000      0.000      0.300      0.000 
     121      0.000      0.000      0.300      0.000 
     122      0.000      0.000      0.300      0.000 
     123      1.300     -0.200      0.200      0.000 
     124      0.000      0.000      0.300      0.000 
     125      1.300     -0.200      0.200      0.000 
     126      0.000      0.000      0.300      0.000 

Improper Coeffs 

       1      0.000      -1       2 
       2      0.000      -1       2 
       3      0.000      -1       2 
       4      0.000      -1       2 
       5      0.000      -1       2 
       6      0.000      -1       2 
       7      0.000      -1       2 
       8      0.000      -1       2 
       9      0.000      -1       2 
      10      0.000      -1       2 
      11      0.000      -1       2 
      12      0.000      -1       2 
      13      0.000      -1       2 
      14      0.000      -1       2 
      15      0.000      -1       2 
      16      0.000      -1       2 
      17     10.500      -1       2 
      18      0.000      -1       2 
      19      0.000      -1       2 
      20      0.000      -1       2 
      21      0.000      -1       2 
      22      0.000      -1       2 
      23      0.000      -1       2 
      24      0.000      -1       2 
      25      0.000      -1       2 
      26      0.000      -1       2 

Atoms 

     1      1      1 -0.24080000    1.000  1.00000  0.00000
     2      1      2 -0.10400000   -0.543  1.00000  0.00000
     3      1      3 -0.16710000   -0.985  1.00000  1.47315
     4      1      4 -0.10230000   -2.475  1.06069  1.84670
     5      1      5 -0.23280000   -3.266 -0.20742  1.54227
     6      1      6 -0.08030000   -3.141  2.39177  1.41733
     7      1      7 -0.26750000   -4.237  2.80965  2.43128
     8      1      8 0.31480000   -3.689  3.04744  3.82113
     9      1      9 -0.43640000   -4.133  2.48912  4.81733
    10      1     10 -0.08220000   -3.638  2.49787 -0.06987
    11      1     11 -0.06840000   -5.126  2.09782 -0.27334
    12      1     12 0.15710000   -5.635  2.38076 -1.62758
    13      1     13 -0.38900000   -6.031  2.55145 -2.70426
    14      1     14 -0.09270000   -2.655  1.98831 -1.18857
    15      1     15 -0.23530000   -2.951  0.62370 -1.84626
    16      1     16 -0.09110000   -1.138  2.16799 -0.84529
    17      1     17 -0.23920000   -0.355  2.39020 -2.15805
    18      1     18 0.08260000    1.390  0.21783  0.66065
    19      1     19 0.08260000    1.397  1.96076  0.34457
    20      1     20 0.08260000    1.400  0.79032 -0.99725
    21      1     21 0.10230000   -0.824  0.03755 -0.43552
    22      1     22 0.08600000   -0.489  1.84610  1.97140
    23      1     23 0.08600000   -0.564  0.10362  1.95107
    24      1     24 0.08790000   -2.429  1.06803  2.94501
    25      1     25 0.08580000   -3.574 -0.28999  0.50508
    26      1     26 0.08580000   -4.181 -0.23582  2.14355
    27      1     27 0.08580000   -2.683 -1.10080  1.78601
    28      1     28 0.09800000   -2.363  3.16318  1.52561
    29      1     29 0.12220000   -5.025  2.05275  2.49927
    30      1     30 0.12220000   -4.691  3.75923  2.12457
    31      1     31 0.10750000   -2.853  3.76531  3.89325
    32      1     32 0.08490000   -3.647  3.59119 -0.23101
    33      1     33 0.12930000   -5.761  2.68597  0.40172
    34      1     34 0.12930000   -5.289  1.04925 -0.01727
    35      1     35 0.09150000   -2.851  2.69783 -2.00850
    36      1     36 0.08580000   -2.633 -0.23309 -1.25336
    37      1     37 0.08580000   -2.424  0.54659 -2.80372
    38      1     38 0.08580000   -4.007  0.47073 -2.06965
    39      1     39 0.09390000   -1.019  3.10080 -0.27866
    40      1     40 0.08450000   -0.305  1.47827 -2.75996
    41      1     41 0.08450000    0.666  2.72741 -1.95825
    42      1     42 0.08450000   -0.823  3.17431 -2.76468

Bonds 

     1      1      2      1
     2      2      3      2
     3      3      4      3
     4      4      5      4
     5      5      6      4
     6      6      7      6
     7      7      8      7
     8      8      9      8
     9      9     10      6
    10     10     11     10
    11     11     12     11
    12     12     13     12
    13     13     14     10
    14     14     15     14
    15     15     16      2
    16     16     17     16
    17     17     18      1
    18     18     19      1
    19     19     20      1
    20     20     21      2
    21     21     22      3
    22     22     23      3
    23     23     24      4
    24     24     25      5
    25     25     26      5
    26     26     27      5
    27     27     28      6
    28     28     29      7
    29     29     30      7
    30     30     31      8
    31     31     32     10
    32     32     33     11
    33     33     34     11
    34     34     35     14
    35     35     36     15
    36     36     37     15
    37     37     38     15
    38     38     39     16
    39     39     40     17
    40     40     41     17
    41     41     42     17
    42     42     16     14

Angles 

     1      1      1      2      3
     2      2      2      3      4
     3      3      3      4      5
     4      4      3      4      6
     5      5      4      6      7
     6      6      6      7      8
     7      7      7      8      9
     8      8      4      6     10
     9      9      6     10     11
    10     10     10     11     12
    11     11     11     12     13
    12     12      6     10     14
    13     13     10     14     15
    14     14      1      2     16
    15     15      2     16     17
    16     16      2      1     18
    17     17      2      1     19
    18     18      2      1     20
    19     19      1      2     21
    20     20      2      3     22
    21     21      2      3     23
    22     22      3      4     24
    23     23      4      5     25
    24     24      4      5     26
    25     25      4      5     27
    26     26      4      6     28
    27     27      6      7     29
    28     28      6      7     30
    29     29      7      8     31
    30     30      6     10     32
    31     31     10     11     33
    32     32     10     11     34
    33     33     10     14     35
    34     34     14     15     36
    35     35     14     15     37
    36     36     14     15     38
    37     37      2     16     39
    38     38     16     17     40
    39     39     16     17     41
    40     40     16     17     42
    41     41      5      4      6
    42     42     37     15     38
    43     43     33     11     34
    44     44      3      2     21
    45     45     17     16     39
    46     46     15     14     16
    47     47     11     10     14
    48     48     12     11     34
    49     49      5      4     24
    50     50      8      7     30
    51     51     16      2     21
    52     52      4      3     22
    53     53      9      8     31
    54     54      7      6     28
    55     55     29      7     30
    56     56     11     10     32
    57     57      4      3     23
    58     58     36     15     38
    59     59      3      2     16
    60     60      2     16     14
    61     61     14     16     17
    62     62      8      7     29
    63     63     26      5     27
    64     64     40     17     42
    65     65     25      5     26
    66     66     40     17     41
    67     67      6      4     24
    68     68      7      6     10
    69     69     18      1     20
    70     70     41     17     42
    71     71     22      3     23
    72     72     10     14     16
    73     73     10      6     28
    74     74     15     14     35
    75     75     16     14     35
    76     76     18      1     19
    77     77     25      5     27
    78     78     19      1     20
    79     79     36     15     37
    80     80     12     11     33
    81     81     14     10     32
    82     82     14     16     39

Dihedrals

     1      1      4      3      2      1 
     2      2      5      4      3      2 
     3      3      7      6      4      3 
     4      4      8      7      6      4 
     5      5      9      8      7      6 
     6      6     11     10      6      4 
     7      7     12     11     10      6 
     8      8     13     12     11     10 
     9      9     15     14     10      6 
    10     10     18      1      2      3 
    11     11     25      5      4      3 
    12     12     36     15     14     10 
    13     13     40     17     16      2 
    14     14     33     11     10     14 
    15     15     28      6      7      8 
    16     16     24      4      3     23 
    17     17     32     10     14     16 
    18     18     41     17     16     14 
    19     19     29      7      6      4 
    20     20     28      6     10     14 
    21     21     28      6      4      5 
    22     22     15     14     10     11 
    23     23     31      8      7      6 
    24     24     24      4      6     10 
    25     25     19      1      2      3 
    26     26     11     10      6      7 
    27     27     23      3      2     16 
    28     28     17     16      2      1 
    29     29     22      3      2     21 
    30     30     14     10      6      4 
    31     31     35     14     10     32 
    32     32     33     11     10      6 
    33     33     36     15     14     16 
    34     34     25      5      4      6 
    35     35     22      3      2     16 
    36     36     29      7      6     28 
    37     37     22      3      4      6 
    38     38     23      3      4      5 
    39     39     30      7      6     10 
    40     40     14     10     11     12 
    41     41     32     10     14     15 
    42     42     10      6      7      8 
    43     43     37     15     14     16 
    44     44     21      2      1     20 
    45     45     16      2      3      4 
    46     46     14     16      2      1 
    47     47     34     11     10     32 
    48     48     32     10     11     12 
    49     49     34     11     12     13 
    50     50     40     17     16     14 
    51     51     16     14     10      6 
    52     52     21      2     16     14 
    53     53     26      5      4     24 
    54     54      6      4      3      2 
    55     55     35     14     10     11 
    56     56     36     15     14     35 
    57     57     14     10      6      7 
    58     58     42     17     16     39 
    59     59     15     14     16      2 
    60     60     35     14     10      6 
    61     61     21      2      1     18 
    62     62     25      5      4     24 
    63     63     40     17     16     39 
    64     64     24      4      3     22 
    65     65     26      5      4      3 
    66     66     27      5      4      6 
    67     67     41     17     16     39 
    68     68     16     14     10     11 
    69     69     34     11     10     14 
    70     70     31      8      7     29 
    71     71     30      7      8      9 
    72     72     10      6      4      5 
    73     73     29      7      6     10 
    74     74     29      7      8      9 
    75     75     23      3      4      6 
    76     76     42     17     16     14 
    77     77     39     16      2      1 
    78     78     19      1      2     16 
    79     79     39     16     14     15 
    80     80     39     16      2     21 
    81     81     10      6      4      3 
    82     82     42     17     16      2 
    83     83     17     16      2      3 
    84     84     38     15     14     16 
    85     85     24      4      3      2 
    86     86     39     16     14     35 
    87     87     32     10      6     28 
    88     88     34     11     10      6 
    89     89     14     16      2      3 
    90     90     35     14     16      2 
    91     91     28      6     10     11 
    92     92     23      3      2      1 
    93     93     38     15     14     35 
    94     94     41     17     16      2 
    95     95     23      3      2     21 
    96     96     21      2      3      4 
    97     97     28      6      4      3 
    98     98     31      8      7     30 
    99     99     24      4      6      7 
   100    100     32     10      6      7 
   101    101     20      1      2      3 
   102    102     21      2     16     17 
   103    103     33     11     12     13 
   104    104     26      5      4      6 
   105    105     22      3      2      1 
   106    106     30      7      6      4 
   107    107     27      5      4      3 
   108    108     10     14     16      2 
   109    109     38     15     14     10 
   110    110     37     15     14     35 
   111    111     21      2      1     19 
   112    112     20      1      2     16 
   113    113     39     16     14     10 
   114    114     18      1      2     16 
   115    115     33     11     10     32 
   116    116     22      3      4      5 
   117    117     32     10      6      4 
   118    118     17     16     14     15 
   119    119     35     14     16     17 
   120    120     37     15     14     10 
   121    121     27      5      4     24 
   122    122     39     16      2      3 
   123    123     17     16     14     10 
   124    124     30      7      6     28 
   125    125      7      6      4      5 
   126    126     28      6      4     24 

Impropers

     1      1      4      3      5      6 
     2      2      6     10      4      7 
     3      3     10     11     14      6 
     4      4      2      1      3     16 
     5      5     16     17      2     14 
     6      6      1      2     19     18 
     7      7      1      2     20     18 
     8      8      2      1      3     21 
     9      9      3      2      4     22 
    10     10      3      2      4     23 
    11     11      4      3      5     24 
    12     12      5     25     26      4 
    13     13      5     25     27      4 
    14     14      6      4     28      7 
    15     15      7     29      6      8 
    16     16      7      8     30      6 
    17     17      8      9      7     31 
    18     18     10     11      6     32 
    19     19     11     33     10     12 
    20     20     11     34     12     10 
    21     21     14     10     35     15 
    22     22     15     36     37     14 
    23     23     15     36     38     14 
    24     24     16      2     14     39 
    25     25     17     41     40     16 
    26     26     17     42     40     16 

