LAMMPS data file Created by LigParGen - (Written by Leela S. Dodda)

      55 atoms
      54 bonds
     105 angles
     144 dihedrals
      35 impropers
 
      55 atom types
      54 bond types
     105 angle types
     144 dihedral types
      35 improper types
 
  -15.376290    34.623710 xlo xhi
   -1.177150    48.822850 ylo yhi
   -1.028040    48.971960 zlo zhi

Masses

       1     12.011  
       2     12.011  
       3     12.011  
       4     12.011  
       5     12.011  
       6     14.007  
       7     12.011  
       8     12.011  
       9     12.011  
      10     12.011  
      11     12.011  
      12     12.011  
      13     12.011  
      14     12.011  
      15     12.011  
      16     12.011  
      17     12.011  
      18     12.011  
      19      1.008  
      20      1.008  
      21      1.008  
      22      1.008  
      23      1.008  
      24      1.008  
      25      1.008  
      26      1.008  
      27      1.008  
      28      1.008  
      29      1.008  
      30      1.008  
      31      1.008  
      32      1.008  
      33      1.008  
      34      1.008  
      35      1.008  
      36      1.008  
      37      1.008  
      38      1.008  
      39      1.008  
      40      1.008  
      41      1.008  
      42      1.008  
      43      1.008  
      44      1.008  
      45      1.008  
      46      1.008  
      47      1.008  
      48      1.008  
      49      1.008  
      50      1.008  
      51      1.008  
      52      1.008  
      53      1.008  
      54      1.008  
      55      1.008  

Pair Coeffs 

       1      0.066  3.5000000 
       2      0.066  3.5000000 
       3      0.066  3.5000000 
       4      0.066  3.5000000 
       5      0.066  3.5000000 
       6      0.170  3.3000000 
       7      0.066  3.5000000 
       8      0.066  3.5000000 
       9      0.066  3.5000000 
      10      0.066  3.5000000 
      11      0.066  3.5000000 
      12      0.066  3.5000000 
      13      0.066  3.5000000 
      14      0.066  3.5000000 
      15      0.066  3.5000000 
      16      0.066  3.5000000 
      17      0.066  3.5000000 
      18      0.066  3.5000000 
      19      0.030  2.5000000 
      20      0.030  2.5000000 
      21      0.030  2.5000000 
      22      0.030  2.5000000 
      23      0.030  2.5000000 
      24      0.030  2.5000000 
      25      0.030  2.5000000 
      26      0.030  2.5000000 
      27      0.030  2.5000000 
      28      0.030  2.5000000 
      29      0.030  2.5000000 
      30      0.030  2.5000000 
      31      0.030  2.5000000 
      32      0.030  2.5000000 
      33      0.030  2.5000000 
      34      0.030  2.5000000 
      35      0.030  2.5000000 
      36      0.030  2.5000000 
      37      0.030  2.5000000 
      38      0.030  2.5000000 
      39      0.030  2.5000000 
      40      0.030  2.5000000 
      41      0.030  2.5000000 
      42      0.030  2.5000000 
      43      0.030  2.5000000 
      44      0.030  2.5000000 
      45      0.030  2.5000000 
      46      0.030  2.5000000 
      47      0.030  2.5000000 
      48      0.030  2.5000000 
      49      0.030  2.5000000 
      50      0.030  2.5000000 
      51      0.030  2.5000000 
      52      0.030  2.5000000 
      53      0.030  2.5000000 
      54      0.030  2.5000000 
      55      0.030  2.5000000 

Bond Coeffs 

       1   268.0000     1.5290 
       2   268.0000     1.5290 
       3   268.0000     1.5290 
       4   268.0000     1.5290 
       5   382.0000     1.4480 
       6   382.0000     1.4480 
       7   382.0000     1.4480 
       8   268.0000     1.5290 
       9   268.0000     1.5290 
      10   268.0000     1.5290 
      11   268.0000     1.5290 
      12   268.0000     1.5290 
      13   268.0000     1.5290 
      14   268.0000     1.5290 
      15   268.0000     1.5290 
      16   268.0000     1.5290 
      17   268.0000     1.5290 
      18   340.0000     1.0900 
      19   340.0000     1.0900 
      20   340.0000     1.0900 
      21   340.0000     1.0900 
      22   340.0000     1.0900 
      23   340.0000     1.0900 
      24   340.0000     1.0900 
      25   340.0000     1.0900 
      26   340.0000     1.0900 
      27   340.0000     1.0900 
      28   340.0000     1.0900 
      29   340.0000     1.0900 
      30   340.0000     1.0900 
      31   340.0000     1.0900 
      32   340.0000     1.0900 
      33   340.0000     1.0900 
      34   340.0000     1.0900 
      35   340.0000     1.0900 
      36   340.0000     1.0900 
      37   340.0000     1.0900 
      38   340.0000     1.0900 
      39   340.0000     1.0900 
      40   340.0000     1.0900 
      41   340.0000     1.0900 
      42   340.0000     1.0900 
      43   340.0000     1.0900 
      44   340.0000     1.0900 
      45   340.0000     1.0900 
      46   340.0000     1.0900 
      47   340.0000     1.0900 
      48   340.0000     1.0900 
      49   340.0000     1.0900 
      50   340.0000     1.0900 
      51   340.0000     1.0900 
      52   340.0000     1.0900 
      53   340.0000     1.0900 
      54   340.0000     1.0900 

Angle Coeffs 

       1     58.350    112.700
       2     58.350    112.700
       3     58.350    112.700
       4     56.200    109.470
       5     51.800    107.200
       6     51.800    107.200
       7     56.200    109.470
       8     58.350    112.700
       9     58.350    112.700
      10     58.350    112.700
      11     58.350    112.700
      12     58.350    112.700
      13     58.350    112.700
      14     58.350    112.700
      15     58.350    112.700
      16     58.350    112.700
      17     37.500    110.700
      18     37.500    110.700
      19     37.500    110.700
      20     37.500    110.700
      21     37.500    110.700
      22     37.500    110.700
      23     37.500    110.700
      24     37.500    110.700
      25     37.500    110.700
      26     37.500    110.700
      27     37.500    110.700
      28     35.000    109.500
      29     35.000    109.500
      30     35.000    109.500
      31     35.000    109.500
      32     35.000    109.500
      33     37.500    110.700
      34     37.500    110.700
      35     37.500    110.700
      36     37.500    110.700
      37     37.500    110.700
      38     37.500    110.700
      39     37.500    110.700
      40     37.500    110.700
      41     37.500    110.700
      42     37.500    110.700
      43     37.500    110.700
      44     37.500    110.700
      45     37.500    110.700
      46     37.500    110.700
      47     37.500    110.700
      48     37.500    110.700
      49     37.500    110.700
      50     37.500    110.700
      51     37.500    110.700
      52     37.500    110.700
      53     37.500    110.700
      54     33.000    107.800
      55     37.500    110.700
      56     33.000    107.800
      57     33.000    107.800
      58     33.000    107.800
      59     37.500    110.700
      60     33.000    107.800
      61     33.000    107.800
      62     33.000    107.800
      63     33.000    107.800
      64     37.500    110.700
      65     37.500    110.700
      66     33.000    107.800
      67     33.000    107.800
      68     37.500    110.700
      69     33.000    107.800
      70     37.500    110.700
      71     37.500    110.700
      72     33.000    107.800
      73     37.500    110.700
      74     33.000    107.800
      75     58.350    112.700
      76     33.000    107.800
      77     37.500    110.700
      78     37.500    110.700
      79     33.000    107.800
      80     37.500    110.700
      81     33.000    107.800
      82     37.500    110.700
      83     33.000    107.800
      84     33.000    107.800
      85     33.000    107.800
      86     33.000    107.800
      87     33.000    107.800
      88     37.500    110.700
      89     37.500    110.700
      90     33.000    107.800
      91     37.500    110.700
      92     37.500    110.700
      93     37.500    110.700
      94     37.500    110.700
      95     37.500    110.700
      96     35.000    109.500
      97     37.500    110.700
      98     37.500    110.700
      99     37.500    110.700
     100     51.800    107.200
     101     37.500    110.700
     102     33.000    107.800
     103     33.000    107.800
     104     35.000    109.500
     105     37.500    110.700

Dihedral Coeffs  

       1      1.300     -0.200      0.200      0.000 
       2      1.300     -0.200      0.200      0.000 
       3      2.392     -0.674      0.550      0.000 
       4      0.416     -0.128      0.695      0.000 
       5      0.416     -0.128      0.695      0.000 
       6      2.392     -0.674      0.550      0.000 
       7      1.300     -0.200      0.200      0.000 
       8      1.300     -0.200      0.200      0.000 
       9      1.300     -0.200      0.200      0.000 
      10      1.300     -0.200      0.200      0.000 
      11      1.300     -0.200      0.200      0.000 
      12      1.300     -0.200      0.200      0.000 
      13      1.300     -0.200      0.200      0.000 
      14      0.000      0.000      0.300      0.000 
      15      0.000      0.000      0.560      0.000 
      16      0.000      0.000      0.300      0.000 
      17      0.000      0.000      0.300      0.000 
      18      0.000      0.000      0.560      0.000 
      19      0.000      0.000      0.300      0.000 
      20      0.000      0.000      0.300      0.000 
      21      0.000      0.000      0.560      0.000 
      22      0.000      0.000      0.300      0.000 
      23      0.000      0.000      0.300      0.000 
      24      0.000      0.000      0.300      0.000 
      25      0.000      0.000      0.300      0.000 
      26      0.000      0.000      0.300      0.000 
      27      0.416     -0.128      0.695      0.000 
      28      0.000      0.000      0.300      0.000 
      29      0.000      0.000      0.300      0.000 
      30      0.000      0.000      0.300      0.000 
      31      0.000      0.000      0.300      0.000 
      32      0.000      0.000      0.300      0.000 
      33      0.000      0.000      0.300      0.000 
      34      0.000      0.000      0.300      0.000 
      35      0.000      0.000      0.300      0.000 
      36      0.000      0.000      0.560      0.000 
      37      0.000      0.000      0.300      0.000 
      38      0.000      0.000      0.560      0.000 
      39      0.000      0.000      0.300      0.000 
      40      0.000      0.000      0.300      0.000 
      41      0.000      0.000      0.300      0.000 
      42      0.000      0.000      0.300      0.000 
      43      0.000      0.000      0.300      0.000 
      44      0.000      0.000      0.300      0.000 
      45      0.000      0.000      0.300      0.000 
      46      0.416     -0.128      0.695      0.000 
      47      0.000      0.000      0.300      0.000 
      48      0.000      0.000      0.300      0.000 
      49      0.000      0.000      0.300      0.000 
      50      0.000      0.000      0.300      0.000 
      51      0.000      0.000      0.560      0.000 
      52      0.000      0.000      0.560      0.000 
      53      0.000      0.000      0.300      0.000 
      54      0.000      0.000      0.300      0.000 
      55      0.000      0.000      0.300      0.000 
      56      0.000      0.000      0.300      0.000 
      57      0.000      0.000      0.300      0.000 
      58      0.000      0.000      0.300      0.000 
      59      0.000      0.000      0.300      0.000 
      60      0.000      0.000      0.300      0.000 
      61      0.000      0.000      0.300      0.000 
      62      0.000      0.000      0.300      0.000 
      63      0.000      0.000      0.300      0.000 
      64      0.000      0.000      0.300      0.000 
      65      0.000      0.000      0.300      0.000 
      66      0.000      0.000      0.300      0.000 
      67     -1.013     -0.709      0.473      0.000 
      68      0.000      0.000      0.300      0.000 
      69      0.000      0.000      0.300      0.000 
      70      0.000      0.000      0.300      0.000 
      71     -1.013     -0.709      0.473      0.000 
      72      0.000      0.000      0.300      0.000 
      73      0.000      0.000      0.300      0.000 
      74      0.000      0.000      0.300      0.000 
      75      0.000      0.000      0.300      0.000 
      76      0.000      0.000      0.300      0.000 
      77      0.000      0.000      0.300      0.000 
      78      0.000      0.000      0.300      0.000 
      79      0.000      0.000      0.300      0.000 
      80      0.000      0.000      0.300      0.000 
      81      0.000      0.000      0.300      0.000 
      82      0.000      0.000      0.300      0.000 
      83      0.000      0.000      0.300      0.000 
      84      0.000      0.000      0.300      0.000 
      85      0.000      0.000      0.300      0.000 
      86      0.000      0.000      0.300      0.000 
      87      0.000      0.000      0.300      0.000 
      88      0.000      0.000      0.300      0.000 
      89      0.000      0.000      0.300      0.000 
      90      0.000      0.000      0.300      0.000 
      91      0.000      0.000      0.560      0.000 
      92      0.000      0.000      0.560      0.000 
      93      0.000      0.000      0.300      0.000 
      94      0.000      0.000      0.300      0.000 
      95      0.000      0.000      0.300      0.000 
      96      0.000      0.000      0.560      0.000 
      97      0.000      0.000      0.560      0.000 
      98      0.000      0.000      0.300      0.000 
      99      0.000      0.000      0.560      0.000 
     100      0.000      0.000      0.560      0.000 
     101      0.000      0.000      0.300      0.000 
     102      0.000      0.000      0.300      0.000 
     103      0.000      0.000      0.300      0.000 
     104      0.000      0.000      0.560      0.000 
     105      0.000      0.000      0.300      0.000 
     106      0.000      0.000      0.300      0.000 
     107      1.300     -0.200      0.200      0.000 
     108      0.000      0.000      0.300      0.000 
     109     -1.013     -0.709      0.473      0.000 
     110      0.000      0.000      0.300      0.000 
     111      0.000      0.000      0.300      0.000 
     112      0.000      0.000      0.300      0.000 
     113      0.000      0.000      0.300      0.000 
     114      0.000      0.000      0.300      0.000 
     115      0.000      0.000      0.300      0.000 
     116      0.000      0.000      0.300      0.000 
     117      0.000      0.000      0.300      0.000 
     118      0.000      0.000      0.300      0.000 
     119      0.000      0.000      0.300      0.000 
     120      0.000      0.000      0.300      0.000 
     121      0.000      0.000      0.300      0.000 
     122     -1.013     -0.709      0.473      0.000 
     123      0.000      0.000      0.300      0.000 
     124      0.000      0.000      0.300      0.000 
     125      0.000      0.000      0.300      0.000 
     126      0.000      0.000      0.300      0.000 
     127      0.000      0.000      0.300      0.000 
     128      0.000      0.000      0.300      0.000 
     129      0.000      0.000      0.300      0.000 
     130      0.000      0.000      0.300      0.000 
     131      0.000      0.000      0.300      0.000 
     132      0.000      0.000      0.300      0.000 
     133      0.000      0.000      0.300      0.000 
     134      0.000      0.000      0.300      0.000 
     135      0.000      0.000      0.300      0.000 
     136      0.000      0.000      0.300      0.000 
     137      0.000      0.000      0.300      0.000 
     138      0.000      0.000      0.300      0.000 
     139      0.000      0.000      0.300      0.000 
     140      0.000      0.000      0.300      0.000 
     141      0.000      0.000      0.300      0.000 
     142      0.000      0.000      0.300      0.000 
     143      0.000      0.000      0.300      0.000 
     144      0.000      0.000      0.300      0.000 

Improper Coeffs 

       1      0.000      -1       2 
       2      0.000      -1       2 
       3      0.000      -1       2 
       4      0.000      -1       2 
       5      0.000      -1       2 
       6      0.000      -1       2 
       7      0.000      -1       2 
       8      0.000      -1       2 
       9      0.000      -1       2 
      10      0.000      -1       2 
      11      0.000      -1       2 
      12      0.000      -1       2 
      13      0.000      -1       2 
      14      0.000      -1       2 
      15      0.000      -1       2 
      16      0.000      -1       2 
      17      0.000      -1       2 
      18      0.000      -1       2 
      19      0.000      -1       2 
      20      0.000      -1       2 
      21      0.000      -1       2 
      22      0.000      -1       2 
      23      0.000      -1       2 
      24      0.000      -1       2 
      25      0.000      -1       2 
      26      0.000      -1       2 
      27      0.000      -1       2 
      28      0.000      -1       2 
      29      0.000      -1       2 
      30      0.000      -1       2 
      31      0.000      -1       2 
      32      0.000      -1       2 
      33      0.000      -1       2 
      34      0.000      -1       2 
      35      0.000      -1       2 

Atoms 

     1      1      1 -0.23860000    1.000  1.00000  0.00000
     2      1      2 -0.17930000   -0.519  1.00000  0.00000
     3      1      3 -0.17840000   -1.085  1.00000  1.42035
     4      1      4 -0.18180000   -2.613  0.99818  1.37617
     5      1      5 0.01240000   -3.227  0.93269  2.78149
     6      1      6 -0.58040000   -4.705  0.93126  2.76922
     7      1      7 -0.05290000   -5.237 -0.24073  2.06214
     8      1      8 0.01280000   -5.199  0.99679  4.16115
     9      1      9 -0.18290000   -6.726  1.06507  4.25236
    10      1     10 -0.17880000   -7.214  1.13379  5.69642
    11      1     11 -0.17940000   -8.742  1.13342  5.71665
    12      1     12 -0.17940000   -9.277  1.19928  7.13937
    13      1     13 -0.17990000  -10.804  1.19987  7.14153
    14      1     14 -0.17980000  -11.329  1.26788  8.57168
    15      1     15 -0.17240000  -12.856  1.27190  8.60805
    16      1     16 -0.11700000  -13.416  1.33821 10.03911
    17      1     17 -0.23360000  -12.992  2.61260 10.77152
    18      1     18 -0.23610000  -14.942  1.24520 10.00058
    19      1     19 0.08120000    1.374  1.00130 -1.02804
    20      1     20 0.08120000    1.390  0.11112  0.50391
    21      1     21 0.08120000    1.390  1.88834  0.50658
    22      1     22 0.08920000   -0.875  0.11525 -0.54186
    23      1     23 0.08920000   -0.882  1.88020 -0.54334
    24      1     24 0.08960000   -0.726  1.87860  1.96853
    25      1     25 0.08960000   -0.732  0.11010  1.95609
    26      1     26 0.09760000   -2.919  0.13181  0.78237
    27      1     27 0.09760000   -2.970  1.89748  0.85837
    28      1     28 0.08180000   -2.878  1.81563  3.33408
    29      1     29 0.08180000   -2.847  0.04926  3.30949
    30      1     30 0.08150000   -4.904 -0.27168  1.02257
    31      1     31 0.08150000   -6.326 -0.19926  1.98208
    32      1     32 0.08150000   -4.951 -1.17715  2.55207
    33      1     33 0.08190000   -4.794  1.90046  4.63728
    34      1     34 0.08190000   -4.835  0.13667  4.73819
    35      1     35 0.09790000   -7.175  0.17297  3.80370
    36      1     36 0.09790000   -7.092  1.93700  3.69613
    37      1     37 0.09010000   -6.829  2.03693  6.18350
    38      1     38 0.09010000   -6.836  0.26936  6.25613
    39      1     39 0.09060000   -9.117  0.22496  5.22878
    40      1     40 0.09060000   -9.115  1.98855  5.13988
    41      1     41 0.08990000   -8.904  2.10678  7.62977
    42      1     42 0.08990000   -8.908  0.34101  7.71382
    43      1     43 0.09000000  -11.178  0.29531  6.64671
    44      1     44 0.09000000  -11.174  2.06077  6.57022
    45      1     45 0.09010000  -10.937  2.17735  9.03901
    46      1     46 0.09010000  -10.949  0.41285  9.14359
    47      1     47 0.08890000  -13.224  0.35986  8.12026
    48      1     48 0.08890000  -13.234  2.11858  8.02068
    49      1     49 0.09610000  -13.038  0.47585 10.60365
    50      1     50 0.08100000  -13.257  3.50635 10.19675
    51      1     51 0.08100000  -11.912  2.62959 10.94897
    52      1     52 0.08100000  -13.479  2.68012 11.74900
    53      1     53 0.08110000  -15.376  2.08569  9.44810
    54      1     54 0.08110000  -15.357  1.25471 11.01392
    55      1     55 0.08110000  -15.262  0.31722  9.51510

Bonds 

     1      1      2      1
     2      2      3      2
     3      3      4      3
     4      4      5      4
     5      5      6      5
     6      6      7      6
     7      7      8      6
     8      8      9      8
     9      9     10      9
    10     10     11     10
    11     11     12     11
    12     12     13     12
    13     13     14     13
    14     14     15     14
    15     15     16     15
    16     16     17     16
    17     17     18     16
    18     18     19      1
    19     19     20      1
    20     20     21      1
    21     21     22      2
    22     22     23      2
    23     23     24      3
    24     24     25      3
    25     25     26      4
    26     26     27      4
    27     27     28      5
    28     28     29      5
    29     29     30      7
    30     30     31      7
    31     31     32      7
    32     32     33      8
    33     33     34      8
    34     34     35      9
    35     35     36      9
    36     36     37     10
    37     37     38     10
    38     38     39     11
    39     39     40     11
    40     40     41     12
    41     41     42     12
    42     42     43     13
    43     43     44     13
    44     44     45     14
    45     45     46     14
    46     46     47     15
    47     47     48     15
    48     48     49     16
    49     49     50     17
    50     50     51     17
    51     51     52     17
    52     52     53     18
    53     53     54     18
    54     54     55     18

Angles 

     1      1      1      2      3
     2      2      2      3      4
     3      3      3      4      5
     4      4      4      5      6
     5      5      5      6      7
     6      6      5      6      8
     7      7      6      8      9
     8      8      8      9     10
     9      9      9     10     11
    10     10     10     11     12
    11     11     11     12     13
    12     12     12     13     14
    13     13     13     14     15
    14     14     14     15     16
    15     15     15     16     17
    16     16     15     16     18
    17     17      2      1     19
    18     18      2      1     20
    19     19      2      1     21
    20     20      1      2     22
    21     21      1      2     23
    22     22      2      3     24
    23     23      2      3     25
    24     24      3      4     26
    25     25      3      4     27
    26     26      4      5     28
    27     27      4      5     29
    28     28      6      7     30
    29     29      6      7     31
    30     30      6      7     32
    31     31      6      8     33
    32     32      6      8     34
    33     33      8      9     35
    34     34      8      9     36
    35     35      9     10     37
    36     36      9     10     38
    37     37     10     11     39
    38     38     10     11     40
    39     39     11     12     41
    40     40     11     12     42
    41     41     12     13     43
    42     42     12     13     44
    43     43     13     14     45
    44     44     13     14     46
    45     45     14     15     47
    46     46     14     15     48
    47     47     15     16     49
    48     48     16     17     50
    49     49     16     17     51
    50     50     16     17     52
    51     51     16     18     53
    52     52     16     18     54
    53     53     16     18     55
    54     54     47     15     48
    55     55     11     10     38
    56     56     19      1     21
    57     57     26      4     27
    58     58     41     12     42
    59     59      4      3     24
    60     60     30      7     32
    61     61     20      1     21
    62     62     53     18     55
    63     63     24      3     25
    64     64      5      4     27
    65     65      5      4     26
    66     66     35      9     36
    67     67     39     11     40
    68     68      9      8     34
    69     69     31      7     32
    70     70     12     11     39
    71     71     15     14     46
    72     72     45     14     46
    73     73     13     12     42
    74     74     51     17     52
    75     75     17     16     18
    76     76     33      8     34
    77     77     18     16     49
    78     78     16     15     47
    79     79     43     13     44
    80     80      4      3     25
    81     81     50     17     52
    82     82     10      9     35
    83     83     50     17     51
    84     84     54     18     55
    85     85     37     10     38
    86     86     22      2     23
    87     87     28      5     29
    88     88     15     14     45
    89     89     13     12     41
    90     90     53     18     54
    91     91      9      8     33
    92     92     16     15     48
    93     93     14     13     43
    94     94      3      2     22
    95     95      3      2     23
    96     96      6      5     28
    97     97     12     11     40
    98     98     17     16     49
    99     99     11     10     37
   100    100      7      6      8
   101    101     10      9     36
   102    102     30      7     31
   103    103     19      1     20
   104    104      6      5     29
   105    105     14     13     44

Dihedrals

     1      1      4      3      2      1 
     2      2      5      4      3      2 
     3      3      6      5      4      3 
     4      4      7      6      5      4 
     5      5      9      8      6      5 
     6      6     10      9      8      6 
     7      7     11     10      9      8 
     8      8     12     11     10      9 
     9      9     13     12     11     10 
    10     10     14     13     12     11 
    11     11     15     14     13     12 
    12     12     16     15     14     13 
    13     13     17     16     15     14 
    14     14     19      1      2      3 
    15     15     30      7      6      5 
    16     16     50     17     16     15 
    17     17     53     18     16     15 
    18     18     31      7      6      5 
    19     19     38     10      9      8 
    20     20     35      9     10     11 
    21     21     34      8      6      7 
    22     22     25      3      4      5 
    23     23     43     13     12     41 
    24     24     47     15     14     13 
    25     25     51     17     16     18 
    26     26     51     17     16     15 
    27     27      8      6      5      4 
    28     28     23      2      1     21 
    29     29     48     15     16     17 
    30     30     47     15     16     18 
    31     31     50     17     16     18 
    32     32     47     15     14     45 
    33     33     28      5      4      3 
    34     34     23      2      3      4 
    35     35     24      3      2     22 
    36     36     32      7      6      8 
    37     37     27      4      3     25 
    38     38     34      8      6      5 
    39     39     53     18     16     17 
    40     40     55     18     16     49 
    41     41     44     13     12     41 
    42     42     45     14     13     44 
    43     43     54     18     16     17 
    44     44     22      2      1     21 
    45     45     54     18     16     15 
    46     46      9      8      6      7 
    47     47     22      2      3      4 
    48     48     49     16     15     14 
    49     49     52     17     16     49 
    50     50     26      4      3      2 
    51     51     28      5      6      7 
    52     52     30      7      6      8 
    53     53     51     17     16     49 
    54     54     40     11     12     13 
    55     55     48     15     16     18 
    56     56     53     18     16     49 
    57     57     22      2      1     20 
    58     58     46     14     13     43 
    59     59     36      9     10     11 
    60     60     43     13     12     42 
    61     61     37     10      9     35 
    62     62     38     10      9     36 
    63     63     25      3      2     23 
    64     64     39     11     10     38 
    65     65     44     13     14     15 
    66     66     40     11     10     38 
    67     67     36      9      8      6 
    68     68     52     17     16     15 
    69     69     35      9      8     33 
    70     70     21      1      2      3 
    71     71     27      4      5      6 
    72     72     41     12     11     10 
    73     73     39     11     10      9 
    74     74     40     11     10     37 
    75     75     37     10      9      8 
    76     76     42     12     11     39 
    77     77     41     12     11     40 
    78     78     48     15     14     46 
    79     79     24      3      4      5 
    80     80     48     15     14     13 
    81     81     41     12     11     39 
    82     82     42     12     11     40 
    83     83     45     14     15     16 
    84     84     47     15     16     17 
    85     85     22      2      1     19 
    86     86     48     15     14     45 
    87     87     26      4      3     25 
    88     88     27      4      3     24 
    89     89     47     15     14     46 
    90     90     55     18     16     17 
    91     91     29      5      6      8 
    92     92     33      8      6      5 
    93     93     39     11     12     13 
    94     94     50     17     16     49 
    95     95     42     12     13     14 
    96     96     31      7      6      8 
    97     97     32      7      6      5 
    98     98     27      4      3      2 
    99     99     29      5      6      7 
   100    100     28      5      6      8 
   101    101     45     14     13     43 
   102    102     36      9      8     34 
   103    103     34      8      9     10 
   104    104     33      8      6      7 
   105    105     42     12     11     10 
   106    106     43     13     12     11 
   107    107     18     16     15     14 
   108    108     55     18     16     15 
   109    109     35      9      8      6 
   110    110     29      5      4     27 
   111    111     36      9      8     33 
   112    112     35      9      8     34 
   113    113     24      3      2     23 
   114    114     25      3      2     22 
   115    115     24      3      2      1 
   116    116     52     17     16     18 
   117    117     20      1      2      3 
   118    118     38     10      9     35 
   119    119     37     10      9     36 
   120    120     28      5      4     26 
   121    121     49     16     15     47 
   122    122     26      4      5      6 
   123    123     29      5      4      3 
   124    124     44     13     12     42 
   125    125     39     11     10     37 
   126    126     23      2      1     20 
   127    127     45     14     13     12 
   128    128     40     11     10      9 
   129    129     37     10     11     12 
   130    130     25      3      2      1 
   131    131     29      5      4     26 
   132    132     28      5      4     27 
   133    133     41     12     13     14 
   134    134     54     18     16     49 
   135    135     44     13     12     11 
   136    136     33      8      9     10 
   137    137     26      4      3     24 
   138    138     43     13     14     15 
   139    139     46     14     13     12 
   140    140     46     14     15     16 
   141    141     38     10     11     12 
   142    142     46     14     13     44 
   143    143     23      2      1     19 
   144    144     49     16     15     48 

Impropers

     1      1      6      5      7      8 
     2      2     16     17     18     15 
     3      3      1      2     19     20 
     4      4      1      2     19     21 
     5      5      2      1      3     22 
     6      6      2      1      3     23 
     7      7      3      2      4     24 
     8      8      3     25      2      4 
     9      9      4     26      3      5 
    10     10      4     27      5      3 
    11     11      5      4     28      6 
    12     12      5      4     29      6 
    13     13      7     30     31      6 
    14     14      7     30      6     32 
    15     15      8     33      9      6 
    16     16      8      9     34      6 
    17     17      9     10     35      8 
    18     18      9     10     36      8 
    19     19     10      9     11     37 
    20     20     10      9     11     38 
    21     21     11     10     12     39 
    22     22     11     10     12     40 
    23     23     12     41     11     13 
    24     24     12     42     11     13 
    25     25     13     43     12     14 
    26     26     13     12     44     14 
    27     27     14     13     45     15 
    28     28     14     13     46     15 
    29     29     15     16     47     14 
    30     30     15     16     14     48 
    31     31     16     49     17     15 
    32     32     17     50     51     16 
    33     33     17     50     52     16 
    34     34     18     53     54     16 
    35     35     18     53     55     16 

