LAMMPS data file Created by LigParGen - (Written by Leela S. Dodda)

      39 atoms
      39 bonds
      78 angles
     117 dihedrals
      26 impropers
 
      39 atom types
      39 bond types
      78 angle types
     117 dihedral types
      26 improper types
 
   -7.571400    42.428600 xlo xhi
   -1.232610    48.767390 ylo yhi
   -1.029070    48.970930 zlo zhi

Masses

       1     12.011  
       2     12.011  
       3     12.011  
       4     12.011  
       5     12.011  
       6     12.011  
       7     12.011  
       8     12.011  
       9     12.011  
      10     12.011  
      11     12.011  
      12     12.011  
      13     12.011  
      14      1.008  
      15      1.008  
      16      1.008  
      17      1.008  
      18      1.008  
      19      1.008  
      20      1.008  
      21      1.008  
      22      1.008  
      23      1.008  
      24      1.008  
      25      1.008  
      26      1.008  
      27      1.008  
      28      1.008  
      29      1.008  
      30      1.008  
      31      1.008  
      32      1.008  
      33      1.008  
      34      1.008  
      35      1.008  
      36      1.008  
      37      1.008  
      38      1.008  
      39      1.008  

Pair Coeffs 

       1      0.066  3.5000000 
       2      0.066  3.5000000 
       3      0.066  3.5000000 
       4      0.066  3.5000000 
       5      0.066  3.5000000 
       6      0.066  3.5000000 
       7      0.066  3.5000000 
       8      0.066  3.5000000 
       9      0.066  3.5000000 
      10      0.066  3.5000000 
      11      0.066  3.5000000 
      12      0.066  3.5000000 
      13      0.066  3.5000000 
      14      0.030  2.5000000 
      15      0.030  2.5000000 
      16      0.030  2.5000000 
      17      0.030  2.5000000 
      18      0.030  2.5000000 
      19      0.030  2.5000000 
      20      0.030  2.5000000 
      21      0.030  2.5000000 
      22      0.030  2.5000000 
      23      0.030  2.5000000 
      24      0.030  2.5000000 
      25      0.030  2.5000000 
      26      0.030  2.5000000 
      27      0.030  2.5000000 
      28      0.030  2.5000000 
      29      0.030  2.5000000 
      30      0.030  2.5000000 
      31      0.030  2.5000000 
      32      0.030  2.5000000 
      33      0.030  2.5000000 
      34      0.030  2.5000000 
      35      0.030  2.5000000 
      36      0.030  2.5000000 
      37      0.030  2.5000000 
      38      0.030  2.5000000 
      39      0.030  2.5000000 

Bond Coeffs 

       1   268.0000     1.5290 
       2   268.0000     1.5290 
       3   268.0000     1.5290 
       4   268.0000     1.5290 
       5   268.0000     1.5290 
       6   268.0000     1.5290 
       7   268.0000     1.5290 
       8   268.0000     1.5290 
       9   268.0000     1.5290 
      10   268.0000     1.5290 
      11   268.0000     1.5290 
      12   268.0000     1.5290 
      13   340.0000     1.0900 
      14   340.0000     1.0900 
      15   340.0000     1.0900 
      16   340.0000     1.0900 
      17   340.0000     1.0900 
      18   340.0000     1.0900 
      19   340.0000     1.0900 
      20   340.0000     1.0900 
      21   340.0000     1.0900 
      22   340.0000     1.0900 
      23   340.0000     1.0900 
      24   340.0000     1.0900 
      25   340.0000     1.0900 
      26   340.0000     1.0900 
      27   340.0000     1.0900 
      28   340.0000     1.0900 
      29   340.0000     1.0900 
      30   340.0000     1.0900 
      31   340.0000     1.0900 
      32   340.0000     1.0900 
      33   340.0000     1.0900 
      34   340.0000     1.0900 
      35   340.0000     1.0900 
      36   340.0000     1.0900 
      37   340.0000     1.0900 
      38   340.0000     1.0900 
      39   268.0000     1.5290 

Angle Coeffs 

       1     58.350    112.700
       2     58.350    112.700
       3     58.350    112.700
       4     58.350    112.700
       5     58.350    112.700
       6     58.350    112.700
       7     58.350    112.700
       8     58.350    112.700
       9     58.350    112.700
      10     58.350    112.700
      11     58.350    112.700
      12     37.500    110.700
      13     37.500    110.700
      14     37.500    110.700
      15     37.500    110.700
      16     37.500    110.700
      17     37.500    110.700
      18     37.500    110.700
      19     37.500    110.700
      20     37.500    110.700
      21     37.500    110.700
      22     37.500    110.700
      23     37.500    110.700
      24     37.500    110.700
      25     37.500    110.700
      26     37.500    110.700
      27     37.500    110.700
      28     37.500    110.700
      29     37.500    110.700
      30     37.500    110.700
      31     37.500    110.700
      32     37.500    110.700
      33     37.500    110.700
      34     37.500    110.700
      35     37.500    110.700
      36     37.500    110.700
      37     37.500    110.700
      38     33.000    107.800
      39     37.500    110.700
      40     37.500    110.700
      41     37.500    110.700
      42     33.000    107.800
      43     37.500    110.700
      44     37.500    110.700
      45     37.500    110.700
      46     37.500    110.700
      47     37.500    110.700
      48     37.500    110.700
      49     37.500    110.700
      50     37.500    110.700
      51     33.000    107.800
      52     33.000    107.800
      53     37.500    110.700
      54     37.500    110.700
      55     58.350    112.700
      56     37.500    110.700
      57     37.500    110.700
      58     33.000    107.800
      59     33.000    107.800
      60     37.500    110.700
      61     33.000    107.800
      62     33.000    107.800
      63     37.500    110.700
      64     33.000    107.800
      65     33.000    107.800
      66     33.000    107.800
      67     58.350    112.700
      68     33.000    107.800
      69     33.000    107.800
      70     37.500    110.700
      71     58.350    112.700
      72     37.500    110.700
      73     33.000    107.800
      74     37.500    110.700
      75     37.500    110.700
      76     58.350    112.700
      77     33.000    107.800
      78     37.500    110.700

Dihedral Coeffs  

       1      1.300     -0.200      0.200      0.000 
       2      1.300     -0.200      0.200      0.000 
       3      1.300     -0.200      0.200      0.000 
       4      1.300     -0.200      0.200      0.000 
       5      1.300     -0.200      0.200      0.000 
       6      1.300     -0.200      0.200      0.000 
       7      1.300     -0.200      0.200      0.000 
       8      1.300     -0.200      0.200      0.000 
       9      0.000      0.000      0.300      0.000 
      10      0.000      0.000      0.300      0.000 
      11      0.000      0.000      0.300      0.000 
      12      0.000      0.000      0.300      0.000 
      13      0.000      0.000      0.300      0.000 
      14      0.000      0.000      0.300      0.000 
      15      0.000      0.000      0.300      0.000 
      16      1.300     -0.200      0.200      0.000 
      17      1.300     -0.200      0.200      0.000 
      18      0.000      0.000      0.300      0.000 
      19      0.000      0.000      0.300      0.000 
      20      0.000      0.000      0.300      0.000 
      21      0.000      0.000      0.300      0.000 
      22      0.000      0.000      0.300      0.000 
      23      0.000      0.000      0.300      0.000 
      24      0.000      0.000      0.300      0.000 
      25      0.000      0.000      0.300      0.000 
      26      0.000      0.000      0.300      0.000 
      27      0.000      0.000      0.300      0.000 
      28      0.000      0.000      0.300      0.000 
      29      0.000      0.000      0.300      0.000 
      30      1.300     -0.200      0.200      0.000 
      31      0.000      0.000      0.300      0.000 
      32      0.000      0.000      0.300      0.000 
      33      0.000      0.000      0.300      0.000 
      34      0.000      0.000      0.300      0.000 
      35      0.000      0.000      0.300      0.000 
      36      1.300     -0.200      0.200      0.000 
      37      0.000      0.000      0.300      0.000 
      38      0.000      0.000      0.300      0.000 
      39      0.000      0.000      0.300      0.000 
      40      0.000      0.000      0.300      0.000 
      41      0.000      0.000      0.300      0.000 
      42      0.000      0.000      0.300      0.000 
      43      0.000      0.000      0.300      0.000 
      44      0.000      0.000      0.300      0.000 
      45      0.000      0.000      0.300      0.000 
      46      0.000      0.000      0.300      0.000 
      47      0.000      0.000      0.300      0.000 
      48      0.000      0.000      0.300      0.000 
      49      1.300     -0.200      0.200      0.000 
      50      1.300     -0.200      0.200      0.000 
      51      1.300     -0.200      0.200      0.000 
      52      0.000      0.000      0.300      0.000 
      53      0.000      0.000      0.300      0.000 
      54      0.000      0.000      0.300      0.000 
      55      0.000      0.000      0.300      0.000 
      56      0.000      0.000      0.300      0.000 
      57      0.000      0.000      0.300      0.000 
      58      0.000      0.000      0.300      0.000 
      59      0.000      0.000      0.300      0.000 
      60      0.000      0.000      0.300      0.000 
      61      0.000      0.000      0.300      0.000 
      62      0.000      0.000      0.300      0.000 
      63      0.000      0.000      0.300      0.000 
      64      1.300     -0.200      0.200      0.000 
      65      0.000      0.000      0.300      0.000 
      66      0.000      0.000      0.300      0.000 
      67      0.000      0.000      0.300      0.000 
      68      0.000      0.000      0.300      0.000 
      69      0.000      0.000      0.300      0.000 
      70      0.000      0.000      0.300      0.000 
      71      0.000      0.000      0.300      0.000 
      72      0.000      0.000      0.300      0.000 
      73      0.000      0.000      0.300      0.000 
      74      0.000      0.000      0.300      0.000 
      75      0.000      0.000      0.300      0.000 
      76      0.000      0.000      0.300      0.000 
      77      0.000      0.000      0.300      0.000 
      78      0.000      0.000      0.300      0.000 
      79      0.000      0.000      0.300      0.000 
      80      0.000      0.000      0.300      0.000 
      81      0.000      0.000      0.300      0.000 
      82      0.000      0.000      0.300      0.000 
      83      0.000      0.000      0.300      0.000 
      84      0.000      0.000      0.300      0.000 
      85      0.000      0.000      0.300      0.000 
      86      0.000      0.000      0.300      0.000 
      87      1.300     -0.200      0.200      0.000 
      88      0.000      0.000      0.300      0.000 
      89      1.300     -0.200      0.200      0.000 
      90      0.000      0.000      0.300      0.000 
      91      0.000      0.000      0.300      0.000 
      92      0.000      0.000      0.300      0.000 
      93      0.000      0.000      0.300      0.000 
      94      0.000      0.000      0.300      0.000 
      95      0.000      0.000      0.300      0.000 
      96      0.000      0.000      0.300      0.000 
      97      0.000      0.000      0.300      0.000 
      98      0.000      0.000      0.300      0.000 
      99      0.000      0.000      0.300      0.000 
     100      0.000      0.000      0.300      0.000 
     101      0.000      0.000      0.300      0.000 
     102      0.000      0.000      0.300      0.000 
     103      0.000      0.000      0.300      0.000 
     104      0.000      0.000      0.300      0.000 
     105      0.000      0.000      0.300      0.000 
     106      0.000      0.000      0.300      0.000 
     107      0.000      0.000      0.300      0.000 
     108      0.000      0.000      0.300      0.000 
     109      0.000      0.000      0.300      0.000 
     110      0.000      0.000      0.300      0.000 
     111      0.000      0.000      0.300      0.000 
     112      0.000      0.000      0.300      0.000 
     113      0.000      0.000      0.300      0.000 
     114      0.000      0.000      0.300      0.000 
     115      0.000      0.000      0.300      0.000 
     116      0.000      0.000      0.300      0.000 
     117      0.000      0.000      0.300      0.000 

Improper Coeffs 

       1      0.000      -1       2 
       2      0.000      -1       2 
       3      0.000      -1       2 
       4      0.000      -1       2 
       5      0.000      -1       2 
       6      0.000      -1       2 
       7      0.000      -1       2 
       8      0.000      -1       2 
       9      0.000      -1       2 
      10      0.000      -1       2 
      11      0.000      -1       2 
      12      0.000      -1       2 
      13      0.000      -1       2 
      14      0.000      -1       2 
      15      0.000      -1       2 
      16      0.000      -1       2 
      17      0.000      -1       2 
      18      0.000      -1       2 
      19      0.000      -1       2 
      20      0.000      -1       2 
      21      0.000      -1       2 
      22      0.000      -1       2 
      23      0.000      -1       2 
      24      0.000      -1       2 
      25      0.000      -1       2 
      26      0.000      -1       2 

Atoms 

     1      1      1 -0.23880000    1.000  1.00000  0.00000
     2      1      2 -0.17930000   -0.520  1.00000  0.00000
     3      1      3 -0.17770000   -1.091  1.00000  1.42028
     4      1      4 -0.17930000   -2.622  0.99819  1.39069
     5      1      5 -0.16880000   -3.228  0.99635  2.79972
     6      1      6 -0.11780000   -4.765  0.99633  2.77500
     7      1      7 -0.17900000   -5.356 -0.24205  2.09783
     8      1      8 -0.18610000   -6.784 -0.26165  2.60489
     9      1      9 -0.17960000   -6.651  0.10105  4.07536
    10      1     10 -0.11410000   -5.401  0.99429  4.19046
    11      1     11 -0.16960000   -5.718  2.42000  4.67479
    12      1     12 -0.17890000   -6.347  2.45783  6.07223
    13      1     13 -0.23940000   -6.645  3.88373  6.51068
    14      1     14 0.08070000    1.379  1.00130 -1.02907
    15      1     15 0.08070000    1.394  0.11307  0.50551
    16      1     16 0.08070000    1.391  1.88877  0.50547
    17      1     17 0.08790000   -0.874  0.11693 -0.54368
    18      1     18 0.08790000   -0.876  1.88280 -0.54351
    19      1     19 0.08940000   -0.731  1.88256  1.96248
    20      1     20 0.08940000   -0.732  0.11523  1.96013
    21      1     21 0.08920000   -2.960  0.11437  0.83773
    22      1     22 0.08920000   -2.977  1.87972  0.84315
    23      1     23 0.08920000   -2.876  1.88101  3.34415
    24      1     24 0.08920000   -2.864  0.11853  3.34839
    25      1     25 0.10180000   -5.105  1.88412  2.22355
    26      1     26 0.09430000   -4.829 -1.15241  2.40799
    27      1     27 0.09430000   -5.322 -0.17539  1.00621
    28      1     28 0.09200000   -7.265 -1.23261  2.45988
    29      1     29 0.09200000   -7.380  0.49819  2.08580
    30      1     30 0.09150000   -6.493 -0.81051  4.66514
    31      1     31 0.09150000   -7.571  0.56778  4.43576
    32      1     32 0.10020000   -4.712  0.52985  4.90822
    33      1     33 0.08930000   -6.392  2.90867  3.96050
    34      1     34 0.08930000   -4.790  3.00559  4.68813
    35      1     35 0.08850000   -5.671  1.98914  6.79672
    36      1     36 0.08850000   -7.284  1.89212  6.09124
    37      1     37 0.08050000   -5.728  4.47587  6.57482
    38      1     38 0.08050000   -7.121  3.88433  7.49653
    39      1     39 0.08050000   -7.325  4.37590  5.80621

Bonds 

     1      1      2      1
     2      2      3      2
     3      3      4      3
     4      4      5      4
     5      5      6      5
     6      6      7      6
     7      7      8      7
     8      8      9      8
     9      9     10      6
    10     10     11     10
    11     11     12     11
    12     12     13     12
    13     13     14      1
    14     14     15      1
    15     15     16      1
    16     16     17      2
    17     17     18      2
    18     18     19      3
    19     19     20      3
    20     20     21      4
    21     21     22      4
    22     22     23      5
    23     23     24      5
    24     24     25      6
    25     25     26      7
    26     26     27      7
    27     27     28      8
    28     28     29      8
    29     29     30      9
    30     30     31      9
    31     31     32     10
    32     32     33     11
    33     33     34     11
    34     34     35     12
    35     35     36     12
    36     36     37     13
    37     37     38     13
    38     38     39     13
    39     39     10      9

Angles 

     1      1      1      2      3
     2      2      2      3      4
     3      3      3      4      5
     4      4      4      5      6
     5      5      5      6      7
     6      6      6      7      8
     7      7      7      8      9
     8      8      5      6     10
     9      9      6     10     11
    10     10     10     11     12
    11     11     11     12     13
    12     12      2      1     14
    13     13      2      1     15
    14     14      2      1     16
    15     15      1      2     17
    16     16      1      2     18
    17     17      2      3     19
    18     18      2      3     20
    19     19      3      4     21
    20     20      3      4     22
    21     21      4      5     23
    22     22      4      5     24
    23     23      5      6     25
    24     24      6      7     26
    25     25      6      7     27
    26     26      7      8     28
    27     27      7      8     29
    28     28      8      9     30
    29     29      8      9     31
    30     30      6     10     32
    31     31     10     11     33
    32     32     10     11     34
    33     33     11     12     35
    34     34     11     12     36
    35     35     12     13     37
    36     36     12     13     38
    37     37     12     13     39
    38     38     37     13     38
    39     39     10      6     25
    40     40      8      7     27
    41     41      6      5     24
    42     42     33     11     34
    43     43      9      8     28
    44     44      3      2     18
    45     45     12     11     34
    46     46      9      8     29
    47     47     10      9     30
    48     48      3      2     17
    49     49      7      6     25
    50     50     13     12     36
    51     51     37     13     39
    52     52     23      5     24
    53     53      4      3     19
    54     54      9     10     32
    55     55      6     10      9
    56     56     11     10     32
    57     57      8      7     26
    58     58     35     12     36
    59     59     30      9     31
    60     60      5      4     22
    61     61     15      1     16
    62     62     14      1     15
    63     63     10      9     31
    64     64     21      4     22
    65     65     26      7     27
    66     66     17      2     18
    67     67      7      6     10
    68     68     19      3     20
    69     69     38     13     39
    70     70     13     12     35
    71     71      9     10     11
    72     72      6      5     23
    73     73     28      8     29
    74     74      5      4     21
    75     75      4      3     20
    76     76      8      9     10
    77     77     14      1     16
    78     78     12     11     33

Dihedrals

     1      1      4      3      2      1 
     2      2      5      4      3      2 
     3      3      6      5      4      3 
     4      4      7      6      5      4 
     5      5      8      7      6      5 
     6      6      9      8      7      6 
     7      7     12     11     10      6 
     8      8     13     12     11     10 
     9      9     14      1      2      3 
    10     10     37     13     12     11 
    11     11     26      7      6     10 
    12     12     37     13     12     35 
    13     13     28      8      9     10 
    14     14     32     10      9     31 
    15     15     26      7      6     25 
    16     16     10      9      8      7 
    17     17     11     10      6      7 
    18     18     33     11     10      6 
    19     19     35     12     11     10 
    20     20     30      9     10     11 
    21     21     38     13     12     36 
    22     22     39     13     12     35 
    23     23     25      6      7      8 
    24     24     23      5      6      7 
    25     25     32     10      9     30 
    26     26     17      2      1     16 
    27     27     18      2      1     15 
    28     28     35     12     11     33 
    29     29     17      2      3      4 
    30     30     10      6      7      8 
    31     31     34     11     10     32 
    32     32     27      7      8      9 
    33     33     32     10     11     12 
    34     34     19      3      2      1 
    35     35     34     11     12     13 
    36     36      8      9     10      6 
    37     37     39     13     12     36 
    38     38     30      9     10      6 
    39     39     28      8      7     26 
    40     40     32     10      9      8 
    41     41     20      3      2      1 
    42     42     21      4      3     19 
    43     43     20      3      2     18 
    44     44     22      4      3     20 
    45     45     18      2      1     14 
    46     46     17      2      1     15 
    47     47     31      9     10      6 
    48     48     29      8      7     27 
    49     49     11     10      9      8 
    50     50     11     10      6      5 
    51     51      9     10      6      7 
    52     52     30      9      8      7 
    53     53     31      9      8     28 
    54     54     30      9      8     29 
    55     55     30      9      8     28 
    56     56     22      4      3      2 
    57     57     28      8      7     27 
    58     58     29      8      7     26 
    59     59     20      3      4      5 
    60     60     25      6     10      9 
    61     61     38     13     12     35 
    62     62     37     13     12     36 
    63     63     24      5      6      7 
    64     64     12     11     10      9 
    65     65     32     10      6      5 
    66     66     23      5      4      3 
    67     67     21      4      3      2 
    68     68     31      9     10     11 
    69     69     38     13     12     11 
    70     70     29      8      9     10 
    71     71     23      5      4     21 
    72     72     27      7      6     10 
    73     73     34     11     10      9 
    74     74     34     11     10      6 
    75     75     24      5      4      3 
    76     76     25      6      5     24 
    77     77     33     11     10     32 
    78     78     24      5      4     22 
    79     79     27      7      6     25 
    80     80     31      9      8     29 
    81     81     15      1      2      3 
    82     82     33     11     10      9 
    83     83     27      7      6      5 
    84     84     35     12     11     34 
    85     85     36     12     11     33 
    86     86     25      6      5      4 
    87     87      9     10      6      5 
    88     88     25      6      5     23 
    89     89     10      6      5      4 
    90     90     21      4      3     20 
    91     91     22      4      3     19 
    92     92     32     10      6      7 
    93     93     29      8      7      6 
    94     94     26      7      8      9 
    95     95     36     12     11     34 
    96     96     24      5      6     10 
    97     97     20      3      2     17 
    98     98     19      3      2     18 
    99     99     19      3      2     17 
   100    100     21      4      5      6 
   101    101     31      9      8      7 
   102    102     19      3      4      5 
   103    103     18      2      3      4 
   104    104     24      5      4     21 
   105    105     23      5      4     22 
   106    106     26      7      6      5 
   107    107     25      6     10     11 
   108    108     22      4      5      6 
   109    109     36     12     11     10 
   110    110     33     11     12     13 
   111    111     39     13     12     11 
   112    112     16      1      2      3 
   113    113     28      8      7      6 
   114    114     17      2      1     14 
   115    115     32     10      6     25 
   116    116     23      5      6     10 
   117    117     18      2      1     16 

Impropers

     1      1      6     10      5      7 
     2      2     10      9     11      6 
     3      3      1      2     14     15 
     4      4      1      2     14     16 
     5      5      2     17      3      1 
     6      6      2      1     18      3 
     7      7      3      2     19      4 
     8      8      3      4      2     20 
     9      9      4      5      3     21 
    10     10      4      3      5     22 
    11     11      5      4      6     23 
    12     12      5      4      6     24 
    13     13      6     25      5      7 
    14     14      7     26      6      8 
    15     15      7     27      6      8 
    16     16      8      9     28      7 
    17     17      8      9     29      7 
    18     18      9     10     30      8 
    19     19      9     10     31      8 
    20     20     10      9      6     32 
    21     21     11     33     10     12 
    22     22     11     34     12     10 
    23     23     12     35     13     11 
    24     24     12     11     36     13 
    25     25     13     37     12     38 
    26     26     13     37     12     39 

