LAMMPS data file Created by LigParGen - (Written by Leela S. Dodda)

      32 atoms
      31 bonds
      60 angles
      81 dihedrals
      20 impropers
 
      32 atom types
      31 bond types
      60 angle types
      81 dihedral types
      20 improper types
 
   -8.093520    41.906480 xlo xhi
   -1.167160    48.832840 ylo yhi
   -1.032180    48.967820 zlo zhi

Masses

       1     12.011  
       2     12.011  
       3     12.011  
       4     12.011  
       5     12.011  
       6     12.011  
       7     12.011  
       8     12.011  
       9     12.011  
      10     18.998  
      11     12.011  
      12     18.998  
      13      1.008  
      14      1.008  
      15      1.008  
      16      1.008  
      17      1.008  
      18      1.008  
      19      1.008  
      20      1.008  
      21      1.008  
      22      1.008  
      23      1.008  
      24      1.008  
      25      1.008  
      26      1.008  
      27      1.008  
      28      1.008  
      29      1.008  
      30      1.008  
      31      1.008  
      32      1.008  

Pair Coeffs 

       1      0.066  3.5000000 
       2      0.066  3.5000000 
       3      0.066  3.5000000 
       4      0.066  3.5000000 
       5      0.066  3.5000000 
       6      0.066  3.5000000 
       7      0.066  3.5000000 
       8      0.066  3.5000000 
       9      0.066  3.5000000 
      10      0.060  2.9000000 
      11      0.066  3.5000000 
      12      0.060  2.9000000 
      13      0.030  2.5000000 
      14      0.030  2.5000000 
      15      0.030  2.5000000 
      16      0.030  2.5000000 
      17      0.030  2.5000000 
      18      0.030  2.5000000 
      19      0.030  2.5000000 
      20      0.030  2.5000000 
      21      0.030  2.5000000 
      22      0.030  2.5000000 
      23      0.030  2.5000000 
      24      0.030  2.5000000 
      25      0.030  2.5000000 
      26      0.030  2.5000000 
      27      0.030  2.5000000 
      28      0.030  2.5000000 
      29      0.030  2.5000000 
      30      0.030  2.5000000 
      31      0.030  2.5000000 
      32      0.030  2.5000000 

Bond Coeffs 

       1   268.0000     1.5290 
       2   268.0000     1.5290 
       3   268.0000     1.5290 
       4   268.0000     1.5290 
       5   268.0000     1.5290 
       6   268.0000     1.5290 
       7   268.0000     1.5290 
       8   268.0000     1.5290 
       9   367.0000     1.3600 
      10   268.0000     1.5290 
      11   367.0000     1.3600 
      12   340.0000     1.0900 
      13   340.0000     1.0900 
      14   340.0000     1.0900 
      15   340.0000     1.0900 
      16   340.0000     1.0900 
      17   340.0000     1.0900 
      18   340.0000     1.0900 
      19   340.0000     1.0900 
      20   340.0000     1.0900 
      21   340.0000     1.0900 
      22   340.0000     1.0900 
      23   340.0000     1.0900 
      24   340.0000     1.0900 
      25   340.0000     1.0900 
      26   340.0000     1.0900 
      27   340.0000     1.0900 
      28   340.0000     1.0900 
      29   340.0000     1.0900 
      30   340.0000     1.0900 
      31   340.0000     1.0900 

Angle Coeffs 

       1     58.350    112.700
       2     58.350    112.700
       3     58.350    112.700
       4     58.350    112.700
       5     58.350    112.700
       6     58.350    112.700
       7     58.350    112.700
       8     50.000    109.500
       9     58.350    112.700
      10     50.000    109.500
      11     37.500    110.700
      12     37.500    110.700
      13     37.500    110.700
      14     37.500    110.700
      15     37.500    110.700
      16     37.500    110.700
      17     37.500    110.700
      18     37.500    110.700
      19     37.500    110.700
      20     37.500    110.700
      21     37.500    110.700
      22     37.500    110.700
      23     37.500    110.700
      24     37.500    110.700
      25     37.500    110.700
      26     37.500    110.700
      27     37.500    110.700
      28     37.500    110.700
      29     37.500    110.700
      30     37.500    110.700
      31     37.500    110.700
      32     40.000    107.000
      33     40.000    107.000
      34     37.500    110.700
      35     37.500    110.700
      36     33.000    107.800
      37     40.000    107.000
      38     33.000    107.800
      39     33.000    107.800
      40     33.000    107.800
      41     37.500    110.700
      42     33.000    107.800
      43     33.000    107.800
      44     37.500    110.700
      45     37.500    110.700
      46     33.000    107.800
      47     58.350    112.700
      48     37.500    110.700
      49     33.000    107.800
      50     37.500    110.700
      51     58.350    112.700
      52     33.000    107.800
      53     50.000    109.500
      54     33.000    107.800
      55     33.000    107.800
      56     58.350    112.700
      57     33.000    107.800
      58     37.500    110.700
      59     33.000    107.800
      60     33.000    107.800

Dihedral Coeffs  

       1      1.300     -0.200      0.200      0.000 
       2      1.300     -0.200      0.200      0.000 
       3      1.300     -0.200      0.200      0.000 
       4      1.300     -0.200      0.200      0.000 
       5      0.300     -0.400      0.400      0.000 
       6      0.300     -0.400      0.400      0.000 
       7      0.000      0.000      0.300      0.000 
       8      0.000      0.000      0.300      0.000 
       9      0.000      0.000      0.300      0.000 
      10      0.000      0.000      0.300      0.000 
      11      0.000      0.000      0.300      0.000 
      12      0.000      0.000      0.300      0.000 
      13      0.000      0.000      0.300      0.000 
      14      0.000      0.000      0.300      0.000 
      15      0.000      0.000      0.300      0.000 
      16      0.000      0.000      0.300      0.000 
      17      0.000      0.000      0.400      0.000 
      18      1.300     -0.200      0.200      0.000 
      19      0.000      0.000      0.400      0.000 
      20      0.000      0.000      0.300      0.000 
      21      0.000      0.000      0.300      0.000 
      22      0.000      0.000      0.300      0.000 
      23      0.000      0.000      0.300      0.000 
      24      0.000      0.000      0.300      0.000 
      25      0.000      0.000      0.300      0.000 
      26      0.000      0.000      0.300      0.000 
      27      0.000      0.000      0.300      0.000 
      28      0.000      0.000      0.300      0.000 
      29      0.000      0.000      0.300      0.000 
      30      0.000      0.000      0.300      0.000 
      31      0.000      0.000      0.300      0.000 
      32      0.000      0.000      0.300      0.000 
      33      0.000      0.000      0.300      0.000 
      34      0.000      0.000      0.300      0.000 
      35      0.000      0.000      0.300      0.000 
      36      0.000      0.000      0.300      0.000 
      37      0.000      0.000      0.300      0.000 
      38      0.000      0.000      0.300      0.000 
      39      0.000      0.000      0.300      0.000 
      40      0.000      0.000      0.300      0.000 
      41      0.000      0.000      0.400      0.000 
      42      0.000      0.000      0.300      0.000 
      43      0.000      0.000      0.300      0.000 
      44      0.000      0.000      0.300      0.000 
      45      0.000      0.000      0.400      0.000 
      46      0.000      0.000      0.300      0.000 
      47      0.000      0.000      0.300      0.000 
      48      0.000      0.000      0.300      0.000 
      49      0.000      0.000      0.300      0.000 
      50      0.000      0.000      0.400      0.000 
      51      0.000      0.000      0.300      0.000 
      52      0.000      0.000      0.300      0.000 
      53      1.300     -0.200      0.200      0.000 
      54      0.000      0.000      0.300      0.000 
      55      0.000      0.000      0.300      0.000 
      56      0.000      0.000      0.300      0.000 
      57      0.000      0.000      0.300      0.000 
      58      1.300     -0.200      0.200      0.000 
      59      0.000      0.000      0.300      0.000 
      60      0.000      0.000      0.300      0.000 
      61      0.000      0.000      0.300      0.000 
      62      0.000      0.000      0.300      0.000 
      63      0.000      0.000      0.300      0.000 
      64      0.000      0.000      0.300      0.000 
      65      1.300     -0.200      0.200      0.000 
      66      0.000      0.000      0.300      0.000 
      67      0.000      0.000      0.300      0.000 
      68      0.000      0.000      0.300      0.000 
      69      0.000      0.000      0.300      0.000 
      70      0.000      0.000      0.300      0.000 
      71      0.000      0.000      0.300      0.000 
      72      1.300     -0.200      0.200      0.000 
      73      0.000      0.000      0.300      0.000 
      74      0.000      0.000      0.300      0.000 
      75      0.000      0.000      0.300      0.000 
      76      0.000      0.000      0.300      0.000 
      77      0.000      0.000      0.300      0.000 
      78     -2.500      0.000      0.250      0.000 
      79      0.000      0.000      0.300      0.000 
      80      0.000      0.000      0.300      0.000 
      81      0.000      0.000      0.300      0.000 

Improper Coeffs 

       1      0.000      -1       2 
       2      0.000      -1       2 
       3      0.000      -1       2 
       4      0.000      -1       2 
       5      0.000      -1       2 
       6      0.000      -1       2 
       7      0.000      -1       2 
       8      0.000      -1       2 
       9      0.000      -1       2 
      10      0.000      -1       2 
      11      0.000      -1       2 
      12      0.000      -1       2 
      13      0.000      -1       2 
      14      0.000      -1       2 
      15      0.000      -1       2 
      16      0.000      -1       2 
      17      0.000      -1       2 
      18      0.000      -1       2 
      19      0.000      -1       2 
      20      0.000      -1       2 

Atoms 

     1      1      1 -0.23610000    1.000  1.00000  0.00000
     2      1      2 -0.16900000   -0.526  1.00000  0.00000
     3      1      3 -0.04410000   -1.214  1.00000  1.39892
     4      1      4 -0.22960000   -0.796 -0.25306  2.19157
     5      1      5 -0.22990000   -0.800  2.25559  2.18967
     6      1      6 -0.16620000   -2.759  0.99467  1.15558
     7      1      7 -0.17910000   -3.625  0.99213  2.42256
     8      1      8 -0.21740000   -5.124  0.98872  2.10340
     9      1      9 0.02420000   -5.939  0.98811  3.39656
    10      1     10 -0.17120000   -5.642  2.13327  4.08035
    11      1     11 -0.02780000   -7.435  0.96409  3.13473
    12      1     12 -0.17340000   -8.094  0.81125  4.31726
    13      1     13 0.08150000    1.369  1.00130 -1.03218
    14      1     14 0.08150000    1.407  0.11046  0.48825
    15      1     15 0.08150000    1.407  1.88838  0.49053
    16      1     16 0.08560000   -0.861  0.12122 -0.56717
    17      1     17 0.08560000   -0.861  1.87861 -0.56707
    18      1     18 0.08190000    0.284 -0.28361  2.36183
    19      1     19 0.08190000   -1.080 -1.16716  1.65855
    20      1     20 0.08190000   -1.261 -0.28068  3.18249
    21      1     21 0.08320000    0.280  2.28818  2.36040
    22      1     22 0.08320000   -1.266  2.28383  3.17933
    23      1     23 0.08320000   -1.085  3.16904  1.65479
    24      1     24 0.08690000   -3.021  0.11533  0.55065
    25      1     25 0.08690000   -3.026  1.87310  0.55381
    26      1     26 0.10080000   -3.401  1.87602  3.02773
    27      1     27 0.10080000   -3.400  0.10934  3.02877
    28      1     28 0.10510000   -5.374  0.10788  1.49965
    29      1     29 0.10510000   -5.368  1.88213  1.51709
    30      1     30 0.11830000   -5.658  0.14761  4.03988
    31      1     31 0.10250000   -7.719  0.12579  2.49183
    32      1     32 0.10250000   -7.775  1.90225  2.68774

Bonds 

     1      1      2      1
     2      2      3      2
     3      3      4      3
     4      4      5      3
     5      5      6      3
     6      6      7      6
     7      7      8      7
     8      8      9      8
     9      9     10      9
    10     10     11      9
    11     11     12     11
    12     12     13      1
    13     13     14      1
    14     14     15      1
    15     15     16      2
    16     16     17      2
    17     17     18      4
    18     18     19      4
    19     19     20      4
    20     20     21      5
    21     21     22      5
    22     22     23      5
    23     23     24      6
    24     24     25      6
    25     25     26      7
    26     26     27      7
    27     27     28      8
    28     28     29      8
    29     29     30      9
    30     30     31     11
    31     31     32     11

Angles 

     1      1      1      2      3
     2      2      2      3      4
     3      3      2      3      5
     4      4      2      3      6
     5      5      3      6      7
     6      6      6      7      8
     7      7      7      8      9
     8      8      8      9     10
     9      9      8      9     11
    10     10      9     11     12
    11     11      2      1     13
    12     12      2      1     14
    13     13      2      1     15
    14     14      1      2     16
    15     15      1      2     17
    16     16      3      4     18
    17     17      3      4     19
    18     18      3      4     20
    19     19      3      5     21
    20     20      3      5     22
    21     21      3      5     23
    22     22      3      6     24
    23     23      3      6     25
    24     24      6      7     26
    25     25      6      7     27
    26     26      7      8     28
    27     27      7      8     29
    28     28      8      9     30
    29     29      9     11     31
    30     30      9     11     32
    31     31      9      8     28
    32     32     12     11     31
    33     33     10      9     30
    34     34      8      7     27
    35     35      7      6     24
    36     36     13      1     14
    37     37     12     11     32
    38     38     22      5     23
    39     39     18      4     20
    40     40     21      5     22
    41     41      3      2     17
    42     42     16      2     17
    43     43     28      8     29
    44     44      7      6     25
    45     45      8      7     26
    46     46     31     11     32
    47     47      4      3      5
    48     48     11      9     30
    49     49     14      1     15
    50     50      9      8     29
    51     51      4      3      6
    52     52     19      4     20
    53     53     10      9     11
    54     54     21      5     23
    55     55     24      6     25
    56     56      5      3      6
    57     57     13      1     15
    58     58      3      2     16
    59     59     18      4     19
    60     60     26      7     27

Dihedrals

     1      1      4      3      2      1 
     2      2      7      6      3      2 
     3      3      8      7      6      3 
     4      4      9      8      7      6 
     5      5     10      9      8      7 
     6      6     12     11      9      8 
     7      7     13      1      2      3 
     8      8     18      4      3      2 
     9      9     21      5      3      2 
    10     10     16      2      3      4 
    11     11     20      4      3      5 
    12     12     16      2      3      6 
    13     13     23      5      3      2 
    14     14     27      7      8      9 
    15     15     21      5      3      4 
    16     16     22      5      3      2 
    17     17     32     11      9     10 
    18     18      5      3      2      1 
    19     19     28      8      9     10 
    20     20     27      7      6     24 
    21     21     27      7      6      3 
    22     22     25      6      3      5 
    23     23     31     11      9      8 
    24     24     29      8      9     11 
    25     25     24      6      3      5 
    26     26     18      4      3      5 
    27     27     17      2      3      6 
    28     28     21      5      3      6 
    29     29     29      8      7      6 
    30     30     26      7      8      9 
    31     31     30      9      8      7 
    32     32     19      4      3      6 
    33     33     26      7      6     25 
    34     34     16      2      1     14 
    35     35     19      4      3      2 
    36     36     16      2      1     13 
    37     37     22      5      3      6 
    38     38     32     11      9     30 
    39     39     26      7      6      3 
    40     40     17      2      1     15 
    41     41     30      9     11     12 
    42     42     20      4      3      6 
    43     43     18      4      3      6 
    44     44     19      4      3      5 
    45     45     31     11      9     10 
    46     46     22      5      3      4 
    47     47     29      8      7     26 
    48     48     17      2      3      5 
    49     49     20      4      3      2 
    50     50     29      8      9     10 
    51     51     30      9      8     28 
    52     52     26      7      6     24 
    53     53      6      3      2      1 
    54     54     17      2      1     13 
    55     55     14      1      2      3 
    56     56     28      8      7     26 
    57     57     25      6      7      8 
    58     58     11      9      8      7 
    59     59     30      9      8     29 
    60     60     24      6      3      2 
    61     61     27      7      6     25 
    62     62     31     11      9     30 
    63     63     32     11      9      8 
    64     64     24      6      3      4 
    65     65      7      6      3      5 
    66     66     25      6      3      4 
    67     67     16      2      1     15 
    68     68     17      2      1     14 
    69     69     25      6      3      2 
    70     70     28      8      9     11 
    71     71     23      5      3      4 
    72     72      7      6      3      4 
    73     73     28      8      7      6 
    74     74     16      2      3      5 
    75     75     15      1      2      3 
    76     76     29      8      7     27 
    77     77     28      8      7     27 
    78     78     12     11      9     10 
    79     79     17      2      3      4 
    80     80     24      6      7      8 
    81     81     23      5      3      6 

Impropers

     1      1      3      2      4      5 
     2      2      3      2      4      6 
     3      3      9     10     11      8 
     4      4      1      2     13     14 
     5      5      1      2     13     15 
     6      6      2      1      3     16 
     7      7      2     17      3      1 
     8      8      4     18     19      3 
     9      9      4     18      3     20 
    10     10      5     21      3     22 
    11     11      5     21      3     23 
    12     12      6      3      7     24 
    13     13      6     25      3      7 
    14     14      7     26      6      8 
    15     15      7     27      6      8 
    16     16      8      9     28      7 
    17     17      8      9     29      7 
    18     18      9     10     30      8 
    19     19     11      9     12     31 
    20     20     11      9     12     32 

