LAMMPS data file Created by LigParGen - (Written by Leela S. Dodda)

      42 atoms
      41 bonds
      74 angles
      88 dihedrals
      23 impropers
 
      42 atom types
      41 bond types
      74 angle types
      88 dihedral types
      23 improper types
 
  -10.841860    39.158140 xlo xhi
   -4.839800    45.160200 ylo yhi
   -1.361710    48.638290 zlo zhi

Masses

       1     12.011  
       2     12.011  
       3     12.011  
       4     12.011  
       5     12.011  
       6     12.011  
       7     12.011  
       8     15.999  
       9     15.999  
      10     12.011  
      11     12.011  
      12     12.011  
      13     15.999  
      14     15.999  
      15     12.011  
      16     15.999  
      17     15.999  
      18     12.011  
      19      1.008  
      20      1.008  
      21      1.008  
      22      1.008  
      23      1.008  
      24      1.008  
      25      1.008  
      26      1.008  
      27      1.008  
      28      1.008  
      29      1.008  
      30      1.008  
      31      1.008  
      32      1.008  
      33      1.008  
      34      1.008  
      35      1.008  
      36      1.008  
      37      1.008  
      38      1.008  
      39      1.008  
      40      1.008  
      41      1.008  
      42      1.008  

Pair Coeffs 

       1      0.066  3.5000000 
       2      0.066  3.5000000 
       3      0.066  3.5000000 
       4      0.066  3.5000000 
       5      0.066  3.5000000 
       6      0.066  3.5000000 
       7      0.070  3.5500000 
       8      0.210  2.9600000 
       9      0.140  2.9000000 
      10      0.066  3.5000000 
      11      0.066  3.5000000 
      12      0.066  3.5000000 
      13      0.140  2.9000000 
      14      0.140  2.9000000 
      15      0.066  3.5000000 
      16      0.140  2.9000000 
      17      0.140  2.9000000 
      18      0.066  3.5000000 
      19      0.030  2.5000000 
      20      0.030  2.5000000 
      21      0.030  2.5000000 
      22      0.030  2.5000000 
      23      0.030  2.5000000 
      24      0.030  2.5000000 
      25      0.030  2.5000000 
      26      0.030  2.5000000 
      27      0.030  2.5000000 
      28      0.030  2.5000000 
      29      0.030  2.5000000 
      30      0.030  2.5000000 
      31      0.030  2.5000000 
      32      0.030  2.5000000 
      33      0.030  2.5000000 
      34      0.030  2.5000000 
      35      0.030  2.5000000 
      36      0.030  2.5000000 
      37      0.030  2.5000000 
      38      0.030  2.5000000 
      39      0.030  2.5000000 
      40      0.030  2.5000000 
      41      0.030  2.5000000 
      42      0.030  2.5000000 

Bond Coeffs 

       1   268.0000     1.5290 
       2   268.0000     1.5290 
       3   268.0000     1.5290 
       4   268.0000     1.5290 
       5   268.0000     1.5290 
       6   317.0000     1.5220 
       7   570.0000     1.2290 
       8   214.0000     1.3270 
       9   320.0000     1.4100 
      10   268.0000     1.5290 
      11   268.0000     1.5290 
      12   320.0000     1.3800 
      13   250.0000     1.4700 
      14   320.0000     1.4100 
      15   320.0000     1.3800 
      16   250.0000     1.4700 
      17   320.0000     1.4100 
      18   340.0000     1.0900 
      19   340.0000     1.0900 
      20   340.0000     1.0900 
      21   340.0000     1.0900 
      22   340.0000     1.0900 
      23   340.0000     1.0900 
      24   340.0000     1.0900 
      25   340.0000     1.0900 
      26   340.0000     1.0900 
      27   340.0000     1.0900 
      28   340.0000     1.0900 
      29   340.0000     1.0900 
      30   340.0000     1.0900 
      31   340.0000     1.0900 
      32   340.0000     1.0900 
      33   340.0000     1.0900 
      34   340.0000     1.0900 
      35   340.0000     1.0900 
      36   340.0000     1.0900 
      37   340.0000     1.0900 
      38   340.0000     1.0900 
      39   340.0000     1.0900 
      40   340.0000     1.0900 
      41   340.0000     1.0900 

Angle Coeffs 

       1     58.350    112.700
       2     58.350    112.700
       3     58.350    112.700
       4     58.350    112.700
       5     63.000    111.100
       6     80.000    120.400
       7     81.000    111.400
       8     83.000    116.900
       9     50.000    109.500
      10     58.350    112.700
      11     50.000    109.500
      12     69.510    114.540
      13     69.510    114.540
      14     50.000    109.500
      15     69.510    114.540
      16     69.510    114.540
      17     37.500    110.700
      18     37.500    110.700
      19     37.500    110.700
      20     37.500    110.700
      21     37.500    110.700
      22     37.500    110.700
      23     37.500    110.700
      24     37.500    110.700
      25     37.500    110.700
      26     37.500    110.700
      27     37.500    110.700
      28     37.500    110.700
      29     37.500    110.700
      30     35.000    109.500
      31     35.000    109.500
      32     37.500    110.700
      33     37.500    110.700
      34     37.500    110.700
      35     35.000    109.500
      36     35.000    109.500
      37     35.000    109.500
      38     35.000    109.500
      39     35.000    109.500
      40     35.000    109.500
      41     37.500    110.700
      42     33.000    107.800
      43     33.000    107.800
      44     33.000    107.800
      45     37.500    110.700
      46     33.000    107.800
      47     33.000    107.800
      48     33.000    107.800
      49     37.500    110.700
      50     33.000    107.800
      51     33.000    107.800
      52     33.000    107.800
      53     83.000    123.400
      54     33.000    107.800
      55     33.000    107.800
      56     92.600    111.550
      57     37.500    110.700
      58     37.500    110.700
      59     33.000    107.800
      60     33.000    107.800
      61     33.000    107.800
      62     37.500    110.700
      63     63.000    111.100
      64     37.500    110.700
      65     50.000    109.500
      66     33.000    107.800
      67     33.000    107.800
      68     50.000    109.500
      69     35.000    109.500
      70     33.000    107.800
      71     37.500    110.700
      72     37.500    110.700
      73     33.000    107.800
      74     33.000    107.800

Dihedral Coeffs  

       1      1.300     -0.200      0.200      0.000 
       2      1.300     -0.200      0.200      0.000 
       3      1.300     -0.200      0.200      0.000 
       4      0.000      0.000      0.000      0.000 
       5      4.669      5.124      0.000      0.000 
       6     -1.220     -0.126      0.422      0.000 
       7      1.711     -0.500      0.663      0.000 
       8      0.650     -0.250      0.670      0.000 
       9      0.650     -0.250      0.670      0.000 
      10      0.650     -0.250      0.670      0.000 
      11      0.650     -0.250      0.670      0.000 
      12      0.000      0.000      0.300      0.000 
      13      0.000      0.000      0.300      0.000 
      14      0.000      0.000      0.300      0.000 
      15      0.000      0.000      0.760      0.000 
      16      0.000      0.000      0.760      0.000 
      17      0.000      0.000      0.300      0.000 
      18      0.000      0.000      0.198      0.000 
      19      0.000      0.000      0.468      0.000 
      20      0.000      0.000      0.132      0.000 
      21      0.000      0.000      0.300      0.000 
      22      0.000      0.000     -0.100      0.000 
      23      0.000      0.000      0.468      0.000 
      24      0.000      0.000      0.760      0.000 
      25      0.000      0.000      0.760      0.000 
      26      0.000      0.000      0.760      0.000 
      27      0.000      0.000      0.300      0.000 
      28      0.000      0.000      0.300      0.000 
      29      0.000      0.000      0.300      0.000 
      30      0.000      0.000     -0.553      0.000 
      31      0.000      5.124      0.000      0.000 
      32      0.000      0.000      0.300      0.000 
      33      0.000      0.000      0.468      0.000 
      34      0.000      0.000      0.300      0.000 
      35     -0.550      0.000      0.000      0.000 
      36      0.000      0.000      0.468      0.000 
      37      0.000      0.000      0.300      0.000 
      38      0.000      0.000      0.300      0.000 
      39      0.000      0.000      0.300      0.000 
      40      0.000      0.000     -0.100      0.000 
      41      0.000      0.000      0.300      0.000 
      42      0.000      0.000      0.300      0.000 
      43     -0.375     -1.358      0.004      0.000 
      44      0.000      0.000      0.468      0.000 
      45      0.000      0.000      0.300      0.000 
      46      0.000      0.000      0.468      0.000 
      47      0.000      0.000      0.300      0.000 
      48      0.000      0.000      0.300      0.000 
      49      0.000      0.000     -0.100      0.000 
      50      0.000      0.000      0.300      0.000 
      51      0.000      0.000      0.300      0.000 
      52      0.650     -0.250      0.670      0.000 
      53      0.000      0.000     -0.100      0.000 
      54      0.000      0.000      0.468      0.000 
      55      0.000      0.000      0.300      0.000 
      56      0.000      0.000      0.300      0.000 
      57      0.000      0.000     -0.100      0.000 
      58      0.650     -0.250      0.670      0.000 
      59      0.000      0.000      0.300      0.000 
      60      0.000      0.000      0.468      0.000 
      61      0.000      0.000      0.300      0.000 
      62      0.000      0.000      0.300      0.000 
      63      0.000      0.000      0.760      0.000 
      64      0.000      0.000      0.468      0.000 
      65      0.000      0.000      0.300      0.000 
      66      0.000      0.000      0.300      0.000 
      67      0.000      0.000      0.300      0.000 
      68      0.000      0.000      0.000      0.000 
      69      0.000      0.000     -0.553      0.000 
      70     -0.550      0.000      0.000      0.000 
      71      0.000      0.000      0.300      0.000 
      72      0.000      0.000      0.000      0.000 
      73     -2.060     -0.313      0.315      0.000 
      74      0.000      0.000      0.198      0.000 
      75      0.000      0.000      0.300      0.000 
      76      0.000      0.000      0.300      0.000 
      77      0.000      0.000      0.300      0.000 
      78      0.000      0.000      0.300      0.000 
      79      0.000      0.000      0.300      0.000 
      80      0.000      0.000      0.468      0.000 
      81      0.000      0.000      0.300      0.000 
      82      0.000      0.000      0.300      0.000 
      83      0.000      0.000      0.300      0.000 
      84      0.000      0.000      0.300      0.000 
      85      0.000      0.000      0.300      0.000 
      86     -0.375     -1.358      0.004      0.000 
      87      0.000      0.000      0.300      0.000 
      88      0.000      0.000      0.300      0.000 

Improper Coeffs 

       1      0.000      -1       2 
       2     10.500      -1       2 
       3      0.000      -1       2 
       4      0.000      -1       2 
       5      0.000      -1       2 
       6      0.000      -1       2 
       7      0.000      -1       2 
       8      0.000      -1       2 
       9      0.000      -1       2 
      10      0.000      -1       2 
      11      0.000      -1       2 
      12      0.000      -1       2 
      13      0.000      -1       2 
      14      0.000      -1       2 
      15      0.000      -1       2 
      16      0.000      -1       2 
      17      0.000      -1       2 
      18      0.000      -1       2 
      19      0.000      -1       2 
      20      0.000      -1       2 
      21      0.000      -1       2 
      22      0.000      -1       2 
      23      0.000      -1       2 

Atoms 

     1      1      1 -0.23900000    1.000  1.00000  0.00000
     2      1      2 -0.18000000   -0.520  1.00000  0.00000
     3      1      3 -0.17500000   -1.074  1.00000  1.42570
     4      1      4 -0.17190000   -2.606  1.00181  1.41914
     5      1      5 -0.11440000   -3.229  1.00012  2.82500
     6      1      6 -0.23400000   -2.817  2.22023  3.65258
     7      1      7 0.43460000   -4.745  0.96375  2.69949
     8      1      8 -0.44800000   -5.491  1.87453  3.02913
     9      1      9 -0.34540000   -5.150 -0.22415  2.17103
    10      1     10 -0.03630000   -6.573 -0.38933  1.99986
    11      1     11 0.26860000   -6.981 -0.47049  0.50885
    12      1     12 -0.26270000   -6.470  0.71652 -0.31535
    13      1     13 -0.20500000   -6.353 -1.63440 -0.08497
    14      1     14 -0.20350000   -6.975 -2.81123  0.52312
    15      1     15 -0.07750000   -6.335 -3.92672 -0.07921
    16      1     16 -0.21880000   -8.416 -0.54738  0.37345
    17      1     17 -0.20020000   -8.972  0.66818  0.96967
    18      1     18 -0.07770000  -10.381  0.49701  0.94296
    19      1     19 0.08200000    1.379  1.00130 -1.02655
    20      1     20 0.08200000    1.391  0.11239  0.50725
    21      1     21 0.08200000    1.391  1.88784  0.50765
    22      1     22 0.09050000   -0.881  0.11812 -0.54295
    23      1     23 0.09050000   -0.878  1.88502 -0.53917
    24      1     24 0.09250000   -0.700  1.89015  1.94314
    25      1     25 0.09250000   -0.708  0.12401  1.96723
    26      1     26 0.10300000   -2.951  0.11251  0.87210
    27      1     27 0.10300000   -2.973  1.86766  0.85526
    28      1     28 0.13330000   -2.921  0.10121  3.37411
    29      1     29 0.09580000   -3.076  3.15248  3.13765
    30      1     30 0.09580000   -1.743  2.22844  3.85648
    31      1     31 0.09580000   -3.332  2.22498  4.62003
    32      1     32 0.14110000   -7.138  0.39233  2.51798
    33      1     33 0.14110000   -6.835 -1.32189  2.51031
    34      1     34 0.11310000   -5.377  0.77211 -0.31461
    35      1     35 0.11310000   -6.872  1.66880  0.04300
    36      1     36 0.11310000   -6.783  0.60842 -1.36171
    37      1     37 0.10240000   -6.763 -4.83980  0.34245
    38      1     38 0.10240000   -5.262 -3.90745  0.13367
    39      1     39 0.10240000   -6.508 -3.91887 -1.15915
    40      1     40 0.10630000  -10.842  1.34100  1.46381
    41      1     41 0.10630000  -10.660 -0.42941  1.45312
    42      1     42 0.10630000  -10.732  0.48428 -0.09185

Bonds 

     1      1      2      1
     2      2      3      2
     3      3      4      3
     4      4      5      4
     5      5      6      5
     6      6      7      5
     7      7      8      7
     8      8      9      7
     9      9     10      9
    10     10     11     10
    11     11     12     11
    12     12     13     11
    13     13     14     13
    14     14     15     14
    15     15     16     11
    16     16     17     16
    17     17     18     17
    18     18     19      1
    19     19     20      1
    20     20     21      1
    21     21     22      2
    22     22     23      2
    23     23     24      3
    24     24     25      3
    25     25     26      4
    26     26     27      4
    27     27     28      5
    28     28     29      6
    29     29     30      6
    30     30     31      6
    31     31     32     10
    32     32     33     10
    33     33     34     12
    34     34     35     12
    35     35     36     12
    36     36     37     15
    37     37     38     15
    38     38     39     15
    39     39     40     18
    40     40     41     18
    41     41     42     18

Angles 

     1      1      1      2      3
     2      2      2      3      4
     3      3      3      4      5
     4      4      4      5      6
     5      5      4      5      7
     6      6      5      7      8
     7      7      5      7      9
     8      8      7      9     10
     9      9      9     10     11
    10     10     10     11     12
    11     11     10     11     13
    12     12     11     13     14
    13     13     13     14     15
    14     14     10     11     16
    15     15     11     16     17
    16     16     16     17     18
    17     17      2      1     19
    18     18      2      1     20
    19     19      2      1     21
    20     20      1      2     22
    21     21      1      2     23
    22     22      2      3     24
    23     23      2      3     25
    24     24      3      4     26
    25     25      3      4     27
    26     26      4      5     28
    27     27      5      6     29
    28     28      5      6     30
    29     29      5      6     31
    30     30      9     10     32
    31     31      9     10     33
    32     32     11     12     34
    33     33     11     12     35
    34     34     11     12     36
    35     35     14     15     37
    36     36     14     15     38
    37     37     14     15     39
    38     38     17     18     40
    39     39     17     18     41
    40     40     17     18     42
    41     41     11     10     33
    42     42     19      1     20
    43     43     40     18     41
    44     44     35     12     36
    45     45     11     10     32
    46     46     34     12     36
    47     47     40     18     42
    48     48     29      6     30
    49     49      5      4     26
    50     50     32     10     33
    51     51     30      6     31
    52     52     41     18     42
    53     53      8      7      9
    54     54     29      6     31
    55     55     20      1     21
    56     56     13     11     16
    57     57      3      2     22
    58     58      3      2     23
    59     59     19      1     21
    60     60     37     15     39
    61     61     22      2     23
    62     62      4      3     25
    63     63      6      5      7
    64     64      4      3     24
    65     65     12     11     16
    66     66     38     15     39
    67     67     37     15     38
    68     68     12     11     13
    69     69      7      5     28
    70     70     34     12     35
    71     71      5      4     27
    72     72      6      5     28
    73     73     26      4     27
    74     74     24      3     25

Dihedrals

     1      1      4      3      2      1 
     2      2      5      4      3      2 
     3      3      6      5      4      3 
     4      4      8      7      5      4 
     5      5     10      9      7      5 
     6      6     11     10      9      7 
     7      7     12     11     10      9 
     8      8     14     13     11     10 
     9      9     15     14     13     11 
    10     10     17     16     11     10 
    11     11     18     17     16     11 
    12     12     19      1      2      3 
    13     13     29      6      5      4 
    14     14     34     12     11     10 
    15     15     37     15     14     13 
    16     16     40     18     17     16 
    17     17     25      3      4      5 
    18     18     33     10      9      7 
    19     19     36     12     11     13 
    20     20     28      5      7      9 
    21     21     23      2      1     21 
    22     22     31      6      5      7 
    23     23     33     10     11     13 
    24     24     42     18     17     16 
    25     25     39     15     14     13 
    26     26     41     18     17     16 
    27     27     23      2      3      4 
    28     28     24      3      2     22 
    29     29     27      4      3     25 
    30     30      9      7      5      6 
    31     31     10      9      7      8 
    32     32     32     10     11     12 
    33     33     34     12     11     13 
    34     34     26      4      3      2 
    35     35     13     11     10      9 
    36     36     32     10     11     16 
    37     37     22      2      1     20 
    38     38     23      2      1     19 
    39     39     25      3      2     23 
    40     40     26      4      5      7 
    41     41     21      1      2      3 
    42     42     27      4      5      6 
    43     43     17     16     11     13 
    44     44     35     12     11     16 
    45     45     30      6      5      4 
    46     46     34     12     11     16 
    47     47     24      3      4      5 
    48     48     22      2      1     19 
    49     49     27      4      5      7 
    50     50     26      4      3     25 
    51     51     27      4      3     24 
    52     52     14     13     11     12 
    53     53     30      6      5      7 
    54     54     36     12     11     16 
    55     55     27      4      3      2 
    56     56     33     10     11     12 
    57     57     29      6      5      7 
    58     58     17     16     11     12 
    59     59     30      6      5     28 
    60     60     32     10     11     13 
    61     61     24      3      2     23 
    62     62     25      3      2     22 
    63     63     38     15     14     13 
    64     64     33     10     11     16 
    65     65     24      3      2      1 
    66     66     20      1      2      3 
    67     67     28      5      4     26 
    68     68     28      5      7      8 
    69     69      9      7      5      4 
    70     70     16     11     10      9 
    71     71     26      4      5      6 
    72     72      8      7      5      6 
    73     73      7      5      4      3 
    74     74     32     10      9      7 
    75     75     23      2      1     20 
    76     76     22      2      1     21 
    77     77     22      2      3      4 
    78     78     25      3      2      1 
    79     79     29      6      5     28 
    80     80     35     12     11     13 
    81     81     35     12     11     10 
    82     82     28      5      4     27 
    83     83     36     12     11     10 
    84     84     31      6      5      4 
    85     85     26      4      3     24 
    86     86     16     11     13     14 
    87     87     31      6      5     28 
    88     88     28      5      4      3 

Impropers

     1      1      5      4      6      7 
     2      2      7      9      5      8 
     3      3     11     10     12     13 
     4      4     11     10     12     16 
     5      5      1      2     19     20 
     6      6      1      2     19     21 
     7      7      2      1      3     22 
     8      8      2      1      3     23 
     9      9      3      2      4     24 
    10     10      3     25      2      4 
    11     11      4     26      3      5 
    12     12      4     27      5      3 
    13     13      5      4     28      6 
    14     14      6     29      5     30 
    15     15      6     29      5     31 
    16     16     10      9     11     32 
    17     17     10     33     11      9 
    18     18     12     34     35     11 
    19     19     12     34     11     36 
    20     20     15     37     38     14 
    21     21     15     37     39     14 
    22     22     18     41     17     40 
    23     23     18     17     42     40 

