LAMMPS data file Created by LigParGen - (Written by Leela S. Dodda)

      52 atoms
      51 bonds
      99 angles
     138 dihedrals
      33 impropers
 
      52 atom types
      51 bond types
      99 angle types
     138 dihedral types
      33 improper types
 
  -13.274900    36.725100 xlo xhi
   -4.157360    45.842640 ylo yhi
   -1.025920    48.974080 zlo zhi

Masses

       1     12.011  
       2     12.011  
       3     12.011  
       4     12.011  
       5     12.011  
       6     12.011  
       7     12.011  
       8     12.011  
       9     12.011  
      10     12.011  
      11     12.011  
      12     12.011  
      13     12.011  
      14     12.011  
      15     15.999  
      16     12.011  
      17     12.011  
      18     12.011  
      19      1.008  
      20      1.008  
      21      1.008  
      22      1.008  
      23      1.008  
      24      1.008  
      25      1.008  
      26      1.008  
      27      1.008  
      28      1.008  
      29      1.008  
      30      1.008  
      31      1.008  
      32      1.008  
      33      1.008  
      34      1.008  
      35      1.008  
      36      1.008  
      37      1.008  
      38      1.008  
      39      1.008  
      40      1.008  
      41      1.008  
      42      1.008  
      43      1.008  
      44      1.008  
      45      1.008  
      46      1.008  
      47      1.008  
      48      1.008  
      49      1.008  
      50      1.008  
      51      1.008  
      52      1.008  

Pair Coeffs 

       1      0.066  3.5000000 
       2      0.066  3.5000000 
       3      0.066  3.5000000 
       4      0.066  3.5000000 
       5      0.066  3.5000000 
       6      0.066  3.5000000 
       7      0.066  3.5000000 
       8      0.066  3.5000000 
       9      0.066  3.5000000 
      10      0.066  3.5000000 
      11      0.066  3.5000000 
      12      0.066  3.5000000 
      13      0.066  3.5000000 
      14      0.070  3.5500000 
      15      0.210  2.9600000 
      16      0.066  3.5000000 
      17      0.066  3.5000000 
      18      0.066  3.5000000 
      19      0.030  2.5000000 
      20      0.030  2.5000000 
      21      0.030  2.5000000 
      22      0.030  2.5000000 
      23      0.030  2.5000000 
      24      0.030  2.5000000 
      25      0.030  2.5000000 
      26      0.030  2.5000000 
      27      0.030  2.5000000 
      28      0.030  2.5000000 
      29      0.030  2.5000000 
      30      0.030  2.5000000 
      31      0.030  2.5000000 
      32      0.030  2.5000000 
      33      0.030  2.5000000 
      34      0.030  2.5000000 
      35      0.030  2.5000000 
      36      0.030  2.5000000 
      37      0.030  2.5000000 
      38      0.030  2.5000000 
      39      0.030  2.5000000 
      40      0.030  2.5000000 
      41      0.030  2.5000000 
      42      0.030  2.5000000 
      43      0.030  2.5000000 
      44      0.030  2.5000000 
      45      0.030  2.5000000 
      46      0.030  2.5000000 
      47      0.030  2.5000000 
      48      0.030  2.5000000 
      49      0.030  2.5000000 
      50      0.030  2.5000000 
      51      0.030  2.5000000 
      52      0.030  2.5000000 

Bond Coeffs 

       1   268.0000     1.5290 
       2   268.0000     1.5290 
       3   268.0000     1.5290 
       4   268.0000     1.5290 
       5   268.0000     1.5290 
       6   268.0000     1.5290 
       7   268.0000     1.5290 
       8   268.0000     1.5290 
       9   268.0000     1.5290 
      10   268.0000     1.5290 
      11   268.0000     1.5290 
      12   268.0000     1.5290 
      13   317.0000     1.5220 
      14   570.0000     1.2290 
      15   317.0000     1.5220 
      16   268.0000     1.5290 
      17   268.0000     1.5290 
      18   340.0000     1.0900 
      19   340.0000     1.0900 
      20   340.0000     1.0900 
      21   340.0000     1.0900 
      22   340.0000     1.0900 
      23   340.0000     1.0900 
      24   340.0000     1.0900 
      25   340.0000     1.0900 
      26   340.0000     1.0900 
      27   340.0000     1.0900 
      28   340.0000     1.0900 
      29   340.0000     1.0900 
      30   340.0000     1.0900 
      31   340.0000     1.0900 
      32   340.0000     1.0900 
      33   340.0000     1.0900 
      34   340.0000     1.0900 
      35   340.0000     1.0900 
      36   340.0000     1.0900 
      37   340.0000     1.0900 
      38   340.0000     1.0900 
      39   340.0000     1.0900 
      40   340.0000     1.0900 
      41   340.0000     1.0900 
      42   340.0000     1.0900 
      43   340.0000     1.0900 
      44   340.0000     1.0900 
      45   340.0000     1.0900 
      46   340.0000     1.0900 
      47   340.0000     1.0900 
      48   340.0000     1.0900 
      49   340.0000     1.0900 
      50   340.0000     1.0900 
      51   340.0000     1.0900 

Angle Coeffs 

       1     58.350    112.700
       2     58.350    112.700
       3     58.350    112.700
       4     58.350    112.700
       5     58.350    112.700
       6     58.350    112.700
       7     58.350    112.700
       8     58.350    112.700
       9     58.350    112.700
      10     58.350    112.700
      11     58.350    112.700
      12     63.000    111.100
      13     80.000    120.400
      14     70.000    116.000
      15     63.000    111.100
      16     63.000    111.100
      17     37.500    110.700
      18     37.500    110.700
      19     37.500    110.700
      20     37.500    110.700
      21     37.500    110.700
      22     37.500    110.700
      23     37.500    110.700
      24     37.500    110.700
      25     37.500    110.700
      26     37.500    110.700
      27     37.500    110.700
      28     37.500    110.700
      29     37.500    110.700
      30     37.500    110.700
      31     37.500    110.700
      32     37.500    110.700
      33     37.500    110.700
      34     37.500    110.700
      35     37.500    110.700
      36     37.500    110.700
      37     37.500    110.700
      38     37.500    110.700
      39     37.500    110.700
      40     37.500    110.700
      41     37.500    110.700
      42     37.500    110.700
      43     37.500    110.700
      44     35.000    109.500
      45     37.500    110.700
      46     37.500    110.700
      47     37.500    110.700
      48     37.500    110.700
      49     37.500    110.700
      50     37.500    110.700
      51     37.500    110.700
      52     33.000    107.800
      53     37.500    110.700
      54     33.000    107.800
      55     33.000    107.800
      56     33.000    107.800
      57     37.500    110.700
      58     63.000    111.100
      59     33.000    107.800
      60     33.000    107.800
      61     37.500    110.700
      62     33.000    107.800
      63     33.000    107.800
      64     33.000    107.800
      65     80.000    120.400
      66     37.500    110.700
      67     37.500    110.700
      68     37.500    110.700
      69     37.500    110.700
      70     63.000    111.100
      71     33.000    107.800
      72     33.000    107.800
      73     37.500    110.700
      74     37.500    110.700
      75     33.000    107.800
      76     33.000    107.800
      77     33.000    107.800
      78     33.000    107.800
      79     58.350    112.700
      80     33.000    107.800
      81     33.000    107.800
      82     33.000    107.800
      83     37.500    110.700
      84     37.500    110.700
      85     33.000    107.800
      86     33.000    107.800
      87     33.000    107.800
      88     37.500    110.700
      89     33.000    107.800
      90     37.500    110.700
      91     37.500    110.700
      92     37.500    110.700
      93     37.500    110.700
      94     37.500    110.700
      95     37.500    110.700
      96     33.000    107.800
      97     58.350    112.700
      98     33.000    107.800
      99     37.500    110.700

Dihedral Coeffs  

       1      1.300     -0.200      0.200      0.000 
       2      1.300     -0.200      0.200      0.000 
       3      1.300     -0.200      0.200      0.000 
       4      1.300     -0.200      0.200      0.000 
       5      1.300     -0.200      0.200      0.000 
       6      1.300     -0.200      0.200      0.000 
       7      1.300     -0.200      0.200      0.000 
       8      1.300     -0.200      0.200      0.000 
       9      1.300     -0.200      0.200      0.000 
      10      0.000      0.000      0.000      0.000 
      11      1.454     -0.144     -0.775      0.000 
      12      0.000      0.000      0.300      0.000 
      13      0.000      0.000      0.300      0.000 
      14      0.000      0.000      0.300      0.000 
      15      0.000      0.000     -0.100      0.000 
      16      0.000      0.000     -0.100      0.000 
      17      0.000      0.000      0.300      0.000 
      18      0.000      0.000      0.300      0.000 
      19      0.000      0.000      0.300      0.000 
      20      0.000      0.000      0.000      0.000 
      21      0.000      0.000      0.300      0.000 
      22      0.000      0.000      0.300      0.000 
      23      0.000      0.000     -0.100      0.000 
      24      0.000      0.000      0.275      0.000 
      25      0.000      0.000     -0.100      0.000 
      26      0.000      0.000      0.300      0.000 
      27      0.000      0.000      0.300      0.000 
      28      0.000      0.000      0.300      0.000 
      29      0.000      0.000      0.300      0.000 
      30      0.000      0.000      0.300      0.000 
      31      0.000      0.000      0.300      0.000 
      32      0.000      0.000      0.000      0.000 
      33      0.000      0.000      0.300      0.000 
      34      0.000      0.000      0.300      0.000 
      35      0.000      0.000     -0.100      0.000 
      36      0.000      0.000      0.300      0.000 
      37      0.000      0.000      0.300      0.000 
      38      0.000      0.000      0.300      0.000 
      39      0.000      0.000      0.300      0.000 
      40      0.000      0.000      0.300      0.000 
      41      0.000      0.000      0.300      0.000 
      42      0.000      0.000      0.300      0.000 
      43      0.000      0.000      0.300      0.000 
      44      0.000      0.000      0.300      0.000 
      45      0.000      0.000      0.300      0.000 
      46      0.000      0.000     -0.100      0.000 
      47      0.000      0.000      0.300      0.000 
      48      0.000      0.000      0.300      0.000 
      49      0.000      0.000     -0.100      0.000 
      50      0.000      0.000      0.300      0.000 
      51      0.000      0.000      0.300      0.000 
      52      0.000      0.000      0.300      0.000 
      53      0.000      0.000      0.300      0.000 
      54      0.000      0.000      0.300      0.000 
      55      0.000      0.000     -0.100      0.000 
      56      0.000      0.000      0.300      0.000 
      57      0.000      0.000      0.300      0.000 
      58      0.000      0.000     -0.100      0.000 
      59      0.000      0.000      0.300      0.000 
      60      1.300     -0.200      0.200      0.000 
      61      0.000      0.000      0.300      0.000 
      62      0.000      0.000      0.300      0.000 
      63      0.000      0.000      0.300      0.000 
      64      0.000      0.000      0.300      0.000 
      65      0.000      0.000      0.300      0.000 
      66      0.000      0.000      0.000      0.000 
      67      0.000      0.000      0.300      0.000 
      68      0.000      0.000      0.300      0.000 
      69      0.000      0.000      0.300      0.000 
      70      0.000      0.000      0.300      0.000 
      71      0.000      0.000      0.300      0.000 
      72      0.000      0.000      0.300      0.000 
      73      0.000      0.000      0.300      0.000 
      74      0.000      0.000     -0.100      0.000 
      75      0.000      0.000      0.300      0.000 
      76      0.000      0.000     -0.100      0.000 
      77      0.000      0.000      0.300      0.000 
      78      1.454     -0.144     -0.775      0.000 
      79      0.000      0.000      0.300      0.000 
      80      0.000      0.000      0.300      0.000 
      81      0.000      0.000      0.300      0.000 
      82      0.000      0.000      0.300      0.000 
      83      0.000      0.000      0.300      0.000 
      84      0.000      0.000      0.300      0.000 
      85      1.454     -0.144     -0.775      0.000 
      86      0.000      0.000      0.300      0.000 
      87      0.000      0.000      0.300      0.000 
      88      0.000      0.000      0.300      0.000 
      89      0.000      0.000     -0.100      0.000 
      90      0.000      0.000      0.300      0.000 
      91      0.000      0.000      0.300      0.000 
      92      0.000      0.000      0.300      0.000 
      93      0.000      0.000      0.300      0.000 
      94      0.000      0.000      0.300      0.000 
      95      0.000      0.000      0.300      0.000 
      96      0.000      0.000      0.300      0.000 
      97      0.000      0.000      0.300      0.000 
      98      0.000      0.000      0.300      0.000 
      99      0.000      0.000      0.300      0.000 
     100      0.000      0.000      0.300      0.000 
     101      0.000      0.000      0.300      0.000 
     102      0.000      0.000      0.300      0.000 
     103      0.000      0.000     -0.100      0.000 
     104      0.000      0.000      0.300      0.000 
     105      0.000      0.000      0.300      0.000 
     106      0.000      0.000      0.300      0.000 
     107      0.000      0.000      0.300      0.000 
     108      0.000      0.000      0.000      0.000 
     109      1.454     -0.144     -0.775      0.000 
     110      0.000      0.000      0.300      0.000 
     111      0.000      0.000      0.300      0.000 
     112      0.000      0.000      0.300      0.000 
     113      0.000      0.000      0.300      0.000 
     114      0.000      0.000      0.300      0.000 
     115      0.000      0.000      0.300      0.000 
     116      0.000      0.000      0.300      0.000 
     117      1.454     -0.144     -0.775      0.000 
     118      0.000      0.000      0.300      0.000 
     119      0.000      0.000      0.300      0.000 
     120      0.000      0.000      0.300      0.000 
     121      0.000      0.000      0.300      0.000 
     122      0.000      0.000      0.300      0.000 
     123      0.000      0.000      0.300      0.000 
     124      0.000      0.000      0.300      0.000 
     125      0.000      0.000      0.300      0.000 
     126     -2.060     -0.313      0.315      0.000 
     127      0.000      0.000      0.000      0.000 
     128      0.000      0.000      0.300      0.000 
     129      0.000      0.000      0.300      0.000 
     130      0.000      0.000      0.300      0.000 
     131      0.000      0.000      0.300      0.000 
     132      0.000      0.000      0.300      0.000 
     133      0.000      0.000      0.300      0.000 
     134      0.000      0.000      0.300      0.000 
     135      0.000      0.000      0.300      0.000 
     136      0.000      0.000     -0.100      0.000 
     137      0.000      0.000      0.300      0.000 
     138      0.000      0.000      0.300      0.000 

Improper Coeffs 

       1      0.000      -1       2 
       2      0.000      -1       2 
       3     10.500      -1       2 
       4      0.000      -1       2 
       5      0.000      -1       2 
       6      0.000      -1       2 
       7      0.000      -1       2 
       8      0.000      -1       2 
       9      0.000      -1       2 
      10      0.000      -1       2 
      11      0.000      -1       2 
      12      0.000      -1       2 
      13      0.000      -1       2 
      14      0.000      -1       2 
      15      0.000      -1       2 
      16      0.000      -1       2 
      17      0.000      -1       2 
      18      0.000      -1       2 
      19      0.000      -1       2 
      20      0.000      -1       2 
      21      0.000      -1       2 
      22      0.000      -1       2 
      23      0.000      -1       2 
      24      0.000      -1       2 
      25      0.000      -1       2 
      26      0.000      -1       2 
      27      0.000      -1       2 
      28      0.000      -1       2 
      29      0.000      -1       2 
      30      0.000      -1       2 
      31      0.000      -1       2 
      32      0.000      -1       2 
      33      0.000      -1       2 

Atoms 

     1      1      1 -0.23900000    1.000  1.00000  0.00000
     2      1      2 -0.17970000   -0.519  1.00000  0.00000
     3      1      3 -0.17850000   -1.066  1.00000  1.42555
     4      1      4 -0.18030000   -2.590  1.00180  1.42718
     5      1      5 -0.17950000   -3.143  1.00361  2.85343
     6      1      6 -0.18120000   -4.667  1.00356  2.81602
     7      1      7 -0.17590000   -5.288  0.94037  4.21332
     8      1      8 -0.17520000   -6.822  0.87527  4.17000
     9      1      9 -0.18140000   -7.307 -0.37158  3.42830
    10      1     10 -0.16370000   -8.830 -0.48551  3.35809
    11      1     11 -0.08870000   -9.349 -1.71841  2.54851
    12      1     12 -0.22850000   -8.826 -1.66613  1.10116
    13      1     13 -0.22830000   -8.904 -3.02482  3.22508
    14      1     14 0.37350000  -10.894 -1.66727  2.53186
    15      1     15 -0.44810000  -11.510 -0.75891  3.09632
    16      1     16 -0.15990000  -11.668 -2.76864  1.80072
    17      1     17 -0.23210000  -12.566 -3.50705  2.78875
    18      1     18 -0.23120000  -12.480 -2.14152  0.67402
    19      1     19 0.08090000    1.380  1.00130 -1.02592
    20      1     20 0.08090000    1.389  0.11160  0.50770
    21      1     21 0.08090000    1.389  1.88780  0.50898
    22      1     22 0.08830000   -0.881  0.11745 -0.54050
    23      1     23 0.08830000   -0.880  1.88405 -0.53858
    24      1     24 0.08990000   -0.698  1.88299  1.96152
    25      1     25 0.08990000   -0.699  0.11558  1.96036
    26      1     26 0.08880000   -2.957  0.11764  0.88965
    27      1     27 0.08880000   -2.961  1.88332  0.88983
    28      1     28 0.09020000   -2.780  1.88277  3.39738
    29      1     29 0.09020000   -2.787  0.11278  3.38553
    30      1     30 0.08950000   -4.973  0.13748  2.22165
    31      1     31 0.08950000   -5.028  1.89918  2.29684
    32      1     32 0.08880000   -4.984  1.82416  4.78718
    33      1     33 0.08880000   -4.903  0.06342  4.74864
    34      1     34 0.09130000   -7.214  1.77787  3.68678
    35      1     35 0.09130000   -7.205  0.86546  5.19730
    36      1     36 0.08860000   -6.880 -1.25086  3.91968
    37      1     37 0.08860000   -6.928 -0.34009  2.40636
    38      1     38 0.10400000   -9.224  0.43386  2.90289
    39      1     39 0.10400000   -9.231 -0.51930  4.37978
    40      1     40 0.08910000   -7.737 -1.76377  1.05507
    41      1     41 0.08910000   -9.106 -0.72345  0.61753
    42      1     42 0.08910000   -9.227 -2.47735  0.48584
    43      1     43 0.08910000   -7.817 -3.08398  3.33415
    44      1     44 0.08910000   -9.203 -3.90379  2.64482
    45      1     45 0.08910000   -9.351 -3.12032  4.22094
    46      1     46 0.11180000  -10.976 -3.49391  1.36468
    47      1     47 0.09170000  -13.136 -2.81717  3.41950
    48      1     48 0.09170000  -11.963 -4.13471  3.45521
    49      1     49 0.09170000  -13.275 -4.15736  2.26601
    50      1     50 0.09150000  -13.205 -1.41529  1.05655
    51      1     51 0.09150000  -13.028 -2.90848  0.11716
    52      1     52 0.09150000  -11.824 -1.61530 -0.02865

Bonds 

     1      1      2      1
     2      2      3      2
     3      3      4      3
     4      4      5      4
     5      5      6      5
     6      6      7      6
     7      7      8      7
     8      8      9      8
     9      9     10      9
    10     10     11     10
    11     11     12     11
    12     12     13     11
    13     13     14     11
    14     14     15     14
    15     15     16     14
    16     16     17     16
    17     17     18     16
    18     18     19      1
    19     19     20      1
    20     20     21      1
    21     21     22      2
    22     22     23      2
    23     23     24      3
    24     24     25      3
    25     25     26      4
    26     26     27      4
    27     27     28      5
    28     28     29      5
    29     29     30      6
    30     30     31      6
    31     31     32      7
    32     32     33      7
    33     33     34      8
    34     34     35      8
    35     35     36      9
    36     36     37      9
    37     37     38     10
    38     38     39     10
    39     39     40     12
    40     40     41     12
    41     41     42     12
    42     42     43     13
    43     43     44     13
    44     44     45     13
    45     45     46     16
    46     46     47     17
    47     47     48     17
    48     48     49     17
    49     49     50     18
    50     50     51     18
    51     51     52     18

Angles 

     1      1      1      2      3
     2      2      2      3      4
     3      3      3      4      5
     4      4      4      5      6
     5      5      5      6      7
     6      6      6      7      8
     7      7      7      8      9
     8      8      8      9     10
     9      9      9     10     11
    10     10     10     11     12
    11     11     10     11     13
    12     12     10     11     14
    13     13     11     14     15
    14     14     11     14     16
    15     15     14     16     17
    16     16     14     16     18
    17     17      2      1     19
    18     18      2      1     20
    19     19      2      1     21
    20     20      1      2     22
    21     21      1      2     23
    22     22      2      3     24
    23     23      2      3     25
    24     24      3      4     26
    25     25      3      4     27
    26     26      4      5     28
    27     27      4      5     29
    28     28      5      6     30
    29     29      5      6     31
    30     30      6      7     32
    31     31      6      7     33
    32     32      7      8     34
    33     33      7      8     35
    34     34      8      9     36
    35     35      8      9     37
    36     36      9     10     38
    37     37      9     10     39
    38     38     11     12     40
    39     39     11     12     41
    40     40     11     12     42
    41     41     11     13     43
    42     42     11     13     44
    43     43     11     13     45
    44     44     14     16     46
    45     45     16     17     47
    46     46     16     17     48
    47     47     16     17     49
    48     48     16     18     50
    49     49     16     18     51
    50     50     16     18     52
    51     51     11     10     38
    52     52     40     12     41
    53     53     18     16     46
    54     54     19      1     21
    55     55     26      4     27
    56     56     41     12     42
    57     57      4      3     24
    58     58     12     11     14
    59     59     51     18     52
    60     60     20      1     21
    61     61      5      4     27
    62     62     48     17     49
    63     63     24      3     25
    64     64     34      8     35
    65     65     15     14     16
    66     66      5      4     26
    67     67      9      8     34
    68     68      8      7     32
    69     69      8      7     33
    70     70     13     11     14
    71     71     47     17     49
    72     72     38     10     39
    73     73      6      5     28
    74     74      7      6     31
    75     75     47     17     48
    76     76     32      7     33
    77     77     44     13     45
    78     78     50     18     51
    79     79     17     16     18
    80     80     40     12     42
    81     81     43     13     45
    82     82     43     13     44
    83     83      4      3     25
    84     84     17     16     46
    85     85     22      2     23
    86     86     28      5     29
    87     87     36      9     37
    88     88      7      6     30
    89     89     30      6     31
    90     90     11     10     39
    91     91      3      2     22
    92     92      3      2     23
    93     93      9      8     35
    94     94     10      9     37
    95     95     10      9     36
    96     96     50     18     52
    97     97     12     11     13
    98     98     19      1     20
    99     99      6      5     29

Dihedrals

     1      1      4      3      2      1 
     2      2      5      4      3      2 
     3      3      6      5      4      3 
     4      4      7      6      5      4 
     5      5      8      7      6      5 
     6      6      9      8      7      6 
     7      7     10      9      8      7 
     8      8     11     10      9      8 
     9      9     12     11     10      9 
    10     10     15     14     11     10 
    11     11     17     16     14     11 
    12     12     19      1      2      3 
    13     13     40     12     11     10 
    14     14     43     13     11     10 
    15     15     47     17     16     14 
    16     16     50     18     16     14 
    17     17     34      8      7      6 
    18     18     49     17     16     46 
    19     19     38     10      9      8 
    20     20     15     14     11     12 
    21     21     25      3      4      5 
    22     22     42     12     11     13 
    23     23     43     13     11     14 
    24     24     46     16     14     11 
    25     25     39     10     11     14 
    26     26     35      8      9     10 
    27     27     51     18     16     17 
    28     28     23      2      1     21 
    29     29     47     17     16     18 
    30     30     44     13     11     12 
    31     31     39     10      9     36 
    32     32     15     14     11     13 
    33     33     39     10     11     12 
    34     34     38     10     11     13 
    35     35     41     12     11     14 
    36     36     33      7      6     30 
    37     37     32      7      6     31 
    38     38     32      7      8      9 
    39     39     33      7      6     31 
    40     40     28      5      4      3 
    41     41     23      2      3      4 
    42     42     24      3      2     22 
    43     43     27      4      3     25 
    44     44     38     10      9     36 
    45     45     30      6      5     28 
    46     46     45     13     11     14 
    47     47     35      8      7     33 
    48     48     48     17     16     18 
    49     49     44     13     11     14 
    50     50     37      9     10     11 
    51     51     22      2      1     20 
    52     52     36      9      8      7 
    53     53     52     18     16     17 
    54     54     45     13     11     12 
    55     55     48     17     16     14 
    56     56     23      2      1     19 
    57     57     26      4      3      2 
    58     58     51     18     16     14 
    59     59     28      5      6      7 
    60     60     13     11     10      9 
    61     61     33      7      6      5 
    62     62     30      6      7      8 
    63     63     40     12     11     13 
    64     64     39     10      9      8 
    65     65     36      9     10     11 
    66     66     18     16     14     15 
    67     67     37      9      8     35 
    68     68     47     17     16     46 
    69     69     25      3      2     23 
    70     70     32      7      6     30 
    71     71     21      1      2      3 
    72     72     27      4      5      6 
    73     73     41     12     11     10 
    74     74     52     18     16     14 
    75     75     30      6      5      4 
    76     76     42     12     11     14 
    77     77     24      3      4      5 
    78     78     16     14     11     13 
    79     79     50     18     16     17 
    80     80     50     18     16     46 
    81     81     22      2      1     19 
    82     82     26      4      3     25 
    83     83     27      4      3     24 
    84     84     31      6      7      8 
    85     85     18     16     14     11 
    86     86     32      7      6      5 
    87     87     27      4      3      2 
    88     88     29      5      6      7 
    89     89     49     17     16     14 
    90     90     51     18     16     46 
    91     91     37      9      8      7 
    92     92     38     10      9     37 
    93     93     34      8      9     10 
    94     94     35      8      7      6 
    95     95     31      6      5     29 
    96     96     42     12     11     10 
    97     97     39     10      9     37 
    98     98     34      8      7     32 
    99     99     29      5      4     27 
   100    100     24      3      2     23 
   101    101     25      3      2     22 
   102    102     39     10     11     13 
   103    103     38     10     11     14 
   104    104     24      3      2      1 
   105    105     33      7      8      9 
   106    106     20      1      2      3 
   107    107     28      5      4     26 
   108    108     46     16     14     15 
   109    109     16     14     11     12 
   110    110     26      4      5      6 
   111    111     29      5      4      3 
   112    112     44     13     11     10 
   113    113     36      9      8     34 
   114    114     23      2      1     20 
   115    115     22      2      1     21 
   116    116     22      2      3      4 
   117    117     16     14     11     10 
   118    118     25      3      2      1 
   119    119     43     13     11     12 
   120    120     34      8      7     33 
   121    121     35      8      7     32 
   122    122     45     13     11     10 
   123    123     49     17     16     18 
   124    124     29      5      4     26 
   125    125     28      5      4     27 
   126    126     14     11     10      9 
   127    127     17     16     14     15 
   128    128     31      6      5      4 
   129    129     48     17     16     46 
   130    130     52     18     16     46 
   131    131     26      4      3     24 
   132    132     38     10     11     12 
   133    133     36      9      8     35 
   134    134     37      9      8     34 
   135    135     41     12     11     13 
   136    136     40     12     11     14 
   137    137     30      6      5     29 
   138    138     31      6      5     28 

Impropers

     1      1     11     10     12     13 
     2      2     11     10     12     14 
     3      3     14     11     15     16 
     4      4     16     17     18     14 
     5      5      1      2     19     20 
     6      6      1      2     19     21 
     7      7      2      1      3     22 
     8      8      2      1      3     23 
     9      9      3      2      4     24 
    10     10      3     25      2      4 
    11     11      4     26      3      5 
    12     12      4     27      5      3 
    13     13      5      4     28      6 
    14     14      5      4     29      6 
    15     15      6      5     30      7 
    16     16      6      7      5     31 
    17     17      7      8      6     32 
    18     18      7     33      6      8 
    19     19      8      9     34      7 
    20     20      8      9     35      7 
    21     21      9     10     36      8 
    22     22      9     10     37      8 
    23     23     10      9     11     38 
    24     24     10      9     11     39 
    25     25     12     41     11     40 
    26     26     12     42     11     40 
    27     27     13     11     44     43 
    28     28     13     11     45     43 
    29     29     16     17     14     46 
    30     30     17     16     47     48 
    31     31     17     49     47     16 
    32     32     18     51     50     16 
    33     33     18     52     50     16 

