LAMMPS data file Created by LigParGen - (Written by Leela S. Dodda)

      37 atoms
      37 bonds
      73 angles
     104 dihedrals
      24 impropers
 
      37 atom types
      37 bond types
      73 angle types
     104 dihedral types
      24 improper types
 
   -6.180100    43.819900 xlo xhi
   -5.757490    44.242510 ylo yhi
   -1.024530    48.975470 zlo zhi

Masses

       1     12.011  
       2     12.011  
       3     12.011  
       4     12.011  
       5     12.011  
       6     12.011  
       7     12.011  
       8     12.011  
       9     12.011  
      10     12.011  
      11     12.011  
      12     12.011  
      13     12.011  
      14     14.007  
      15      1.008  
      16      1.008  
      17      1.008  
      18      1.008  
      19      1.008  
      20      1.008  
      21      1.008  
      22      1.008  
      23      1.008  
      24      1.008  
      25      1.008  
      26      1.008  
      27      1.008  
      28      1.008  
      29      1.008  
      30      1.008  
      31      1.008  
      32      1.008  
      33      1.008  
      34      1.008  
      35      1.008  
      36      1.008  
      37      1.008  

Pair Coeffs 

       1      0.066  3.5000000 
       2      0.066  3.5000000 
       3      0.083  3.4500000 
       4      0.066  3.5000000 
       5      0.083  3.4500000 
       6      0.083  3.4500000 
       7      0.066  3.5000000 
       8      0.066  3.5000000 
       9      0.066  3.5000000 
      10      0.066  3.5000000 
      11      0.066  3.5000000 
      12      0.066  3.5000000 
      13      0.066  3.3000000 
      14      0.170  3.2000000 
      15      0.030  2.5000000 
      16      0.030  2.5000000 
      17      0.030  2.5000000 
      18      0.030  2.5000000 
      19      0.030  2.5000000 
      20      0.030  2.5000000 
      21      0.030  2.5000000 
      22      0.030  2.5000000 
      23      0.030  2.5000000 
      24      0.030  2.5000000 
      25      0.030  2.5000000 
      26      0.030  2.5000000 
      27      0.030  2.5000000 
      28      0.030  2.5000000 
      29      0.030  2.5000000 
      30      0.030  2.5000000 
      31      0.030  2.5000000 
      32      0.030  2.5000000 
      33      0.030  2.5000000 
      34      0.030  2.5000000 
      35      0.030  2.5000000 
      36      0.030  2.5000000 
      37      0.030  2.5000000 

Bond Coeffs 

       1   268.0000     1.5290 
       2   280.0000     1.5100 
       3   280.0000     1.5100 
       4   260.0000     1.5200 
       5   260.0000     1.5200 
       6   280.0000     1.5100 
       7   268.0000     1.5290 
       8   268.0000     1.5290 
       9   268.0000     1.5290 
      10   268.0000     1.5290 
      11   268.0000     1.5290 
      12   390.0000     1.4700 
      13   650.0000     1.1570 
      14   340.0000     1.0900 
      15   340.0000     1.0900 
      16   340.0000     1.0900 
      17   340.0000     1.0900 
      18   340.0000     1.0900 
      19   340.0000     1.0900 
      20   340.0000     1.0900 
      21   340.0000     1.0900 
      22   340.0000     1.0880 
      23   340.0000     1.0880 
      24   340.0000     1.0880 
      25   340.0000     1.0900 
      26   340.0000     1.0900 
      27   340.0000     1.0900 
      28   340.0000     1.0900 
      29   340.0000     1.0900 
      30   340.0000     1.0900 
      31   340.0000     1.0900 
      32   340.0000     1.0900 
      33   340.0000     1.0900 
      34   340.0000     1.0900 
      35   340.0000     1.0900 
      36   340.0000     1.0900 
      37   260.0000     1.5200 

Angle Coeffs 

       1     58.350    112.700
       2     35.000    114.300
       3     37.500    117.200
       4     37.500    117.200
       5     37.500    117.200
       6     58.350    112.700
       7     58.350    112.700
       8     58.350    112.700
       9     58.350    112.700
      10     58.350    112.700
      11     58.350    112.700
      12    150.000    180.000
      13     37.500    110.700
      14     37.500    110.700
      15     37.500    110.700
      16     37.500    110.700
      17     37.500    110.700
      18     37.500    110.700
      19     37.500    110.700
      20     37.500    110.700
      21     37.500    117.200
      22     37.500    117.200
      23     37.500    117.200
      24     37.500    110.700
      25     37.500    110.700
      26     37.500    110.700
      27     37.500    110.700
      28     37.500    110.700
      29     37.500    110.700
      30     37.500    110.700
      31     37.500    110.700
      32     37.500    110.700
      33     37.500    110.700
      34     37.500    110.700
      35     37.500    110.700
      36     37.500    117.200
      37     37.500    110.700
      38     37.500    110.700
      39     37.500    110.700
      40     30.000     83.000
      41     37.500    110.700
      42     35.000    114.300
      43     35.000    108.500
      44     37.500    110.700
      45     33.000    107.800
      46     33.000    107.800
      47     37.500    117.200
      48     37.500    117.200
      49     33.000    107.800
      50     33.000    107.800
      51     37.500    110.700
      52     33.000    107.800
      53     37.500    110.700
      54     37.500    110.700
      55     33.000    107.800
      56     33.000    107.800
      57     37.500    117.200
      58     33.000    107.800
      59     33.000    107.800
      60     58.350    112.700
      61     58.350    112.700
      62     33.000    107.800
      63     33.000    107.800
      64     33.000    107.800
      65     37.500    117.200
      66     33.000    107.800
      67     37.500    110.700
      68     30.000     83.000
      69     35.000    114.300
      70     30.000     83.000
      71     37.500    117.200
      72     33.000    107.800
      73     33.000    107.800

Dihedral Coeffs  

       1      1.300     -0.200      0.200      0.000 
       2      0.000      0.000      0.000      0.000 
       3      0.000      0.000      0.000      0.000 
       4      1.300     -0.200      0.200      0.000 
       5      1.300     -0.200      0.200      0.000 
       6      1.300     -0.200      0.200      0.000 
       7      0.000      0.000      0.000      0.000 
       8      0.000      0.000      0.300      0.000 
       9      0.000      0.000      0.300      0.000 
      10      0.000      0.000      0.000      0.000 
      11      0.000      0.000      0.000      0.000 
      12      0.000      0.000      0.000      0.000 
      13      0.000      0.000      0.300      0.000 
      14      0.000      0.000      0.300      0.000 
      15      0.000      0.000      0.000      0.000 
      16      0.000      0.000      0.000      0.000 
      17      0.000      0.000      0.300      0.000 
      18      0.000      0.000      0.366      0.000 
      19      0.000      0.000      0.300      0.000 
      20      0.000      0.000      0.300      0.000 
      21      0.000      0.000      0.300      0.000 
      22      0.000      0.000      0.300      0.000 
      23      0.000      0.000      0.000      0.000 
      24      0.000      0.000      0.000      0.000 
      25      0.000     -0.650      0.000      0.000 
      26      0.000      0.000      0.300      0.000 
      27      0.000      0.000      0.300      0.000 
      28      0.000      0.000      0.300      0.000 
      29      0.000      0.000      0.300      0.000 
      30      0.000      0.000      0.300      0.000 
      31      0.000      0.000      0.300      0.000 
      32      0.000      0.000      0.300      0.000 
      33      1.300     -0.200      0.200      0.000 
      34      0.000      0.000      0.000      0.000 
      35      0.000      0.000      0.000      0.000 
      36      0.000      0.000      0.300      0.000 
      37      0.000      0.000      0.300      0.000 
      38      0.000      0.000      0.300      0.000 
      39      0.000      0.000      0.300      0.000 
      40      0.000      0.000      0.000      0.000 
      41      0.000      0.000      0.300      0.000 
      42      0.000      0.000      0.300      0.000 
      43      0.000      0.000      0.300      0.000 
      44      0.000      0.000      0.300      0.000 
      45      0.000      0.000      0.300      0.000 
      46      0.000      0.000      0.366      0.000 
      47      0.000      0.000      0.300      0.000 
      48      0.000     -0.650      0.000      0.000 
      49      0.000      0.000      0.300      0.000 
      50      0.000      0.000      0.300      0.000 
      51      0.000      0.000      0.300      0.000 
      52      0.000      0.000      0.000      0.000 
      53      0.000      0.000      0.000      0.000 
      54      0.000      0.000      0.000      0.000 
      55      0.000      0.000      0.300      0.000 
      56      0.000      0.000      0.300      0.000 
      57      0.000      0.000      0.300      0.000 
      58      0.000      0.000      0.300      0.000 
      59      0.000      0.000      0.300      0.000 
      60      0.000      0.000      0.000      0.000 
      61      0.000      0.000      0.300      0.000 
      62      0.000      0.000      0.300      0.000 
      63      0.000      0.000      0.300      0.000 
      64      0.000      0.000      0.300      0.000 
      65      0.000      0.000      0.300      0.000 
      66      0.000      0.000      0.300      0.000 
      67      0.000      0.000      0.000      0.000 
      68      0.000      0.000      0.000      0.000 
      69      0.000      0.000      0.000      0.000 
      70      0.000      0.000      0.300      0.000 
      71      0.000      0.000      0.300      0.000 
      72      0.000      0.000      0.000      0.000 
      73      0.000      0.000      0.300      0.000 
      74      0.000      0.000      0.300      0.000 
      75      1.300     -0.200      0.200      0.000 
      76      0.000      0.000      0.300      0.000 
      77      0.000      0.000      0.000      0.000 
      78      0.000      0.000      0.300      0.000 
      79      0.000      0.000      0.300      0.000 
      80      0.000      0.000      0.000      0.000 
      81      0.000      0.000      0.300      0.000 
      82      0.000      0.000      0.300      0.000 
      83      0.000      0.000      0.300      0.000 
      84      0.000      0.000      0.300      0.000 
      85      0.000      0.000      0.000      0.000 
      86      0.000      0.000      0.000      0.000 
      87      0.000      0.000      0.300      0.000 
      88      0.000      0.000      0.300      0.000 
      89      0.000      0.000      0.300      0.000 
      90      0.000      0.000      0.300      0.000 
      91      0.000      0.000      0.300      0.000 
      92      0.000      0.000      0.300      0.000 
      93      0.000      0.000      0.300      0.000 
      94      0.000      0.000      0.000      0.000 
      95      0.000      0.000      0.366      0.000 
      96      0.000      0.000      0.300      0.000 
      97      0.000      0.000      0.000      0.000 
      98      0.000      0.000      0.300      0.000 
      99      0.000      0.000      0.300      0.000 
     100      0.000      0.000      0.300      0.000 
     101      0.000      0.000      0.366      0.000 
     102      0.000      0.000      0.300      0.000 
     103      0.000      0.000      0.300      0.000 
     104      0.000      0.000      0.300      0.000 

Improper Coeffs 

       1      0.000      -1       2 
       2      0.000      -1       2 
       3      0.000      -1       2 
       4      0.000      -1       2 
       5      0.000      -1       2 
       6      0.000      -1       2 
       7      0.000      -1       2 
       8      0.000      -1       2 
       9      0.000      -1       2 
      10      0.000      -1       2 
      11      0.000      -1       2 
      12      0.000      -1       2 
      13      0.000      -1       2 
      14      0.000      -1       2 
      15      0.000      -1       2 
      16      0.000      -1       2 
      17      0.000      -1       2 
      18      0.000      -1       2 
      19      0.000      -1       2 
      20      0.000      -1       2 
      21      0.000      -1       2 
      22      0.000      -1       2 
      23      0.000      -1       2 
      24      0.000      -1       2 

Atoms 

     1      1      1 -0.23550000    1.000  1.00000  0.00000
     2      1      2 -0.14030000   -0.520  1.00000  0.00000
     3      1      3 -0.10960000   -1.110  1.00000  1.40053
     4      1      4 -0.19860000   -0.742  2.19891  2.24086
     5      1      5 -0.24080000   -2.525  0.47879  1.53759
     6      1      6 -0.17680000   -1.375 -0.35594  2.04964
     7      1      7 -0.14310000   -1.231 -0.62198  3.52033
     8      1      8 -0.16890000   -2.429 -1.39569  4.09251
     9      1      9 -0.10300000   -2.719 -2.77016  3.43843
    10      1     10 -0.24250000   -1.516 -3.70817  3.63943
    11      1     11 -0.00100000   -4.030 -3.39991  4.00064
    12      1     12 -0.23790000   -5.265 -2.52078  3.75881
    13      1     13 0.13370000   -4.294 -4.72177  3.38912
    14      1     14 -0.36500000   -4.501 -5.75749  2.91090
    15      1     15 0.08220000    1.377  0.91919 -1.02453
    16      1     16 0.08220000    1.394  0.16025  0.58061
    17      1     17 0.08220000    1.397  1.92620  0.42762
    18      1     18 0.09140000   -0.865  0.11932 -0.55663
    19      1     19 0.09140000   -0.887  1.87797 -0.54482
    20      1     20 0.08610000   -0.811  3.11708  1.64806
    21      1     21 0.08610000    0.283  2.10428  2.61369
    22      1     22 0.08610000   -1.406  2.32313  3.10255
    23      1     23 0.12270000   -3.043  0.12782  0.65090
    24      1     24 0.12270000   -3.184  0.95915  2.25263
    25      1     25 0.13170000   -1.108 -1.23696  1.47173
    26      1     26 0.09470000   -1.141  0.31206  4.08423
    27      1     27 0.09470000   -0.298 -1.16668  3.69755
    28      1     28 0.08920000   -3.305 -0.74730  3.99420
    29      1     29 0.08920000   -2.270 -1.53586  5.16930
    30      1     30 0.11250000   -2.851 -2.62940  2.35748
    31      1     31 0.08870000   -1.320 -3.87244  4.70442
    32      1     32 0.08870000   -0.610 -3.29692  3.18486
    33      1     33 0.08870000   -1.678 -4.68316  3.16975
    34      1     34 0.13120000   -3.918 -3.53658  5.08413
    35      1     35 0.09560000   -5.375 -2.27553  2.69585
    36      1     36 0.09560000   -5.218 -1.58676  4.32489
    37      1     37 0.09560000   -6.180 -3.03744  4.07247

Bonds 

     1      1      2      1
     2      2      3      2
     3      3      4      3
     4      4      5      3
     5      5      6      3
     6      6      7      6
     7      7      8      7
     8      8      9      8
     9      9     10      9
    10     10     11      9
    11     11     12     11
    12     12     13     11
    13     13     14     13
    14     14     15      1
    15     15     16      1
    16     16     17      1
    17     17     18      2
    18     18     19      2
    19     19     20      4
    20     20     21      4
    21     21     22      4
    22     22     23      5
    23     23     24      5
    24     24     25      6
    25     25     26      7
    26     26     27      7
    27     27     28      8
    28     28     29      8
    29     29     30      9
    30     30     31     10
    31     31     32     10
    32     32     33     10
    33     33     34     11
    34     34     35     12
    35     35     36     12
    36     36     37     12
    37     37      6      5

Angles 

     1      1      1      2      3
     2      2      2      3      4
     3      3      2      3      5
     4      4      2      3      6
     5      5      3      6      7
     6      6      6      7      8
     7      7      7      8      9
     8      8      8      9     10
     9      9      8      9     11
    10     10      9     11     12
    11     11      9     11     13
    12     12     11     13     14
    13     13      2      1     15
    14     14      2      1     16
    15     15      2      1     17
    16     16      1      2     18
    17     17      1      2     19
    18     18      3      4     20
    19     19      3      4     21
    20     20      3      4     22
    21     21      3      5     23
    22     22      3      5     24
    23     23      3      6     25
    24     24      6      7     26
    25     25      6      7     27
    26     26      7      8     28
    27     27      7      8     29
    28     28      8      9     30
    29     29      9     10     31
    30     30      9     10     32
    31     31      9     10     33
    32     32      9     11     34
    33     33     11     12     35
    34     34     11     12     36
    35     35     11     12     37
    36     36      5      6     25
    37     37     10      9     30
    38     38      8      7     27
    39     39      3      2     18
    40     40      3      6      5
    41     41      9      8     28
    42     42      7      6     25
    43     43     13     11     34
    44     44      8      7     26
    45     45     21      4     22
    46     46     36     12     37
    47     47      4      3      5
    48     48      6      5     24
    49     49     35     12     36
    50     50     26      7     27
    51     51      9      8     29
    52     52     35     12     37
    53     53     11      9     30
    54     54      3      2     19
    55     55     15      1     16
    56     56     20      4     22
    57     57      4      3      6
    58     58     15      1     17
    59     59     16      1     17
    60     60     10      9     11
    61     61     12     11     13
    62     62     31     10     32
    63     63     28      8     29
    64     64     18      2     19
    65     65      6      5     23
    66     66     31     10     33
    67     67     12     11     34
    68     68      5      3      6
    69     69     23      5     24
    70     70      3      5      6
    71     71      5      6      7
    72     72     20      4     21
    73     73     32     10     33

Dihedrals

     1      1      4      3      2      1 
     2      2      7      6      3      5 
     3      3      8      7      6      3 
     4      4      9      8      7      6 
     5      5     10      9      8      7 
     6      6     12     11      9      8 
     7      7     14     13     11      9 
     8      8     15      1      2      3 
     9      9     20      4      3      2 
    10     10     23      5      3      6 
    11     11     24      5      3      6 
    12     12     25      6      3      5 
    13     13     31     10      9      8 
    14     14     35     12     11      9 
    15     15     23      5      3      2 
    16     16     24      5      6      3 
    17     17     28      8      9     10 
    18     18     36     12     11     13 
    19     19     29      8      9     11 
    20     20     32     10      9     11 
    21     21     21      4      3      6 
    22     22     26      7      6     25 
    23     23     25      6      5     24 
    24     24     23      5      6      3 
    25     25     13     11      9     10 
    26     26     22      4      3      2 
    27     27     18      2      3      6 
    28     28     19      2      3      5 
    29     29     36     12     11      9 
    30     30     34     11      9     10 
    31     31     22      4      3      6 
    32     32     25      6      7      8 
    33     33     11      9      8      7 
    34     34     23      5      6      7 
    35     35     25      6      3      2 
    36     36     32     10      9     30 
    37     37     29      8      7     27 
    38     38     18      2      1     15 
    39     39     27      7      8      9 
    40     40     25      6      5     23 
    41     41     28      8      7     26 
    42     42     33     10      9     30 
    43     43     32     10      9      8 
    44     44     26      7      6      3 
    45     45     18      2      1     17 
    46     46     37     12     11     13 
    47     47     34     11      9      8 
    48     48     13     11      9      8 
    49     49     30      9     11     12 
    50     50     30      9      8      7 
    51     51     30      9      8     29 
    52     52     25      6      3      4 
    53     53     24      5      3      4 
    54     54      8      7      6      5 
    55     55     28      8      9     11 
    56     56     28      8      7     27 
    57     57     29      8      7     26 
    58     58     20      4      3      5 
    59     59     22      4      3      5 
    60     60     24      5      6      7 
    61     61     27      7      6      3 
    62     62     21      4      3      2 
    63     63     19      2      1     16 
    64     64     31     10      9     11 
    65     65     30      9      8     28 
    66     66     29      8      9     10 
    67     67     14     13     11     12 
    68     68     25      6      5      3 
    69     69     23      5      3      4 
    70     70     20      4      3      6 
    71     71     21      4      3      5 
    72     72     24      5      3      2 
    73     73     33     10      9      8 
    74     74     33     10      9     11 
    75     75     12     11      9     10 
    76     76     37     12     11     34 
    77     77     34     11     13     14 
    78     78     34     11      9     30 
    79     79     27      7      6     25 
    80     80      7      6      3      4 
    81     81     27      7      6      5 
    82     82     17      1      2      3 
    83     83     35     12     11     34 
    84     84     19      2      3      6 
    85     85      5      3      2      1 
    86     86      7      6      5      3 
    87     87     19      2      3      4 
    88     88     18      2      3      5 
    89     89     29      8      7      6 
    90     90     26      7      8      9 
    91     91     36     12     11     34 
    92     92     18      2      3      4 
    93     93     19      2      1     17 
    94     94      7      6      3      2 
    95     95     35     12     11     13 
    96     96     26      7      6      5 
    97     97      6      3      2      1 
    98     98     37     12     11      9 
    99     99     31     10      9     30 
   100    100     16      1      2      3 
   101    101     30      9     11     13 
   102    102     28      8      7      6 
   103    103     18      2      1     16 
   104    104     19      2      1     15 

Impropers

     1      1      3      2      4      5 
     2      2      3      2      4      6 
     3      3      9     10     11      8 
     4      4     11      9     12     13 
     5      5      1      2     15     16 
     6      6      1     17     15      2 
     7      7      2      1     18      3 
     8      8      2      1     19      3 
     9      9      4     20      3     21 
    10     10      4     20      3     22 
    11     11      7     26      6      8 
    12     12      7     27      6      8 
    13     13      8      9     28      7 
    14     14      8      9     29      7 
    15     15      9     10     30      8 
    16     16     10      9     31     32 
    17     17     10     33     31      9 
    18     18     11      9     34     12 
    19     19     12     11     36     35 
    20     20     12     11     37     35 
    21     21      3      5      6      2 
    22     22      3      5      6      4 
    23     23      3      5      6      4 
    24     24      3      5      6      2 

