LAMMPS data file Created by LigParGen - (Written by Leela S. Dodda)

      55 atoms
      57 bonds
     117 angles
     192 dihedrals
      39 impropers
 
      55 atom types
      57 bond types
     117 angle types
     192 dihedral types
      39 improper types
 
   -8.512040    41.487960 xlo xhi
   -2.129430    47.870570 ylo yhi
   -3.883560    46.116440 zlo zhi

Masses

       1     12.011  
       2     12.011  
       3     12.011  
       4     12.011  
       5     12.011  
       6     12.011  
       7     12.011  
       8     15.999  
       9     12.011  
      10     12.011  
      11     12.011  
      12     12.011  
      13     12.011  
      14     12.011  
      15     12.011  
      16     12.011  
      17     12.011  
      18     12.011  
      19     12.011  
      20     12.011  
      21     12.011  
      22      1.008  
      23      1.008  
      24      1.008  
      25      1.008  
      26      1.008  
      27      1.008  
      28      1.008  
      29      1.008  
      30      1.008  
      31      1.008  
      32      1.008  
      33      1.008  
      34      1.008  
      35      1.008  
      36      1.008  
      37      1.008  
      38      1.008  
      39      1.008  
      40      1.008  
      41      1.008  
      42      1.008  
      43      1.008  
      44      1.008  
      45      1.008  
      46      1.008  
      47      1.008  
      48      1.008  
      49      1.008  
      50      1.008  
      51      1.008  
      52      1.008  
      53      1.008  
      54      1.008  
      55      1.008  

Pair Coeffs 

       1      0.066  3.5000000 
       2      0.066  3.5000000 
       3      0.066  3.5000000 
       4      0.066  3.5000000 
       5      0.066  3.5000000 
       6      0.066  3.5000000 
       7      0.070  3.5500000 
       8      0.210  2.9600000 
       9      0.066  3.5000000 
      10      0.066  3.5000000 
      11      0.066  3.5000000 
      12      0.066  3.5000000 
      13      0.066  3.5000000 
      14      0.066  3.5000000 
      15      0.066  3.5000000 
      16      0.066  3.5000000 
      17      0.066  3.5000000 
      18      0.066  3.5000000 
      19      0.066  3.5000000 
      20      0.066  3.5000000 
      21      0.066  3.5000000 
      22      0.030  2.5000000 
      23      0.030  2.5000000 
      24      0.030  2.5000000 
      25      0.030  2.5000000 
      26      0.030  2.5000000 
      27      0.030  2.5000000 
      28      0.030  2.5000000 
      29      0.030  2.5000000 
      30      0.030  2.5000000 
      31      0.030  2.5000000 
      32      0.030  2.5000000 
      33      0.030  2.5000000 
      34      0.030  2.5000000 
      35      0.030  2.5000000 
      36      0.030  2.5000000 
      37      0.030  2.5000000 
      38      0.030  2.5000000 
      39      0.030  2.5000000 
      40      0.030  2.5000000 
      41      0.030  2.5000000 
      42      0.030  2.5000000 
      43      0.030  2.5000000 
      44      0.030  2.5000000 
      45      0.030  2.5000000 
      46      0.030  2.5000000 
      47      0.030  2.5000000 
      48      0.030  2.5000000 
      49      0.030  2.5000000 
      50      0.030  2.5000000 
      51      0.030  2.5000000 
      52      0.030  2.5000000 
      53      0.030  2.5000000 
      54      0.030  2.5000000 
      55      0.030  2.5000000 

Bond Coeffs 

       1   268.0000     1.5290 
       2   268.0000     1.5290 
       3   268.0000     1.5290 
       4   268.0000     1.5290 
       5   268.0000     1.5290 
       6   317.0000     1.5220 
       7   570.0000     1.2290 
       8   317.0000     1.5220 
       9   268.0000     1.5290 
      10   268.0000     1.5290 
      11   268.0000     1.5290 
      12   268.0000     1.5290 
      13   268.0000     1.5290 
      14   268.0000     1.5290 
      15   268.0000     1.5290 
      16   268.0000     1.5290 
      17   268.0000     1.5290 
      18   268.0000     1.5290 
      19   268.0000     1.5290 
      20   268.0000     1.5290 
      21   340.0000     1.0900 
      22   340.0000     1.0900 
      23   340.0000     1.0900 
      24   340.0000     1.0900 
      25   340.0000     1.0900 
      26   340.0000     1.0900 
      27   340.0000     1.0900 
      28   340.0000     1.0900 
      29   340.0000     1.0900 
      30   340.0000     1.0900 
      31   340.0000     1.0900 
      32   340.0000     1.0900 
      33   340.0000     1.0900 
      34   340.0000     1.0900 
      35   340.0000     1.0900 
      36   340.0000     1.0900 
      37   340.0000     1.0900 
      38   340.0000     1.0900 
      39   340.0000     1.0900 
      40   340.0000     1.0900 
      41   340.0000     1.0900 
      42   340.0000     1.0900 
      43   340.0000     1.0900 
      44   340.0000     1.0900 
      45   340.0000     1.0900 
      46   340.0000     1.0900 
      47   340.0000     1.0900 
      48   340.0000     1.0900 
      49   340.0000     1.0900 
      50   340.0000     1.0900 
      51   340.0000     1.0900 
      52   340.0000     1.0900 
      53   340.0000     1.0900 
      54   340.0000     1.0900 
      55   268.0000     1.5290 
      56   268.0000     1.5290 
      57   268.0000     1.5290 

Angle Coeffs 

       1     58.350    112.700
       2     58.350    112.700
       3     58.350    112.700
       4     58.350    112.700
       5     63.000    111.100
       6     80.000    120.400
       7     70.000    116.000
       8     63.000    111.100
       9     58.350    112.700
      10     58.350    112.700
      11     58.350    112.700
      12     58.350    112.700
      13     58.350    112.700
      14     58.350    112.700
      15     58.350    112.700
      16     58.350    112.700
      17     58.350    112.700
      18     58.350    112.700
      19     58.350    112.700
      20     37.500    110.700
      21     37.500    110.700
      22     37.500    110.700
      23     37.500    110.700
      24     37.500    110.700
      25     37.500    110.700
      26     37.500    110.700
      27     37.500    110.700
      28     37.500    110.700
      29     37.500    110.700
      30     35.000    109.500
      31     35.000    109.500
      32     37.500    110.700
      33     37.500    110.700
      34     37.500    110.700
      35     37.500    110.700
      36     37.500    110.700
      37     37.500    110.700
      38     37.500    110.700
      39     37.500    110.700
      40     37.500    110.700
      41     37.500    110.700
      42     37.500    110.700
      43     37.500    110.700
      44     37.500    110.700
      45     37.500    110.700
      46     37.500    110.700
      47     37.500    110.700
      48     37.500    110.700
      49     37.500    110.700
      50     37.500    110.700
      51     37.500    110.700
      52     37.500    110.700
      53     37.500    110.700
      54     37.500    110.700
      55     37.500    110.700
      56     37.500    110.700
      57     37.500    110.700
      58     33.000    107.800
      59     33.000    107.800
      60     37.500    110.700
      61     33.000    107.800
      62     33.000    107.800
      63     37.500    110.700
      64     37.500    110.700
      65     58.350    112.700
      66     37.500    110.700
      67     58.350    112.700
      68     37.500    110.700
      69     33.000    107.800
      70     33.000    107.800
      71     37.500    110.700
      72     37.500    110.700
      73     58.350    112.700
      74     35.000    109.500
      75     37.500    110.700
      76     37.500    110.700
      77     33.000    107.800
      78     37.500    110.700
      79     37.500    110.700
      80     33.000    107.800
      81     37.500    110.700
      82     37.500    110.700
      83     37.500    110.700
      84     80.000    120.400
      85     58.350    112.700
      86     33.000    107.800
      87     37.500    110.700
      88     37.500    110.700
      89     37.500    110.700
      90     33.000    107.800
      91     33.000    107.800
      92     37.500    110.700
      93     33.000    107.800
      94     33.000    107.800
      95     37.500    110.700
      96     63.000    111.100
      97     37.500    110.700
      98     37.500    110.700
      99     37.500    110.700
     100     58.350    112.700
     101     58.350    112.700
     102     37.500    110.700
     103     58.350    112.700
     104     33.000    107.800
     105     37.500    110.700
     106     33.000    107.800
     107     58.350    112.700
     108     37.500    110.700
     109     58.350    112.700
     110     37.500    110.700
     111     37.500    110.700
     112     33.000    107.800
     113     37.500    110.700
     114     58.350    112.700
     115     58.350    112.700
     116     37.500    110.700
     117     33.000    107.800

Dihedral Coeffs  

       1      1.300     -0.200      0.200      0.000 
       2      1.300     -0.200      0.200      0.000 
       3      0.000      0.000      0.000      0.000 
       4      1.454     -0.144     -0.775      0.000 
       5     -2.060     -0.313      0.315      0.000 
       6      1.300     -0.200      0.200      0.000 
       7      1.300     -0.200      0.200      0.000 
       8      1.300     -0.200      0.200      0.000 
       9      1.300     -0.200      0.200      0.000 
      10      1.300     -0.200      0.200      0.000 
      11      1.300     -0.200      0.200      0.000 
      12      1.300     -0.200      0.200      0.000 
      13      0.000      0.000      0.300      0.000 
      14      0.000      0.000      0.300      0.000 
      15      0.000      0.000      0.275      0.000 
      16      0.000      0.000      0.300      0.000 
      17      0.000      0.000      0.300      0.000 
      18      0.000      0.000      0.300      0.000 
      19      0.000      0.000      0.300      0.000 
      20      0.000      0.000      0.300      0.000 
      21      0.000      0.000      0.300      0.000 
      22      0.000      0.000      0.300      0.000 
      23      0.000      0.000      0.300      0.000 
      24      0.000      0.000      0.300      0.000 
      25      1.300     -0.200      0.200      0.000 
      26      0.000      0.000      0.300      0.000 
      27      0.000      0.000      0.300      0.000 
      28      0.000      0.000      0.300      0.000 
      29      0.000      0.000      0.300      0.000 
      30      0.000      0.000      0.300      0.000 
      31      0.000      0.000      0.300      0.000 
      32      1.454     -0.144     -0.775      0.000 
      33      0.000      0.000      0.300      0.000 
      34      1.300     -0.200      0.200      0.000 
      35      0.000      0.000      0.300      0.000 
      36      0.000      0.000      0.300      0.000 
      37      0.000      0.000      0.300      0.000 
      38      0.000      0.000      0.300      0.000 
      39      0.000      0.000      0.300      0.000 
      40      0.000      0.000      0.300      0.000 
      41      1.454     -0.144     -0.775      0.000 
      42      0.000      0.000      0.300      0.000 
      43      0.000      0.000      0.300      0.000 
      44      0.000      0.000      0.300      0.000 
      45      0.000      0.000      0.275      0.000 
      46      0.000      0.000      0.300      0.000 
      47      0.000      0.000      0.300      0.000 
      48      0.000      0.000      0.300      0.000 
      49      0.000      0.000      0.300      0.000 
      50      1.300     -0.200      0.200      0.000 
      51      0.000      0.000      0.300      0.000 
      52      0.000      0.000      0.300      0.000 
      53      1.300     -0.200      0.200      0.000 
      54      0.000      0.000      0.300      0.000 
      55      0.000      0.000      0.000      0.000 
      56      0.000      0.000      0.300      0.000 
      57      0.000      0.000      0.300      0.000 
      58      0.000      0.000      0.300      0.000 
      59      0.000      0.000      0.300      0.000 
      60      1.300     -0.200      0.200      0.000 
      61      0.000      0.000      0.000      0.000 
      62      0.000      0.000      0.300      0.000 
      63      0.000      0.000      0.300      0.000 
      64      1.300     -0.200      0.200      0.000 
      65      0.000      0.000      0.300      0.000 
      66      0.000      0.000      0.300      0.000 
      67      0.000      0.000      0.300      0.000 
      68      0.000      0.000      0.300      0.000 
      69      0.000      0.000      0.300      0.000 
      70      1.300     -0.200      0.200      0.000 
      71      0.000      0.000      0.300      0.000 
      72      0.000      0.000      0.300      0.000 
      73      0.000      0.000      0.300      0.000 
      74      0.000      0.000      0.300      0.000 
      75      1.300     -0.200      0.200      0.000 
      76      0.000      0.000      0.300      0.000 
      77      0.000      0.000      0.300      0.000 
      78      0.000      0.000      0.300      0.000 
      79      0.000      0.000      0.300      0.000 
      80      0.000      0.000      0.300      0.000 
      81      0.000      0.000      0.300      0.000 
      82      0.000      0.000      0.300      0.000 
      83      0.000      0.000      0.300      0.000 
      84      0.000      0.000      0.300      0.000 
      85      0.000      0.000      0.300      0.000 
      86      0.000      0.000      0.300      0.000 
      87      0.000      0.000      0.300      0.000 
      88      0.000      0.000      0.300      0.000 
      89      0.000      0.000      0.300      0.000 
      90      0.000      0.000      0.300      0.000 
      91      0.000      0.000      0.300      0.000 
      92      0.000      0.000      0.300      0.000 
      93      0.000      0.000      0.300      0.000 
      94      0.000      0.000      0.300      0.000 
      95      0.000      0.000      0.300      0.000 
      96      0.000      0.000      0.000      0.000 
      97      0.000      0.000      0.300      0.000 
      98      1.300     -0.200      0.200      0.000 
      99      1.300     -0.200      0.200      0.000 
     100      0.000      0.000      0.300      0.000 
     101      0.000      0.000      0.300      0.000 
     102      0.000      0.000      0.300      0.000 
     103      0.000      0.000      0.300      0.000 
     104      1.300     -0.200      0.200      0.000 
     105      0.000      0.000      0.300      0.000 
     106      0.000      0.000      0.300      0.000 
     107      0.000      0.000      0.300      0.000 
     108      0.000      0.000      0.300      0.000 
     109     -2.060     -0.313      0.315      0.000 
     110      0.000      0.000      0.300      0.000 
     111      0.000      0.000      0.300      0.000 
     112      0.000      0.000      0.300      0.000 
     113      0.000      0.000      0.300      0.000 
     114      0.000      0.000      0.300      0.000 
     115      0.000      0.000     -0.100      0.000 
     116      0.000      0.000     -0.100      0.000 
     117      0.000      0.000      0.300      0.000 
     118      0.000      0.000      0.300      0.000 
     119      0.000      0.000      0.300      0.000 
     120      0.000      0.000      0.000      0.000 
     121      0.000      0.000      0.300      0.000 
     122      0.000      0.000      0.300      0.000 
     123      0.000      0.000     -0.100      0.000 
     124      0.000      0.000      0.300      0.000 
     125      1.300     -0.200      0.200      0.000 
     126      0.000      0.000      0.300      0.000 
     127      0.000      0.000     -0.100      0.000 
     128      0.000      0.000      0.300      0.000 
     129      0.000      0.000      0.275      0.000 
     130      1.300     -0.200      0.200      0.000 
     131      0.000      0.000      0.300      0.000 
     132      0.000      0.000      0.300      0.000 
     133      0.000      0.000      0.300      0.000 
     134      0.000      0.000      0.300      0.000 
     135      0.000      0.000      0.300      0.000 
     136      0.000      0.000      0.300      0.000 
     137      0.000      0.000      0.300      0.000 
     138      0.000      0.000      0.300      0.000 
     139      0.000      0.000      0.300      0.000 
     140      0.000      0.000      0.300      0.000 
     141      0.000      0.000      0.300      0.000 
     142      0.000      0.000      0.300      0.000 
     143      0.000      0.000      0.300      0.000 
     144      0.000      0.000      0.300      0.000 
     145     -2.060     -0.313      0.315      0.000 
     146      0.000      0.000      0.000      0.000 
     147      1.300     -0.200      0.200      0.000 
     148      0.000      0.000      0.300      0.000 
     149      0.000      0.000      0.300      0.000 
     150      1.300     -0.200      0.200      0.000 
     151      0.000      0.000      0.300      0.000 
     152      0.000      0.000      0.300      0.000 
     153      1.300     -0.200      0.200      0.000 
     154      0.000      0.000      0.300      0.000 
     155      0.000      0.000      0.300      0.000 
     156      0.000      0.000      0.300      0.000 
     157      1.300     -0.200      0.200      0.000 
     158      0.000      0.000      0.300      0.000 
     159      0.000      0.000      0.300      0.000 
     160      1.300     -0.200      0.200      0.000 
     161      0.000      0.000      0.300      0.000 
     162      0.000      0.000      0.300      0.000 
     163      0.000      0.000      0.300      0.000 
     164      0.000      0.000      0.300      0.000 
     165      1.300     -0.200      0.200      0.000 
     166      0.000      0.000      0.300      0.000 
     167      1.300     -0.200      0.200      0.000 
     168      0.000      0.000      0.300      0.000 
     169     -2.060     -0.313      0.315      0.000 
     170      0.000      0.000      0.300      0.000 
     171      0.000      0.000      0.300      0.000 
     172      0.000      0.000      0.300      0.000 
     173      0.000      0.000      0.300      0.000 
     174      1.300     -0.200      0.200      0.000 
     175      0.000      0.000      0.300      0.000 
     176     -2.060     -0.313      0.315      0.000 
     177      0.000      0.000      0.300      0.000 
     178      0.000      0.000      0.300      0.000 
     179      0.000      0.000      0.300      0.000 
     180      0.000      0.000      0.300      0.000 
     181      0.000      0.000      0.300      0.000 
     182      0.000      0.000      0.300      0.000 
     183      0.000      0.000      0.300      0.000 
     184      1.300     -0.200      0.200      0.000 
     185      0.000      0.000      0.300      0.000 
     186      0.000      0.000      0.300      0.000 
     187      0.000      0.000      0.300      0.000 
     188      0.000      0.000      0.300      0.000 
     189      0.000      0.000      0.300      0.000 
     190      0.000      0.000      0.300      0.000 
     191      0.000      0.000      0.300      0.000 
     192      0.000      0.000      0.300      0.000 

Improper Coeffs 

       1      0.000      -1       2 
       2      0.000      -1       2 
       3     10.500      -1       2 
       4      0.000      -1       2 
       5      0.000      -1       2 
       6      0.000      -1       2 
       7      0.000      -1       2 
       8      0.000      -1       2 
       9      0.000      -1       2 
      10      0.000      -1       2 
      11      0.000      -1       2 
      12      0.000      -1       2 
      13      0.000      -1       2 
      14      0.000      -1       2 
      15      0.000      -1       2 
      16      0.000      -1       2 
      17      0.000      -1       2 
      18      0.000      -1       2 
      19      0.000      -1       2 
      20      0.000      -1       2 
      21      0.000      -1       2 
      22      0.000      -1       2 
      23      0.000      -1       2 
      24      0.000      -1       2 
      25      0.000      -1       2 
      26      0.000      -1       2 
      27      0.000      -1       2 
      28      0.000      -1       2 
      29      0.000      -1       2 
      30      0.000      -1       2 
      31      0.000      -1       2 
      32      0.000      -1       2 
      33      0.000      -1       2 
      34      0.000      -1       2 
      35      0.000      -1       2 
      36      0.000      -1       2 
      37      0.000      -1       2 
      38      0.000      -1       2 
      39      0.000      -1       2 

Atoms 

     1      1      1 -0.23470000    1.000  1.00000  0.00000
     2      1      2 -0.03040000   -0.551  1.00000  0.00000
     3      1      3 -0.18110000   -1.010  1.00000  1.49453
     4      1      4 -0.18810000   -1.850 -0.25119  1.66230
     5      1      5 -0.17690000   -1.199 -1.21572  0.68175
     6      1      6 -0.15440000   -1.069 -0.35317 -0.59457
     7      1      7 0.37870000   -2.435 -0.38308 -1.32940
     8      1      8 -0.46370000   -3.367 -1.07885 -0.90117
     9      1      9 -0.21720000   -2.603  0.29979 -2.68190
    10      1     10 -0.16650000   -3.986  0.95225 -2.81847
    11      1     11 -0.09050000   -4.299  2.42111 -2.33282
    12      1     12 -0.17190000   -5.677  2.37182 -1.61208
    13      1     13 -0.17280000   -6.844  2.61637 -2.59073
    14      1     14 -0.17520000   -7.659  3.88121 -2.32223
    15      1     15 -0.17000000   -6.893  5.17588 -2.56114
    16      1     16 -0.17260000   -5.953  5.55339 -1.41779
    17      1     17 -0.16780000   -4.490  5.64395 -1.86544
    18      1     18 -0.16820000   -3.564  4.70369 -1.10547
    19      1     19 -0.08450000   -3.186  3.29901 -1.66173
    20      1     20 -0.18660000   -2.456  2.61780 -0.50534
    21      1     21 -0.16470000   -1.008  2.25494 -0.76857
    22      1     22 0.08390000    1.407  0.12061  0.51092
    23      1     23 0.08390000    1.385  1.88522  0.52113
    24      1     24 0.08390000    1.396  1.01171 -1.01830
    25      1     25 0.09410000   -1.563  1.89526  1.79835
    26      1     26 0.09410000   -0.148  0.93896  2.16960
    27      1     27 0.10270000   -2.890 -0.04417  1.38130
    28      1     28 0.10270000   -1.856 -0.61984  2.69019
    29      1     29 0.10470000   -1.784 -2.12943  0.55001
    30      1     30 0.10470000   -0.208 -1.50718  1.04962
    31      1     31 0.12420000   -0.341 -0.80483 -1.27471
    32      1     32 0.11370000   -2.542 -0.52142 -3.40902
    33      1     33 0.11370000   -1.798  0.97345 -2.95407
    34      1     34 0.09770000   -4.709  0.25938 -2.36692
    35      1     35 0.09770000   -4.254  0.91860 -3.88356
    36      1     36 0.08490000   -4.469  2.97319 -3.27023
    37      1     37 0.09490000   -5.712  3.01456 -0.73561
    38      1     38 0.09490000   -5.840  1.37715 -1.17191
    39      1     39 0.08470000   -7.533  1.76337 -2.53671
    40      1     40 0.08470000   -6.500  2.63539 -3.63413
    41      1     41 0.08580000   -8.082  3.85884 -1.30838
    42      1     42 0.08580000   -8.512  3.87580 -3.01140
    43      1     43 0.08590000   -7.644  5.97243 -2.65184
    44      1     44 0.08590000   -6.375  5.13534 -3.52048
    45      1     45 0.08660000   -6.089  4.91521 -0.54246
    46      1     46 0.08660000   -6.254  6.53652 -1.04291
    47      1     47 0.08730000   -4.171  6.66539 -1.60588
    48      1     48 0.08730000   -4.351  5.55591 -2.94493
    49      1     49 0.08300000   -3.939  4.61597 -0.07628
    50      1     50 0.08300000   -2.607  5.24169 -1.01181
    51      1     51 0.08790000   -2.461  3.49042 -2.46630
    52      1     52 0.09570000   -3.048  1.76358 -0.15386
    53      1     53 0.09570000   -2.402  3.28357  0.36464
    54      1     54 0.08830000   -0.394  3.11588 -0.47003
    55      1     55 0.08830000   -0.779  2.14388 -1.83066

Bonds 

     1      1      2      1
     2      2      3      2
     3      3      4      3
     4      4      5      4
     5      5      6      2
     6      6      7      6
     7      7      8      7
     8      8      9      7
     9      9     10      9
    10     10     11     10
    11     11     12     11
    12     12     13     12
    13     13     14     13
    14     14     15     14
    15     15     16     15
    16     16     17     16
    17     17     18     17
    18     18     19     11
    19     19     20     19
    20     20     21      2
    21     21     22      1
    22     22     23      1
    23     23     24      1
    24     24     25      3
    25     25     26      3
    26     26     27      4
    27     27     28      4
    28     28     29      5
    29     29     30      5
    30     30     31      6
    31     31     32      9
    32     32     33      9
    33     33     34     10
    34     34     35     10
    35     35     36     11
    36     36     37     12
    37     37     38     12
    38     38     39     13
    39     39     40     13
    40     40     41     14
    41     41     42     14
    42     42     43     15
    43     43     44     15
    44     44     45     16
    45     45     46     16
    46     46     47     17
    47     47     48     17
    48     48     49     18
    49     49     50     18
    50     50     51     19
    51     51     52     20
    52     52     53     20
    53     53     54     21
    54     54     55     21
    55     55      6      5
    56     56     19     18
    57     57     21     20

Angles 

     1      1      1      2      3
     2      2      2      3      4
     3      3      3      4      5
     4      4      1      2      6
     5      5      2      6      7
     6      6      6      7      8
     7      7      6      7      9
     8      8      7      9     10
     9      9      9     10     11
    10     10     10     11     12
    11     11     11     12     13
    12     12     12     13     14
    13     13     13     14     15
    14     14     14     15     16
    15     15     15     16     17
    16     16     16     17     18
    17     17     10     11     19
    18     18     11     19     20
    19     19      1      2     21
    20     20      2      1     22
    21     21      2      1     23
    22     22      2      1     24
    23     23      2      3     25
    24     24      2      3     26
    25     25      3      4     27
    26     26      3      4     28
    27     27      4      5     29
    28     28      4      5     30
    29     29      2      6     31
    30     30      7      9     32
    31     31      7      9     33
    32     32      9     10     34
    33     33      9     10     35
    34     34     10     11     36
    35     35     11     12     37
    36     36     11     12     38
    37     37     12     13     39
    38     38     12     13     40
    39     39     13     14     41
    40     40     13     14     42
    41     41     14     15     43
    42     42     14     15     44
    43     43     15     16     45
    44     44     15     16     46
    45     45     16     17     47
    46     46     16     17     48
    47     47     17     18     49
    48     48     17     18     50
    49     49     11     19     51
    50     50     19     20     52
    51     51     19     20     53
    52     52      2     21     54
    53     53      2     21     55
    54     54     18     17     47
    55     55     13     12     37
    56     56     19     18     49
    57     57     21     20     52
    58     58     45     16     46
    59     59     54     21     55
    60     60     13     12     38
    61     61     27      4     28
    62     62     22      1     24
    63     63     14     13     40
    64     64     19     11     36
    65     65      6      2     21
    66     66     18     17     48
    67     67     19     20     21
    68     68     10      9     33
    69     69     34     10     35
    70     70     49     18     50
    71     71      5      4     27
    72     72     20     21     54
    73     73     18     19     20
    74     74      7      6     31
    75     75      6      5     30
    76     76     20     19     51
    77     77     43     15     44
    78     78     16     15     44
    79     79     16     15     43
    80     80     37     12     38
    81     81     17     16     45
    82     82      5      4     28
    83     83     14     13     39
    84     84      8      7      9
    85     85      2     21     20
    86     86     23      1     24
    87     87     15     14     41
    88     88     11     10     35
    89     89     11     10     34
    90     90     41     14     42
    91     91     32      9     33
    92     92     10      9     32
    93     93     47     17     48
    94     94     29      5     30
    95     95     21     20     53
    96     96      5      6      7
    97     97     12     11     36
    98     98     20     21     55
    99     99      5      6     31
   100    100      3      2      6
   101    101     17     18     19
   102    102     17     16     46
   103    103     12     11     19
   104    104     25      3     26
   105    105      4      3     26
   106    106     39     13     40
   107    107      3      2     21
   108    108     19     18     50
   109    109      4      5      6
   110    110     15     14     42
   111    111      4      3     25
   112    112     22      1     23
   113    113     18     19     51
   114    114     11     19     18
   115    115      2      6      5
   116    116      6      5     29
   117    117     52     20     53

Dihedrals

     1      1      4      3      2      1 
     2      2      5      4      3      2 
     3      3      8      7      6      2 
     4      4     10      9      7      6 
     5      5     11     10      9      7 
     6      6     12     11     10      9 
     7      7     13     12     11     10 
     8      8     14     13     12     11 
     9      9     15     14     13     12 
    10     10     16     15     14     13 
    11     11     17     16     15     14 
    12     12     18     17     16     15 
    13     13     22      1      2      3 
    14     14     35     10     11     12 
    15     15     32      9      7      6 
    16     16     45     16     17     18 
    17     17     45     16     15     43 
    18     18     25      3      4      5 
    19     19     28      4      3      2 
    20     20     29      5      4     28 
    21     21     42     14     13     12 
    22     22     39     13     12     38 
    23     23     39     13     12     37 
    24     24     36     11     12     13 
    25     25     18     19     11     10 
    26     26     32      9     10     11 
    27     27     51     19     18     50 
    28     28     55     21     20     52 
    29     29     54     21     20     53 
    30     30     50     18     17     47 
    31     31     49     18     17     48 
    32     32      9      7      6      5 
    33     33     55     21      2      1 
    34     34     20     19     18     17 
    35     35     23      1      2      3 
    36     36     54     21     20     19 
    37     37     34     10     11     12 
    38     38     30      5      6      2 
    39     39     36     11     10     34 
    40     40     48     17     16     15 
    41     41      9      7      6      2 
    42     42     26      3      2      1 
    43     43     53     20     19     11 
    44     44     39     13     14     15 
    45     45     31      6      7      9 
    46     46     25      3      2     21 
    47     47     27      4      3     25 
    48     48     34     10      9     32 
    49     49     51     19     18     17 
    50     50      5      6      2      1 
    51     51     30      5      4     27 
    52     52     51     19     11     10 
    53     53     21     20     19     11 
    54     54     51     19     11     12 
    55     55     10      9      7      8 
    56     56     40     13     12     37 
    57     57     26      3      2      6 
    58     58     40     13     14     15 
    59     59     47     17     18     19 
    60     60     21     20     19     18 
    61     61     32      9      7      8 
    62     62     36     11     10     35 
    63     63     37     12     11     10 
    64     64     17     18     19     11 
    65     65     45     16     15     44 
    66     66     46     16     15     43 
    67     67     38     12     11     36 
    68     68     36     11     19     20 
    69     69     52     20     19     18 
    70     70      6      2      3      4 
    71     71     41     14     13     12 
    72     72     54     21      2      6 
    73     73     30      5      4      3 
    74     74     35     10      9     33 
    75     75      4      5      6      2 
    76     76     50     18     17     48 
    77     77     38     12     13     14 
    78     78     43     15     14     41 
    79     79     36     11     19     18 
    80     80     52     20     19     51 
    81     81     49     18     19     11 
    82     82     28      4      3     25 
    83     83     40     13     12     38 
    84     84     54     21      2      3 
    85     85     47     17     16     46 
    86     86     48     17     16     45 
    87     87     35     10      9     32 
    88     88     26      3      4      5 
    89     89     47     17     16     45 
    90     90     53     20     19     51 
    91     91     43     15     14     42 
    92     92     24      1      2      6 
    93     93     43     15     16     17 
    94     94     27      4      5      6 
    95     95     46     16     15     14 
    96     96      8      7      6      5 
    97     97     24      1      2      3 
    98     98      5      6      2      3 
    99     99     20     21      2      1 
   100    100     31      6      2      3 
   101    101     55     21      2      6 
   102    102     37     12     11     19 
   103    103     43     15     14     13 
   104    104      6      5      4      3 
   105    105     29      5      6      2 
   106    106     49     18     19     20 
   107    107     50     18     19     11 
   108    108     29      5      4     27 
   109    109     21      2      6      7 
   110    110     27      4      3     26 
   111    111     28      4      5      6 
   112    112     51     19     11     36 
   113    113     44     15     14     41 
   114    114     52     20     21      2 
   115    115     35     10      9      7 
   116    116     30      5      6      7 
   117    117     54     21      2      1 
   118    118     31      6      5     30 
   119    119     24      1      2     21 
   120    120     31      6      7      8 
   121    121     42     14     13     39 
   122    122     50     18     19     20 
   123    123     34     10      9      7 
   124    124     27      4      3      2 
   125    125     19     11     10      9 
   126    126     50     18     17     16 
   127    127     29      5      6      7 
   128    128     33      9     10     11 
   129    129     33      9      7      6 
   130    130     20     19     11     12 
   131    131     25      3      2      6 
   132    132     47     17     16     15 
   133    133     31      6      2      1 
   134    134     35     10     11     19 
   135    135     54     21     20     52 
   136    136     46     16     15     44 
   137    137     53     20     19     18 
   138    138     31      6      5     29 
   139    139     55     21     20     53 
   140    140     22      1      2      6 
   141    141     31      6      2     21 
   142    142     23      1      2     21 
   143    143     36     11     10      9 
   144    144     51     19     18     49 
   145    145      7      6      2      3 
   146    146     33      9      7      8 
   147    147     21      2      3      4 
   148    148     46     16     17     18 
   149    149     55     21     20     19 
   150    150     20     19     11     10 
   151    151     49     18     17     16 
   152    152     26      3      2     21 
   153    153     18     19     11     12 
   154    154     44     15     14     13 
   155    155     52     20     19     11 
   156    156     41     14     15     16 
   157    157     21      2      6      5 
   158    158     30      5      4     28 
   159    159     37     12     13     14 
   160    160     19     18     17     16 
   161    161     40     13     12     11 
   162    162     51     19     20     21 
   163    163     29      5      4      3 
   164    164     23      1      2      6 
   165    165     19     20     21      2 
   166    166     53     20     21      2 
   167    167     20     21      2      6 
   168    168     34     10      9     33 
   169    169      7      6      2      1 
   170    170     22      1      2     21 
   171    171     25      3      2      1 
   172    172     38     12     11     10 
   173    173     44     15     16     17 
   174    174     19     11     12     13 
   175    175     28      4      3     26 
   176    176      7      6      5      4 
   177    177     34     10     11     19 
   178    178     39     13     12     11 
   179    179     41     14     13     40 
   180    180     48     17     18     19 
   181    181     31      6      5      4 
   182    182     48     17     16     46 
   183    183     38     12     11     19 
   184    184     20     21      2      3 
   185    185     37     12     11     36 
   186    186     49     18     17     47 
   187    187     41     14     13     39 
   188    188     44     15     14     42 
   189    189     45     16     15     14 
   190    190     42     14     13     40 
   191    191     42     14     15     16 
   192    192     55     21      2      3 

Impropers

     1      1      2      1      3      6 
     2      2      6      2      5      7 
     3      3      7      9      6      8 
     4      4     11     10     19     12 
     5      5     19     18     20     11 
     6      6      2      1      3     21 
     7      7      1      2     22     23 
     8      8      1      2     22     24 
     9      9      3     25      2      4 
    10     10      3     26      4      2 
    11     11      4     27      5      3 
    12     12      4      3     28      5 
    13     13      5      4     29      6 
    14     14      5      4     30      6 
    15     15      6      2      5     31 
    16     16      9     10      7     32 
    17     17      9     33      7     10 
    18     18     10      9     34     11 
    19     19     10      9     35     11 
    20     20     11     12     10     36 
    21     21     12     13     11     37 
    22     22     12     11     13     38 
    23     23     13     12     14     39 
    24     24     13     12     14     40 
    25     25     14     41     13     15 
    26     26     14     42     13     15 
    27     27     15     43     14     16 
    28     28     15     44     14     16 
    29     29     16     17     45     15 
    30     30     16     17     46     15 
    31     31     17     18     47     16 
    32     32     17     18     16     48 
    33     33     18     49     19     17 
    34     34     18     17     50     19 
    35     35     19     18     51     11 
    36     36     20     19     52     21 
    37     37     20     21     19     53 
    38     38     21      2     20     54 
    39     39     21      2     20     55 

