LAMMPS data file Created by LigParGen - (Written by Leela S. Dodda)

      23 atoms
      25 bonds
      54 angles
      95 dihedrals
      20 impropers
 
      23 atom types
      25 bond types
      54 angle types
      95 dihedral types
      20 improper types
 
   -4.194660    45.805340 xlo xhi
   -0.956070    49.043930 ylo yhi
   -2.060220    47.939780 zlo zhi

Masses

       1     12.011  
       2     12.011  
       3     12.011  
       4     12.011  
       5     12.011  
       6     12.011  
       7     12.011  
       8     12.011  
       9     12.011  
      10      1.008  
      11      1.008  
      12      1.008  
      13      1.008  
      14      1.008  
      15      1.008  
      16      1.008  
      17      1.008  
      18      1.008  
      19      1.008  
      20      1.008  
      21      1.008  
      22      1.008  
      23      1.008  

Pair Coeffs 

       1      0.066  3.5000000 
       2      0.083  3.4500000 
       3      0.066  3.5000000 
       4      0.066  3.5000000 
       5      0.066  3.5000000 
       6      0.083  3.4500000 
       7      0.083  3.4500000 
       8      0.083  3.4500000 
       9      0.066  3.5000000 
      10      0.030  2.5000000 
      11      0.030  2.5000000 
      12      0.030  2.5000000 
      13      0.030  2.5000000 
      14      0.030  2.5000000 
      15      0.030  2.5000000 
      16      0.030  2.5000000 
      17      0.030  2.5000000 
      18      0.030  2.5000000 
      19      0.030  2.5000000 
      20      0.030  2.5000000 
      21      0.030  2.5000000 
      22      0.030  2.5000000 
      23      0.030  2.5000000 

Bond Coeffs 

       1   280.0000     1.5100 
       2   280.0000     1.5100 
       3   268.0000     1.5290 
       4   268.0000     1.5290 
       5   280.0000     1.5100 
       6   260.0000     1.5200 
       7   260.0000     1.5200 
       8   268.0000     1.5290 
       9   340.0000     1.0900 
      10   340.0000     1.0900 
      11   340.0000     1.0900 
      12   340.0000     1.0900 
      13   340.0000     1.0900 
      14   340.0000     1.0900 
      15   340.0000     1.0900 
      16   340.0000     1.0900 
      17   340.0000     1.0880 
      18   340.0000     1.0880 
      19   340.0000     1.0880 
      20   340.0000     1.0880 
      21   340.0000     1.0900 
      22   340.0000     1.0900 
      23   260.0000     1.5200 
      24   260.0000     1.5200 
      25   280.0000     1.5100 

Angle Coeffs 

       1     35.000    114.300
       2     58.350    112.700
       3     58.350    112.700
       4     58.350    112.700
       5     37.500    117.200
       6     37.500    117.200
       7     58.350    112.700
       8     37.500    110.700
       9     37.500    110.700
      10     37.500    110.700
      11     37.500    110.700
      12     37.500    110.700
      13     37.500    110.700
      14     37.500    110.700
      15     37.500    110.700
      16     35.000    114.300
      17     37.500    117.200
      18     37.500    117.200
      19     37.500    117.200
      20     37.500    110.700
      21     37.500    110.700
      22     37.500    117.200
      23     37.500    117.200
      24     37.500    110.700
      25     33.000    107.800
      26     33.000    107.800
      27     30.000     83.000
      28     58.350    112.700
      29     37.500    117.200
      30     37.500    117.200
      31     37.500    110.700
      32     33.000    107.800
      33     58.350    112.700
      34     37.500    117.200
      35     37.500    117.200
      36     35.000    114.300
      37     33.000    107.800
      38     30.000     83.000
      39     37.500    110.700
      40     30.000     83.000
      41     33.000    107.800
      42     37.500    110.700
      43     33.000    107.800
      44     30.000     83.000
      45     37.500    117.200
      46     37.500    110.700
      47     37.500    117.200
      48     37.500    117.200
      49     37.500    110.700
      50     35.000    114.300
      51     37.500    117.200
      52     37.500    110.700
      53     37.500    117.200
      54     37.500    110.700

Dihedral Coeffs  

       1      1.300     -0.200      0.200      0.000 
       2      1.300     -0.200      0.200      0.000 
       3      1.300     -0.200      0.200      0.000 
       4      0.000      0.000      0.300      0.000 
       5      0.000      0.000      0.300      0.000 
       6      0.000      0.000      0.000      0.000 
       7      0.000      0.000      0.000      0.000 
       8      0.000      0.000      0.000      0.000 
       9      0.000      0.000      0.000      0.000 
      10      0.000      0.000      0.300      0.000 
      11      0.000      0.000      0.000      0.000 
      12      0.000      0.000      0.000      0.000 
      13      0.000      0.000      0.000      0.000 
      14      0.000      0.000      0.300      0.000 
      15      0.000      0.000      0.300      0.000 
      16      0.000      0.000      0.300      0.000 
      17      0.000      0.000      0.300      0.000 
      18      0.000      0.000      0.300      0.000 
      19      0.000      0.000      0.300      0.000 
      20      0.000      0.000      0.300      0.000 
      21      0.000      0.000      0.300      0.000 
      22      0.000      0.000      0.300      0.000 
      23      0.000      0.000      0.300      0.000 
      24      0.000      0.000      0.300      0.000 
      25      0.000      0.000      0.000      0.000 
      26      1.300     -0.200      0.200      0.000 
      27      0.000      0.000      0.300      0.000 
      28      0.000      0.000      0.300      0.000 
      29      0.000      0.000      0.300      0.000 
      30      0.000      0.000      0.000      0.000 
      31      0.000      0.000      0.000      0.000 
      32      0.000      0.000      0.300      0.000 
      33      0.000      0.000      0.300      0.000 
      34      0.000      0.000      0.300      0.000 
      35      0.000      0.000      0.000      0.000 
      36      0.000      0.000      0.300      0.000 
      37      0.000      0.000      0.000      0.000 
      38      0.000      0.000      0.300      0.000 
      39      0.000      0.000      0.300      0.000 
      40      0.000      0.000      0.300      0.000 
      41      0.000      0.000      0.300      0.000 
      42      0.000      0.000      0.000      0.000 
      43      0.000      0.000      0.300      0.000 
      44      0.000      0.000      0.000      0.000 
      45      0.000      0.000      0.000      0.000 
      46      0.000      0.000      0.000      0.000 
      47      0.000      0.000      0.000      0.000 
      48      0.000      0.000      0.300      0.000 
      49      0.000      0.000      0.000      0.000 
      50      0.000      0.000      0.300      0.000 
      51      0.000      0.000      0.300      0.000 
      52      0.000      0.000      0.300      0.000 
      53      0.000      0.000      0.000      0.000 
      54      0.000      0.000      0.300      0.000 
      55      0.000      0.000      0.000      0.000 
      56      0.000      0.000      0.000      0.000 
      57      1.300     -0.200      0.200      0.000 
      58      0.000      0.000      0.300      0.000 
      59      0.000      0.000      0.000      0.000 
      60      0.000      0.000      0.000      0.000 
      61      0.000      0.000      0.300      0.000 
      62      0.000      0.000      0.300      0.000 
      63      0.000      0.000      0.000      0.000 
      64      0.000      0.000      0.000      0.000 
      65      0.000      0.000      0.000      0.000 
      66      1.300     -0.200      0.200      0.000 
      67      0.000      0.000      0.000      0.000 
      68      0.000      0.000      0.000      0.000 
      69      0.000      0.000      0.300      0.000 
      70      0.000      0.000      0.300      0.000 
      71      0.000      0.000      0.000      0.000 
      72      0.000      0.000      0.300      0.000 
      73      0.000      0.000      0.300      0.000 
      74      1.300     -0.200      0.200      0.000 
      75      0.000      0.000      0.300      0.000 
      76      0.000      0.000      0.000      0.000 
      77      0.000      0.000      0.300      0.000 
      78      0.000      0.000      0.300      0.000 
      79      0.000      0.000      0.300      0.000 
      80      0.000      0.000      0.300      0.000 
      81      0.000      0.000      0.000      0.000 
      82      0.000      0.000      0.300      0.000 
      83      0.000      0.000      0.300      0.000 
      84      0.000      0.000      0.000      0.000 
      85      0.000      0.000      0.000      0.000 
      86      0.000      0.000      0.000      0.000 
      87      0.000      0.000      0.300      0.000 
      88      0.000      0.000      0.000      0.000 
      89      0.000      0.000      0.300      0.000 
      90      0.000      0.000      0.300      0.000 
      91      0.000      0.000      0.000      0.000 
      92      0.000      0.000      0.000      0.000 
      93      0.000      0.000      0.000      0.000 
      94      0.000      0.000      0.300      0.000 
      95      0.000      0.000      0.300      0.000 

Improper Coeffs 

       1      0.000      -1       2 
       2      0.000      -1       2 
       3      0.000      -1       2 
       4      0.000      -1       2 
       5      0.000      -1       2 
       6      0.000      -1       2 
       7      0.000      -1       2 
       8      0.000      -1       2 
       9      0.000      -1       2 
      10      0.000      -1       2 
      11      0.000      -1       2 
      12      0.000      -1       2 
      13      0.000      -1       2 
      14      0.000      -1       2 
      15      0.000      -1       2 
      16      0.000      -1       2 
      17      0.000      -1       2 
      18      0.000      -1       2 
      19      0.000      -1       2 
      20      0.000      -1       2 

Atoms 

     1      1      1 -0.21320000    1.000  1.00000  0.00000
     2      1      2 -0.08830000   -0.511  1.00000  0.00000
     3      1      3 -0.15600000   -1.151  1.00000  1.40937
     4      1      4 -0.13510000   -2.438  1.81132  1.17567
     5      1      5 -0.16210000   -3.286  1.07869  0.12382
     6      1      6 -0.14910000   -2.340  1.06913 -1.09015
     7      1      7 -0.17620000   -1.198  0.02969 -1.00478
     8      1      8 -0.15130000   -1.277  2.15489 -0.73570
     9      1      9 -0.17720000   -1.906  2.99235  0.36441
    10      1     10 0.08290000    1.389  0.10256  0.49287
    11      1     11 0.08290000    1.395  1.87435  0.52828
    12      1     12 0.08290000    1.399  1.02093 -1.01940
    13      1     13 0.09840000   -0.509  1.51433  2.13447
    14      1     14 0.09840000   -1.349 -0.01421  1.77039
    15      1     15 0.11730000   -2.977  2.07047  2.08843
    16      1     16 0.09760000   -4.195  1.64845 -0.10279
    17      1     17 0.09760000   -3.570  0.06852  0.43513
    18      1     18 0.11460000   -2.836  1.15172 -2.06022
    19      1     19 0.10090000   -0.657 -0.10371 -1.94958
    20      1     20 0.10090000   -1.468 -0.95607 -0.61705
    21      1     21 0.13340000   -0.770  2.64010 -1.57184
    22      1     22 0.10030000   -2.700  3.64669 -0.01152
    23      1     23 0.10030000   -1.168  3.58942  0.90852

Bonds 

     1      1      2      1
     2      2      3      2
     3      3      4      3
     4      4      5      4
     5      5      6      5
     6      6      7      2
     7      7      8      2
     8      8      9      4
     9      9     10      1
    10     10     11      1
    11     11     12      1
    12     12     13      3
    13     13     14      3
    14     14     15      4
    15     15     16      5
    16     16     17      5
    17     17     18      6
    18     18     19      7
    19     19     20      7
    20     20     21      8
    21     21     22      9
    22     22     23      9
    23     23      7      6
    24     24      8      6
    25     25      9      8

Angles 

     1      1      1      2      3
     2      2      2      3      4
     3      3      3      4      5
     4      4      4      5      6
     5      5      1      2      7
     6      6      1      2      8
     7      7      3      4      9
     8      8      2      1     10
     9      9      2      1     11
    10     10      2      1     12
    11     11      2      3     13
    12     12      2      3     14
    13     13      3      4     15
    14     14      4      5     16
    15     15      4      5     17
    16     16      5      6     18
    17     17      2      7     19
    18     18      2      7     20
    19     19      2      8     21
    20     20      4      9     22
    21     21      4      9     23
    22     22      6      7     20
    23     23      7      6     18
    24     24      9      4     15
    25     25     13      3     14
    26     26     16      5     17
    27     27      2      7      6
    28     28      5      4      9
    29     29      6      7     19
    30     30      5      6      8
    31     31      6      5     17
    32     32     22      9     23
    33     33      4      9      8
    34     34      3      2      8
    35     35      6      8     21
    36     36     19      7     20
    37     37     11      1     12
    38     38      2      8      6
    39     39      5      4     15
    40     40      7      2      8
    41     41     10      1     12
    42     42      6      5     16
    43     43     10      1     11
    44     44      7      6      8
    45     45      6      8      9
    46     46      4      3     14
    47     47      8      6     18
    48     48      3      2      7
    49     49      4      3     13
    50     50      9      8     21
    51     51      2      8      9
    52     52      8      9     23
    53     53      5      6      7
    54     54      8      9     22

Dihedrals

     1      1      4      3      2      1 
     2      2      5      4      3      2 
     3      3      6      5      4      3 
     4      4     10      1      2      3 
     5      5     18      6      5      4 
     6      6     19      7      2      3 
     7      7      6      7      2      1 
     8      8     21      8      2      7 
     9      9     21      8      2      1 
    10     10     22      9      8     21 
    11     11      8      6      5      4 
    12     12      9      8      2      1 
    13     13     21      8      6     18 
    14     14     16      5      6      8 
    15     15     17      5      6      7 
    16     16     23      9      8      6 
    17     17     15      4      3     13 
    18     18     23      9      8      2 
    19     19     21      8      9      4 
    20     20     16      5      4      3 
    21     21     18      6      5     17 
    22     22     23      9      4      3 
    23     23     13      3      2      8 
    24     24     14      3      2      7 
    25     25     20      7      6      5 
    26     26      9      4      5      6 
    27     27     14      3      4      5 
    28     28     13      3      2      7 
    29     29     22      9      8      6 
    30     30      9      8      6      7 
    31     31     18      6      8      9 
    32     32     23      9      4     15 
    33     33     16      5      4     15 
    34     34     15      4      3      2 
    35     35      6      8      9      4 
    36     36     15      4      5      6 
    37     37     19      7      6      8 
    38     38     16      5      4      9 
    39     39     22      9      8      2 
    40     40     15      4      9      8 
    41     41     23      9      4      5 
    42     42     20      7      2      3 
    43     43     17      5      4     15 
    44     44      7      2      3      4 
    45     45     20      7      6     18 
    46     46      6      8      2      3 
    47     47      8      2      3      4 
    48     48     12      1      2      3 
    49     49      6      8      2      1 
    50     50     13      3      4      9 
    51     51     22      9      4      3 
    52     52     15      4      3     14 
    53     53     21      8      6      5 
    54     54     14      3      4      9 
    55     55     19      7      6      5 
    56     56      9      8      2      7 
    57     57      8      9      4      5 
    58     58     13      3      4      5 
    59     59     20      7      6      8 
    60     60     19      7      6     18 
    61     61     22      9      4      5 
    62     62     17      5      4      9 
    63     63      9      8      2      3 
    64     64      5      6      7      2 
    65     65      9      8      6      5 
    66     66      9      4      3      2 
    67     67     21      8      2      3 
    68     68     19      7      2      1 
    69     69     11      1      2      7 
    70     70     10      1      2      8 
    71     71     20      7      2      8 
    72     72     14      3      2      1 
    73     73     12      1      2      8 
    74     74      8      9      4      3 
    75     75     16      5      6      7 
    76     76     20      7      2      1 
    77     77     22      9      4     15 
    78     78     17      5      6      8 
    79     79     14      3      2      8 
    80     80     11      1      2      3 
    81     81      6      7      2      3 
    82     82     23      9      8     21 
    83     83     18      6      5     16 
    84     84      4      9      8      2 
    85     85      5      6      8      2 
    86     86     18      6      8      2 
    87     87     10      1      2      7 
    88     88      7      6      5      4 
    89     89     11      1      2      8 
    90     90     12      1      2      7 
    91     91     18      6      7      2 
    92     92     19      7      2      8 
    93     93     21      8      6      7 
    94     94     13      3      2      1 
    95     95     17      5      4      3 

Impropers

     1      1      2      1      3      7 
     2      2      2      1      3      8 
     3      3      4      9      3      5 
     4      4      1      2     11     10 
     5      5      1      2     12     10 
     6      6      3      2      4     13 
     7      7      3      2      4     14 
     8      8      4      3      5     15 
     9      9      5      4      6     16 
    10     10      5     17      4      6 
    11     11      6     18      5      7 
    12     12      7      2     19      6 
    13     13      7      2     20      6 
    14     14      8      2     21      6 
    15     15      9      4     22      8 
    16     16      9      4     23      8 
    17     17      2      6      7      8 
    18     18      2      6      7      8 
    19     19      2      6      7      8 
    20     20      2      6      7      8 

