LAMMPS data file Created by LigParGen - (Written by Leela S. Dodda)

      51 atoms
      51 bonds
     102 angles
     153 dihedrals
      33 impropers
 
      51 atom types
      51 bond types
     102 angle types
     153 dihedral types
      33 improper types
 
   -6.378150    43.621850 xlo xhi
    0.074270    50.074270 ylo yhi
   -8.716860    41.283140 zlo zhi

Masses

       1     12.011  
       2     12.011  
       3     12.011  
       4     12.011  
       5     12.011  
       6     12.011  
       7     12.011  
       8     12.011  
       9     12.011  
      10     12.011  
      11     12.011  
      12     12.011  
      13     12.011  
      14     12.011  
      15     12.011  
      16     12.011  
      17     12.011  
      18      1.008  
      19      1.008  
      20      1.008  
      21      1.008  
      22      1.008  
      23      1.008  
      24      1.008  
      25      1.008  
      26      1.008  
      27      1.008  
      28      1.008  
      29      1.008  
      30      1.008  
      31      1.008  
      32      1.008  
      33      1.008  
      34      1.008  
      35      1.008  
      36      1.008  
      37      1.008  
      38      1.008  
      39      1.008  
      40      1.008  
      41      1.008  
      42      1.008  
      43      1.008  
      44      1.008  
      45      1.008  
      46      1.008  
      47      1.008  
      48      1.008  
      49      1.008  
      50      1.008  
      51      1.008  

Pair Coeffs 

       1      0.066  3.5000000 
       2      0.066  3.5000000 
       3      0.066  3.5000000 
       4      0.066  3.5000000 
       5      0.066  3.5000000 
       6      0.066  3.5000000 
       7      0.066  3.5000000 
       8      0.066  3.5000000 
       9      0.066  3.5000000 
      10      0.066  3.5000000 
      11      0.066  3.5000000 
      12      0.066  3.5000000 
      13      0.066  3.5000000 
      14      0.066  3.5000000 
      15      0.066  3.5000000 
      16      0.066  3.5000000 
      17      0.066  3.5000000 
      18      0.030  2.5000000 
      19      0.030  2.5000000 
      20      0.030  2.5000000 
      21      0.030  2.5000000 
      22      0.030  2.5000000 
      23      0.030  2.5000000 
      24      0.030  2.5000000 
      25      0.030  2.5000000 
      26      0.030  2.5000000 
      27      0.030  2.5000000 
      28      0.030  2.5000000 
      29      0.030  2.5000000 
      30      0.030  2.5000000 
      31      0.030  2.5000000 
      32      0.030  2.5000000 
      33      0.030  2.5000000 
      34      0.030  2.5000000 
      35      0.030  2.5000000 
      36      0.030  2.5000000 
      37      0.030  2.5000000 
      38      0.030  2.5000000 
      39      0.030  2.5000000 
      40      0.030  2.5000000 
      41      0.030  2.5000000 
      42      0.030  2.5000000 
      43      0.030  2.5000000 
      44      0.030  2.5000000 
      45      0.030  2.5000000 
      46      0.030  2.5000000 
      47      0.030  2.5000000 
      48      0.030  2.5000000 
      49      0.030  2.5000000 
      50      0.030  2.5000000 
      51      0.030  2.5000000 

Bond Coeffs 

       1   268.0000     1.5290 
       2   268.0000     1.5290 
       3   268.0000     1.5290 
       4   268.0000     1.5290 
       5   268.0000     1.5290 
       6   268.0000     1.5290 
       7   268.0000     1.5290 
       8   268.0000     1.5290 
       9   268.0000     1.5290 
      10   268.0000     1.5290 
      11   268.0000     1.5290 
      12   268.0000     1.5290 
      13   268.0000     1.5290 
      14   268.0000     1.5290 
      15   268.0000     1.5290 
      16   268.0000     1.5290 
      17   340.0000     1.0900 
      18   340.0000     1.0900 
      19   340.0000     1.0900 
      20   340.0000     1.0900 
      21   340.0000     1.0900 
      22   340.0000     1.0900 
      23   340.0000     1.0900 
      24   340.0000     1.0900 
      25   340.0000     1.0900 
      26   340.0000     1.0900 
      27   340.0000     1.0900 
      28   340.0000     1.0900 
      29   340.0000     1.0900 
      30   340.0000     1.0900 
      31   340.0000     1.0900 
      32   340.0000     1.0900 
      33   340.0000     1.0900 
      34   340.0000     1.0900 
      35   340.0000     1.0900 
      36   340.0000     1.0900 
      37   340.0000     1.0900 
      38   340.0000     1.0900 
      39   340.0000     1.0900 
      40   340.0000     1.0900 
      41   340.0000     1.0900 
      42   340.0000     1.0900 
      43   340.0000     1.0900 
      44   340.0000     1.0900 
      45   340.0000     1.0900 
      46   340.0000     1.0900 
      47   340.0000     1.0900 
      48   340.0000     1.0900 
      49   340.0000     1.0900 
      50   340.0000     1.0900 
      51   268.0000     1.5290 

Angle Coeffs 

       1     58.350    112.700
       2     58.350    112.700
       3     58.350    112.700
       4     58.350    112.700
       5     58.350    112.700
       6     58.350    112.700
       7     58.350    112.700
       8     58.350    112.700
       9     58.350    112.700
      10     58.350    112.700
      11     58.350    112.700
      12     58.350    112.700
      13     58.350    112.700
      14     58.350    112.700
      15     58.350    112.700
      16     37.500    110.700
      17     37.500    110.700
      18     37.500    110.700
      19     37.500    110.700
      20     37.500    110.700
      21     37.500    110.700
      22     37.500    110.700
      23     37.500    110.700
      24     37.500    110.700
      25     37.500    110.700
      26     37.500    110.700
      27     37.500    110.700
      28     37.500    110.700
      29     37.500    110.700
      30     37.500    110.700
      31     37.500    110.700
      32     37.500    110.700
      33     37.500    110.700
      34     37.500    110.700
      35     37.500    110.700
      36     37.500    110.700
      37     37.500    110.700
      38     37.500    110.700
      39     37.500    110.700
      40     37.500    110.700
      41     37.500    110.700
      42     37.500    110.700
      43     37.500    110.700
      44     37.500    110.700
      45     37.500    110.700
      46     37.500    110.700
      47     37.500    110.700
      48     37.500    110.700
      49     37.500    110.700
      50     37.500    110.700
      51     33.000    107.800
      52     37.500    110.700
      53     33.000    107.800
      54     37.500    110.700
      55     33.000    107.800
      56     33.000    107.800
      57     33.000    107.800
      58     33.000    107.800
      59     37.500    110.700
      60     58.350    112.700
      61     58.350    112.700
      62     37.500    110.700
      63     33.000    107.800
      64     37.500    110.700
      65     33.000    107.800
      66     33.000    107.800
      67     58.350    112.700
      68     33.000    107.800
      69     37.500    110.700
      70     33.000    107.800
      71     33.000    107.800
      72     37.500    110.700
      73     37.500    110.700
      74     37.500    110.700
      75     58.350    112.700
      76     37.500    110.700
      77     33.000    107.800
      78     33.000    107.800
      79     37.500    110.700
      80     33.000    107.800
      81     33.000    107.800
      82     37.500    110.700
      83     37.500    110.700
      84     37.500    110.700
      85     33.000    107.800
      86     33.000    107.800
      87     33.000    107.800
      88     37.500    110.700
      89     37.500    110.700
      90     37.500    110.700
      91     33.000    107.800
      92     37.500    110.700
      93     37.500    110.700
      94     58.350    112.700
      95     37.500    110.700
      96     37.500    110.700
      97     58.350    112.700
      98     37.500    110.700
      99     37.500    110.700
     100     37.500    110.700
     101     37.500    110.700
     102     33.000    107.800

Dihedral Coeffs  

       1      1.300     -0.200      0.200      0.000 
       2      1.300     -0.200      0.200      0.000 
       3      1.300     -0.200      0.200      0.000 
       4      1.300     -0.200      0.200      0.000 
       5      1.300     -0.200      0.200      0.000 
       6      1.300     -0.200      0.200      0.000 
       7      1.300     -0.200      0.200      0.000 
       8      1.300     -0.200      0.200      0.000 
       9      1.300     -0.200      0.200      0.000 
      10      1.300     -0.200      0.200      0.000 
      11      1.300     -0.200      0.200      0.000 
      12      0.000      0.000      0.300      0.000 
      13      0.000      0.000      0.300      0.000 
      14      0.000      0.000      0.300      0.000 
      15      0.000      0.000      0.300      0.000 
      16      0.000      0.000      0.300      0.000 
      17      0.000      0.000      0.300      0.000 
      18      0.000      0.000      0.300      0.000 
      19      0.000      0.000      0.300      0.000 
      20      0.000      0.000      0.300      0.000 
      21      0.000      0.000      0.300      0.000 
      22      0.000      0.000      0.300      0.000 
      23      1.300     -0.200      0.200      0.000 
      24      0.000      0.000      0.300      0.000 
      25      0.000      0.000      0.300      0.000 
      26      0.000      0.000      0.300      0.000 
      27      0.000      0.000      0.300      0.000 
      28      0.000      0.000      0.300      0.000 
      29      0.000      0.000      0.300      0.000 
      30      0.000      0.000      0.300      0.000 
      31      0.000      0.000      0.300      0.000 
      32      0.000      0.000      0.300      0.000 
      33      0.000      0.000      0.300      0.000 
      34      0.000      0.000      0.300      0.000 
      35      1.300     -0.200      0.200      0.000 
      36      0.000      0.000      0.300      0.000 
      37      1.300     -0.200      0.200      0.000 
      38      0.000      0.000      0.300      0.000 
      39      0.000      0.000      0.300      0.000 
      40      0.000      0.000      0.300      0.000 
      41      0.000      0.000      0.300      0.000 
      42      0.000      0.000      0.300      0.000 
      43      0.000      0.000      0.300      0.000 
      44      0.000      0.000      0.300      0.000 
      45      0.000      0.000      0.300      0.000 
      46      0.000      0.000      0.300      0.000 
      47      1.300     -0.200      0.200      0.000 
      48      0.000      0.000      0.300      0.000 
      49      0.000      0.000      0.300      0.000 
      50      0.000      0.000      0.300      0.000 
      51      0.000      0.000      0.300      0.000 
      52      0.000      0.000      0.300      0.000 
      53      0.000      0.000      0.300      0.000 
      54      0.000      0.000      0.300      0.000 
      55      0.000      0.000      0.300      0.000 
      56      0.000      0.000      0.300      0.000 
      57      1.300     -0.200      0.200      0.000 
      58      1.300     -0.200      0.200      0.000 
      59      0.000      0.000      0.300      0.000 
      60      0.000      0.000      0.300      0.000 
      61      0.000      0.000      0.300      0.000 
      62      1.300     -0.200      0.200      0.000 
      63      0.000      0.000      0.300      0.000 
      64      0.000      0.000      0.300      0.000 
      65      0.000      0.000      0.300      0.000 
      66      0.000      0.000      0.300      0.000 
      67      0.000      0.000      0.300      0.000 
      68      0.000      0.000      0.300      0.000 
      69      0.000      0.000      0.300      0.000 
      70      0.000      0.000      0.300      0.000 
      71      0.000      0.000      0.300      0.000 
      72      0.000      0.000      0.300      0.000 
      73      0.000      0.000      0.300      0.000 
      74      0.000      0.000      0.300      0.000 
      75      0.000      0.000      0.300      0.000 
      76      0.000      0.000      0.300      0.000 
      77      0.000      0.000      0.300      0.000 
      78      0.000      0.000      0.300      0.000 
      79      0.000      0.000      0.300      0.000 
      80      0.000      0.000      0.300      0.000 
      81      0.000      0.000      0.300      0.000 
      82      0.000      0.000      0.300      0.000 
      83      0.000      0.000      0.300      0.000 
      84      0.000      0.000      0.300      0.000 
      85      0.000      0.000      0.300      0.000 
      86      0.000      0.000      0.300      0.000 
      87      0.000      0.000      0.300      0.000 
      88      0.000      0.000      0.300      0.000 
      89      1.300     -0.200      0.200      0.000 
      90      0.000      0.000      0.300      0.000 
      91      0.000      0.000      0.300      0.000 
      92      0.000      0.000      0.300      0.000 
      93      0.000      0.000      0.300      0.000 
      94      0.000      0.000      0.300      0.000 
      95      0.000      0.000      0.300      0.000 
      96      0.000      0.000      0.300      0.000 
      97      0.000      0.000      0.300      0.000 
      98      0.000      0.000      0.300      0.000 
      99      0.000      0.000      0.300      0.000 
     100      0.000      0.000      0.300      0.000 
     101      0.000      0.000      0.300      0.000 
     102      0.000      0.000      0.300      0.000 
     103      0.000      0.000      0.300      0.000 
     104      0.000      0.000      0.300      0.000 
     105      0.000      0.000      0.300      0.000 
     106      0.000      0.000      0.300      0.000 
     107      0.000      0.000      0.300      0.000 
     108      0.000      0.000      0.300      0.000 
     109      0.000      0.000      0.300      0.000 
     110      0.000      0.000      0.300      0.000 
     111      0.000      0.000      0.300      0.000 
     112      0.000      0.000      0.300      0.000 
     113      0.000      0.000      0.300      0.000 
     114      0.000      0.000      0.300      0.000 
     115      0.000      0.000      0.300      0.000 
     116      0.000      0.000      0.300      0.000 
     117      0.000      0.000      0.300      0.000 
     118      0.000      0.000      0.300      0.000 
     119      0.000      0.000      0.300      0.000 
     120      0.000      0.000      0.300      0.000 
     121      0.000      0.000      0.300      0.000 
     122      0.000      0.000      0.300      0.000 
     123      0.000      0.000      0.300      0.000 
     124      0.000      0.000      0.300      0.000 
     125      0.000      0.000      0.300      0.000 
     126      0.000      0.000      0.300      0.000 
     127      0.000      0.000      0.300      0.000 
     128      0.000      0.000      0.300      0.000 
     129      0.000      0.000      0.300      0.000 
     130      0.000      0.000      0.300      0.000 
     131      0.000      0.000      0.300      0.000 
     132      0.000      0.000      0.300      0.000 
     133      0.000      0.000      0.300      0.000 
     134      0.000      0.000      0.300      0.000 
     135      0.000      0.000      0.300      0.000 
     136      0.000      0.000      0.300      0.000 
     137      0.000      0.000      0.300      0.000 
     138      0.000      0.000      0.300      0.000 
     139      0.000      0.000      0.300      0.000 
     140      0.000      0.000      0.300      0.000 
     141      0.000      0.000      0.300      0.000 
     142      0.000      0.000      0.300      0.000 
     143      1.300     -0.200      0.200      0.000 
     144      0.000      0.000      0.300      0.000 
     145      0.000      0.000      0.300      0.000 
     146      0.000      0.000      0.300      0.000 
     147      0.000      0.000      0.300      0.000 
     148      0.000      0.000      0.300      0.000 
     149      0.000      0.000      0.300      0.000 
     150      1.300     -0.200      0.200      0.000 
     151      0.000      0.000      0.300      0.000 
     152      0.000      0.000      0.300      0.000 
     153      0.000      0.000      0.300      0.000 

Improper Coeffs 

       1      0.000      -1       2 
       2      0.000      -1       2 
       3      0.000      -1       2 
       4      0.000      -1       2 
       5      0.000      -1       2 
       6      0.000      -1       2 
       7      0.000      -1       2 
       8      0.000      -1       2 
       9      0.000      -1       2 
      10      0.000      -1       2 
      11      0.000      -1       2 
      12      0.000      -1       2 
      13      0.000      -1       2 
      14      0.000      -1       2 
      15      0.000      -1       2 
      16      0.000      -1       2 
      17      0.000      -1       2 
      18      0.000      -1       2 
      19      0.000      -1       2 
      20      0.000      -1       2 
      21      0.000      -1       2 
      22      0.000      -1       2 
      23      0.000      -1       2 
      24      0.000      -1       2 
      25      0.000      -1       2 
      26      0.000      -1       2 
      27      0.000      -1       2 
      28      0.000      -1       2 
      29      0.000      -1       2 
      30      0.000      -1       2 
      31      0.000      -1       2 
      32      0.000      -1       2 
      33      0.000      -1       2 

Atoms 

     1      1      1 -0.23580000    1.000  1.00000  0.00000
     2      1      2 -0.11680000   -0.528  1.00000  0.00000
     3      1      3 -0.23400000   -1.048  1.00000  1.43992
     4      1      4 -0.17320000   -1.053  2.19731 -0.80988
     5      1      5 -0.17960000   -2.581  2.26579 -0.85835
     6      1      6 -0.17570000   -3.050  3.46979 -1.67484
     7      1      7 -0.11340000   -4.585  3.54923 -1.84094
     8      1      8 -0.23510000   -5.294  3.68702 -0.48968
     9      1      9 -0.17200000   -4.990  4.73009 -2.75753
    10      1     10 -0.17860000   -4.444  4.55488 -4.17653
    11      1     11 -0.10750000   -4.789  5.67434 -5.17717
    12      1     12 -0.16850000   -4.290  7.06520 -4.75202
    13      1     13 -0.17450000   -2.766  7.17674 -4.76309
    14      1     14 -0.16940000   -2.180  6.78353 -6.11917
    15      1     15 -0.11540000   -2.661  5.40054 -6.57724
    16      1     16 -0.23620000   -2.114  5.05985 -7.96098
    17      1     17 -0.16650000   -4.193  5.31984 -6.55709
    18      1     18 0.08110000    1.388  0.13319  0.54510
    19      1     19 0.08110000    1.395  1.90435  0.47718
    20      1     20 0.08110000    1.389  0.95461 -1.02220
    21      1     21 0.09570000   -0.867  0.07427 -0.48392
    22      1     22 0.08100000   -0.836  1.95338  1.93568
    23      1     23 0.08100000   -0.581  0.19997  2.02389
    24      1     24 0.08100000   -2.129  0.83194  1.47152
    25      1     25 0.08800000   -0.663  2.12870 -1.83412
    26      1     26 0.08800000   -0.661  3.13220 -0.38739
    27      1     27 0.09090000   -2.973  2.34922  0.15729
    28      1     28 0.09090000   -2.977  1.34404 -1.30151
    29      1     29 0.08920000   -2.568  3.38828 -2.65350
    30      1     30 0.08920000   -2.681  4.39592 -1.21590
    31      1     31 0.09580000   -4.932  2.61673 -2.30571
    32      1     32 0.08110000   -4.958  4.58236  0.04380
    33      1     33 0.08110000   -5.109  2.81877  0.15015
    34      1     34 0.08110000   -6.378  3.75746 -0.62584
    35      1     35 0.08990000   -4.622  5.66272 -2.31491
    36      1     36 0.08990000   -6.084  4.80130 -2.80427
    37      1     37 0.08950000   -4.818  3.60262 -4.57378
    38      1     38 0.08950000   -3.360  4.46326 -4.12449
    39      1     39 0.09510000   -5.881  5.71518 -5.27092
    40      1     40 0.08720000   -4.675  7.33536 -3.76318
    41      1     41 0.08720000   -4.698  7.80947 -5.44897
    42      1     42 0.08770000   -2.339  6.54284 -3.97729
    43      1     43 0.08770000   -2.476  8.20718 -4.52752
    44      1     44 0.08710000   -1.085  6.79716 -6.05426
    45      1     45 0.08710000   -2.464  7.53823 -6.86211
    46      1     46 0.09680000   -2.248  4.65024 -5.89268
    47      1     47 0.08110000   -2.469  5.76667 -8.71686
    48      1     48 0.08110000   -2.426  4.05280 -8.25883
    49      1     49 0.08110000   -1.019  5.08253 -7.95777
    50      1     50 0.08830000   -4.515  4.31103 -6.84890
    51      1     51 0.08830000   -4.604  6.00706 -7.30674

Bonds 

     1      1      2      1
     2      2      3      2
     3      3      4      2
     4      4      5      4
     5      5      6      5
     6      6      7      6
     7      7      8      7
     8      8      9      7
     9      9     10      9
    10     10     11     10
    11     11     12     11
    12     12     13     12
    13     13     14     13
    14     14     15     14
    15     15     16     15
    16     16     17     11
    17     17     18      1
    18     18     19      1
    19     19     20      1
    20     20     21      2
    21     21     22      3
    22     22     23      3
    23     23     24      3
    24     24     25      4
    25     25     26      4
    26     26     27      5
    27     27     28      5
    28     28     29      6
    29     29     30      6
    30     30     31      7
    31     31     32      8
    32     32     33      8
    33     33     34      8
    34     34     35      9
    35     35     36      9
    36     36     37     10
    37     37     38     10
    38     38     39     11
    39     39     40     12
    40     40     41     12
    41     41     42     13
    42     42     43     13
    43     43     44     14
    44     44     45     14
    45     45     46     15
    46     46     47     16
    47     47     48     16
    48     48     49     16
    49     49     50     17
    50     50     51     17
    51     51     17     15

Angles 

     1      1      1      2      3
     2      2      1      2      4
     3      3      2      4      5
     4      4      4      5      6
     5      5      5      6      7
     6      6      6      7      8
     7      7      6      7      9
     8      8      7      9     10
     9      9      9     10     11
    10     10     10     11     12
    11     11     11     12     13
    12     12     12     13     14
    13     13     13     14     15
    14     14     14     15     16
    15     15     10     11     17
    16     16      2      1     18
    17     17      2      1     19
    18     18      2      1     20
    19     19      1      2     21
    20     20      2      3     22
    21     21      2      3     23
    22     22      2      3     24
    23     23      2      4     25
    24     24      2      4     26
    25     25      4      5     27
    26     26      4      5     28
    27     27      5      6     29
    28     28      5      6     30
    29     29      6      7     31
    30     30      7      8     32
    31     31      7      8     33
    32     32      7      8     34
    33     33      7      9     35
    34     34      7      9     36
    35     35      9     10     37
    36     36      9     10     38
    37     37     10     11     39
    38     38     11     12     40
    39     39     11     12     41
    40     40     12     13     42
    41     41     12     13     43
    42     42     13     14     44
    43     43     13     14     45
    44     44     14     15     46
    45     45     15     16     47
    46     46     15     16     48
    47     47     15     16     49
    48     48     11     17     50
    49     49     11     17     51
    50     50     15     17     50
    51     51     42     13     43
    52     52     11     10     38
    53     53     40     12     41
    54     54     15     17     51
    55     55     47     16     48
    56     56     32      8     34
    57     57     22      3     23
    58     58     32      8     33
    59     59     17     15     46
    60     60     16     15     17
    61     61     12     11     17
    62     62     16     15     46
    63     63     44     14     45
    64     64      5      4     26
    65     65     48     16     49
    66     66     27      5     28
    67     67      8      7      9
    68     68     35      9     36
    69     69     14     13     42
    70     70     18      1     19
    71     71     22      3     24
    72     72     12     11     39
    73     73      5      4     25
    74     74      8      7     31
    75     75     11     17     15
    76     76     14     13     43
    77     77     47     16     49
    78     78     25      4     26
    79     79      9      7     31
    80     80     33      8     34
    81     81     23      3     24
    82     82      6      5     27
    83     83      7      6     29
    84     84     15     14     44
    85     85     29      6     30
    86     86     18      1     20
    87     87     37     10     38
    88     88     17     11     39
    89     89     15     14     45
    90     90     13     12     40
    91     91     19      1     20
    92     92      3      2     21
    93     93      7      6     30
    94     94     14     15     17
    95     95      6      5     28
    96     96      4      2     21
    97     97      3      2      4
    98     98     11     10     37
    99     99     10      9     36
   100    100     10      9     35
   101    101     13     12     41
   102    102     50     17     51

Dihedrals

     1      1      5      4      2      1 
     2      2      6      5      4      2 
     3      3      7      6      5      4 
     4      4      8      7      6      5 
     5      5     10      9      7      6 
     6      6     11     10      9      7 
     7      7     12     11     10      9 
     8      8     13     12     11     10 
     9      9     14     13     12     11 
    10     10     15     14     13     12 
    11     11     16     15     14     13 
    12     12     18      1      2      3 
    13     13     22      3      2      1 
    14     14     32      8      7      6 
    15     15     47     16     15     14 
    16     16     34      8      7      6 
    17     17     31      7      6      5 
    18     18     29      6      5     27 
    19     19     35      9     10     11 
    20     20     51     17     15     46 
    21     21     43     13     12     41 
    22     22     44     14     15     16 
    23     23     17     11     10      9 
    24     24     46     15     14     45 
    25     25     50     17     15     46 
    26     26     42     13     12     11 
    27     27     35      9      7      8 
    28     28     18      1      2      4 
    29     29     19      1      2      3 
    30     30     48     16     15     17 
    31     31     22      3      2     21 
    32     32     26      4      2     21 
    33     33     25      4      5      6 
    34     34     23      3      2      4 
    35     35     17     15     14     13 
    36     36     50     17     15     16 
    37     37     10      9      7      8 
    38     38     38     10     11     17 
    39     39     32      8      7     31 
    40     40     51     17     11     39 
    41     41     48     16     15     46 
    42     42     26      4      2      3 
    43     43     46     15     14     13 
    44     44     49     16     15     14 
    45     45     24      3      2     21 
    46     46     44     14     13     12 
    47     47      5      4      2      3 
    48     48     49     16     15     46 
    49     49     28      5      6      7 
    50     50     25      4      2      3 
    51     51     34      8      7      9 
    52     52     34      8      7     31 
    53     53     51     17     11     12 
    54     54     43     13     12     11 
    55     55     29      6      7      9 
    56     56     30      6      7      8 
    57     57     16     15     17     11 
    58     58     15     17     11     12 
    59     59     47     16     15     17 
    60     60     36      9     10     11 
    61     61     40     12     11     10 
    62     62     14     15     17     11 
    63     63     29      6      5      4 
    64     64     37     10      9     35 
    65     65     38     10      9     36 
    66     66     49     16     15     17 
    67     67     39     11     10     38 
    68     68     27      5      4     25 
    69     69     20      1      2      4 
    70     70     46     15     17     11 
    71     71     38     10      9     35 
    72     72     35      9      7      6 
    73     73     41     12     11     10 
    74     74     51     17     11     10 
    75     75     51     17     15     16 
    76     76     39     11     10      9 
    77     77     30      6      5      4 
    78     78     27      5      6      7 
    79     79     44     14     13     43 
    80     80     38     10      9      7 
    81     81     33      8      7      6 
    82     82     41     12     11     39 
    83     83     48     16     15     14 
    84     84     25      4      2     21 
    85     85     45     14     15     16 
    86     86     44     14     15     17 
    87     87     24      3      2      4 
    88     88     21      2      1     20 
    89     89      9      7      6      5 
    90     90     36      9      7      8 
    91     91     33      8      7     31 
    92     92     50     17     15     14 
    93     93     39     11     12     13 
    94     94     50     17     11     12 
    95     95     43     13     12     40 
    96     96     42     13     12     41 
    97     97     30      6      7      9 
    98     98     29      6      7      8 
    99     99     37     10      9      7 
   100    100     31      7      6     29 
   101    101     39     11     17     15 
   102    102     45     14     13     43 
   103    103     50     17     11     10 
   104    104     44     14     13     42 
   105    105     32      8      7      9 
   106    106     50     17     11     39 
   107    107     30      6      5     28 
   108    108     21      2      4      5 
   109    109     35      9      7     31 
   110    110     25      4      2      1 
   111    111     23      3      2      1 
   112    112     31      7      9     10 
   113    113     40     12     11     39 
   114    114     27      5      4      2 
   115    115     40     12     13     14 
   116    116     23      3      2     21 
   117    117     41     12     11     17 
   118    118     24      3      2      1 
   119    119     33      8      7      9 
   120    120     51     17     15     14 
   121    121     20      1      2      3 
   122    122     19      1      2      4 
   123    123     37     10      9     36 
   124    124     28      5      4     26 
   125    125     28      5      4     25 
   126    126     27      5      4     26 
   127    127     45     14     15     17 
   128    128     26      4      5      6 
   129    129     39     11     10     37 
   130    130     28      5      4      2 
   131    131     37     10     11     17 
   132    132     45     14     13     12 
   133    133     22      3      2      4 
   134    134     37     10     11     12 
   135    135     21      2      1     19 
   136    136     29      6      5     28 
   137    137     30      6      5     27 
   138    138     42     13     14     15 
   139    139     31      7      6     30 
   140    140     36      9      7     31 
   141    141     41     12     13     14 
   142    142     46     15     14     44 
   143    143     17     11     12     13 
   144    144     36      9      7      6 
   145    145     45     14     13     42 
   146    146     40     12     11     17 
   147    147     43     13     14     15 
   148    148     47     16     15     46 
   149    149     38     10     11     12 
   150    150     15     17     11     10 
   151    151     21      2      1     18 
   152    152     42     13     12     40 
   153    153     26      4      2      1 

Impropers

     1      1      2      1      3      4 
     2      2      7      9      6      8 
     3      3     11     17     10     12 
     4      4      1      2     19     18 
     5      5      1      2     20     18 
     6      6      2      1      3     21 
     7      7      3      2     22     23 
     8      8      3      2     22     24 
     9      9      4     25      2      5 
    10     10      4     26      5      2 
    11     11      5     27      4      6 
    12     12      5      4     28      6 
    13     13      6      5     29      7 
    14     14      6      5     30      7 
    15     15      7      8     31      6 
    16     16      8     33     32      7 
    17     17      8     34     32      7 
    18     18      9     10     35      7 
    19     19      9     10     36      7 
    20     20     10      9     11     37 
    21     21     10      9     11     38 
    22     22     11     10     12     39 
    23     23     12     11     13     40 
    24     24     12     41     11     13 
    25     25     13     42     12     14 
    26     26     13     43     12     14 
    27     27     14     44     13     15 
    28     28     14     13     45     15 
    29     29     15     16     46     14 
    30     30     16     47     15     48 
    31     31     16     49     47     15 
    32     32     17     50     11     15 
    33     33     17     51     11     15 

