LAMMPS data file Created by LigParGen - (Written by Leela S. Dodda)

      31 atoms
      32 bonds
      66 angles
     108 dihedrals
      20 impropers
 
      31 atom types
      32 bond types
      66 angle types
     108 dihedral types
      20 improper types
 
   -4.306620    45.693380 xlo xhi
   -2.661790    47.338210 ylo yhi
   -2.404990    47.595010 zlo zhi

Masses

       1     12.011  
       2     12.011  
       3     12.011  
       4     12.011  
       5     12.011  
       6     12.011  
       7     12.011  
       8     12.011  
       9     12.011  
      10     12.011  
      11     12.011  
      12      1.008  
      13      1.008  
      14      1.008  
      15      1.008  
      16      1.008  
      17      1.008  
      18      1.008  
      19      1.008  
      20      1.008  
      21      1.008  
      22      1.008  
      23      1.008  
      24      1.008  
      25      1.008  
      26      1.008  
      27      1.008  
      28      1.008  
      29      1.008  
      30      1.008  
      31      1.008  

Pair Coeffs 

       1      0.066  3.5000000 
       2      0.066  3.5000000 
       3      0.066  3.5000000 
       4      0.066  3.5000000 
       5      0.066  3.5000000 
       6      0.066  3.5000000 
       7      0.066  3.5000000 
       8      0.066  3.5000000 
       9      0.066  3.5000000 
      10      0.066  3.5000000 
      11      0.066  3.5000000 
      12      0.030  2.5000000 
      13      0.030  2.5000000 
      14      0.030  2.5000000 
      15      0.030  2.5000000 
      16      0.030  2.5000000 
      17      0.030  2.5000000 
      18      0.030  2.5000000 
      19      0.030  2.5000000 
      20      0.030  2.5000000 
      21      0.030  2.5000000 
      22      0.030  2.5000000 
      23      0.030  2.5000000 
      24      0.030  2.5000000 
      25      0.030  2.5000000 
      26      0.030  2.5000000 
      27      0.030  2.5000000 
      28      0.030  2.5000000 
      29      0.030  2.5000000 
      30      0.030  2.5000000 
      31      0.030  2.5000000 

Bond Coeffs 

       1   268.0000     1.5290 
       2   268.0000     1.5290 
       3   268.0000     1.5290 
       4   268.0000     1.5290 
       5   268.0000     1.5290 
       6   268.0000     1.5290 
       7   268.0000     1.5290 
       8   268.0000     1.5290 
       9   268.0000     1.5290 
      10   268.0000     1.5290 
      11   340.0000     1.0900 
      12   340.0000     1.0900 
      13   340.0000     1.0900 
      14   340.0000     1.0900 
      15   340.0000     1.0900 
      16   340.0000     1.0900 
      17   340.0000     1.0900 
      18   340.0000     1.0900 
      19   340.0000     1.0900 
      20   340.0000     1.0900 
      21   340.0000     1.0900 
      22   340.0000     1.0900 
      23   340.0000     1.0900 
      24   340.0000     1.0900 
      25   340.0000     1.0900 
      26   340.0000     1.0900 
      27   340.0000     1.0900 
      28   340.0000     1.0900 
      29   340.0000     1.0900 
      30   340.0000     1.0900 
      31   268.0000     1.5290 
      32   268.0000     1.5290 

Angle Coeffs 

       1     58.350    112.700
       2     58.350    112.700
       3     58.350    112.700
       4     58.350    112.700
       5     58.350    112.700
       6     58.350    112.700
       7     58.350    112.700
       8     58.350    112.700
       9     58.350    112.700
      10     37.500    110.700
      11     37.500    110.700
      12     37.500    110.700
      13     37.500    110.700
      14     37.500    110.700
      15     37.500    110.700
      16     37.500    110.700
      17     37.500    110.700
      18     37.500    110.700
      19     37.500    110.700
      20     37.500    110.700
      21     37.500    110.700
      22     37.500    110.700
      23     37.500    110.700
      24     37.500    110.700
      25     37.500    110.700
      26     37.500    110.700
      27     37.500    110.700
      28     37.500    110.700
      29     37.500    110.700
      30     58.350    112.700
      31     58.350    112.700
      32     37.500    110.700
      33     33.000    107.800
      34     33.000    107.800
      35     37.500    110.700
      36     37.500    110.700
      37     58.350    112.700
      38     33.000    107.800
      39     37.500    110.700
      40     33.000    107.800
      41     33.000    107.800
      42     58.350    112.700
      43     37.500    110.700
      44     33.000    107.800
      45     33.000    107.800
      46     58.350    112.700
      47     33.000    107.800
      48     58.350    112.700
      49     33.000    107.800
      50     58.350    112.700
      51     33.000    107.800
      52     33.000    107.800
      53     58.350    112.700
      54     37.500    110.700
      55     33.000    107.800
      56     37.500    110.700
      57     33.000    107.800
      58     37.500    110.700
      59     58.350    112.700
      60     37.500    110.700
      61     37.500    110.700
      62     37.500    110.700
      63     37.500    110.700
      64     58.350    112.700
      65     37.500    110.700
      66     37.500    110.700

Dihedral Coeffs  

       1      1.300     -0.200      0.200      0.000 
       2      1.300     -0.200      0.200      0.000 
       3      1.300     -0.200      0.200      0.000 
       4      1.300     -0.200      0.200      0.000 
       5      1.300     -0.200      0.200      0.000 
       6      0.000      0.000      0.300      0.000 
       7      0.000      0.000      0.300      0.000 
       8      0.000      0.000      0.300      0.000 
       9      0.000      0.000      0.300      0.000 
      10      0.000      0.000      0.300      0.000 
      11      0.000      0.000      0.300      0.000 
      12      0.000      0.000      0.300      0.000 
      13      0.000      0.000      0.300      0.000 
      14      0.000      0.000      0.300      0.000 
      15      0.000      0.000      0.300      0.000 
      16      0.000      0.000      0.300      0.000 
      17      0.000      0.000      0.300      0.000 
      18      0.000      0.000      0.300      0.000 
      19      0.000      0.000      0.300      0.000 
      20      0.000      0.000      0.300      0.000 
      21      0.000      0.000      0.300      0.000 
      22      1.300     -0.200      0.200      0.000 
      23      1.300     -0.200      0.200      0.000 
      24      0.000      0.000      0.300      0.000 
      25      0.000      0.000      0.300      0.000 
      26      0.000      0.000      0.300      0.000 
      27      0.000      0.000      0.300      0.000 
      28      0.000      0.000      0.300      0.000 
      29      0.000      0.000      0.300      0.000 
      30      0.000      0.000      0.300      0.000 
      31      0.000      0.000      0.300      0.000 
      32      0.000      0.000      0.300      0.000 
      33      0.000      0.000      0.300      0.000 
      34      1.300     -0.200      0.200      0.000 
      35      0.000      0.000      0.300      0.000 
      36      0.000      0.000      0.300      0.000 
      37      1.300     -0.200      0.200      0.000 
      38      0.000      0.000      0.300      0.000 
      39      0.000      0.000      0.300      0.000 
      40      1.300     -0.200      0.200      0.000 
      41      0.000      0.000      0.300      0.000 
      42      0.000      0.000      0.300      0.000 
      43      1.300     -0.200      0.200      0.000 
      44      0.000      0.000      0.300      0.000 
      45      0.000      0.000      0.300      0.000 
      46      0.000      0.000      0.300      0.000 
      47      0.000      0.000      0.300      0.000 
      48      0.000      0.000      0.300      0.000 
      49      1.300     -0.200      0.200      0.000 
      50      0.000      0.000      0.300      0.000 
      51      0.000      0.000      0.300      0.000 
      52      1.300     -0.200      0.200      0.000 
      53      0.000      0.000      0.300      0.000 
      54      0.000      0.000      0.300      0.000 
      55      0.000      0.000      0.300      0.000 
      56      0.000      0.000      0.300      0.000 
      57      0.000      0.000      0.300      0.000 
      58      0.000      0.000      0.300      0.000 
      59      0.000      0.000      0.300      0.000 
      60      0.000      0.000      0.300      0.000 
      61      0.000      0.000      0.300      0.000 
      62      0.000      0.000      0.300      0.000 
      63      0.000      0.000      0.300      0.000 
      64      0.000      0.000      0.300      0.000 
      65      0.000      0.000      0.300      0.000 
      66      0.000      0.000      0.300      0.000 
      67      0.000      0.000      0.300      0.000 
      68      1.300     -0.200      0.200      0.000 
      69      1.300     -0.200      0.200      0.000 
      70      0.000      0.000      0.300      0.000 
      71      0.000      0.000      0.300      0.000 
      72      0.000      0.000      0.300      0.000 
      73      0.000      0.000      0.300      0.000 
      74      1.300     -0.200      0.200      0.000 
      75      0.000      0.000      0.300      0.000 
      76      0.000      0.000      0.300      0.000 
      77      0.000      0.000      0.300      0.000 
      78      1.300     -0.200      0.200      0.000 
      79      0.000      0.000      0.300      0.000 
      80      1.300     -0.200      0.200      0.000 
      81      1.300     -0.200      0.200      0.000 
      82      0.000      0.000      0.300      0.000 
      83      0.000      0.000      0.300      0.000 
      84      0.000      0.000      0.300      0.000 
      85      1.300     -0.200      0.200      0.000 
      86      1.300     -0.200      0.200      0.000 
      87      0.000      0.000      0.300      0.000 
      88      1.300     -0.200      0.200      0.000 
      89      0.000      0.000      0.300      0.000 
      90      0.000      0.000      0.300      0.000 
      91      0.000      0.000      0.300      0.000 
      92      0.000      0.000      0.300      0.000 
      93      0.000      0.000      0.300      0.000 
      94      0.000      0.000      0.300      0.000 
      95      0.000      0.000      0.300      0.000 
      96      0.000      0.000      0.300      0.000 
      97      1.300     -0.200      0.200      0.000 
      98      0.000      0.000      0.300      0.000 
      99      0.000      0.000      0.300      0.000 
     100      0.000      0.000      0.300      0.000 
     101      0.000      0.000      0.300      0.000 
     102      0.000      0.000      0.300      0.000 
     103      0.000      0.000      0.300      0.000 
     104      0.000      0.000      0.300      0.000 
     105      0.000      0.000      0.300      0.000 
     106      1.300     -0.200      0.200      0.000 
     107      0.000      0.000      0.300      0.000 
     108      1.300     -0.200      0.200      0.000 

Improper Coeffs 

       1      0.000      -1       2 
       2      0.000      -1       2 
       3      0.000      -1       2 
       4      0.000      -1       2 
       5      0.000      -1       2 
       6      0.000      -1       2 
       7      0.000      -1       2 
       8      0.000      -1       2 
       9      0.000      -1       2 
      10      0.000      -1       2 
      11      0.000      -1       2 
      12      0.000      -1       2 
      13      0.000      -1       2 
      14      0.000      -1       2 
      15      0.000      -1       2 
      16      0.000      -1       2 
      17      0.000      -1       2 
      18      0.000      -1       2 
      19      0.000      -1       2 
      20      0.000      -1       2 

Atoms 

     1      1      1 -0.23210000    1.000  1.00000  0.00000
     2      1      2 -0.11220000   -0.528  1.00000  0.00000
     3      1      3 -0.16670000   -1.143  1.00000  1.39972
     4      1      4 -0.04210000   -1.329 -0.47521  1.81419
     5      1      5 -0.23030000   -0.117 -0.96608  2.63654
     6      1      6 -0.22430000   -2.551 -0.60751  2.73865
     7      1      7 -0.10460000   -1.406 -1.26380  0.46869
     8      1      8 -0.17250000   -2.752 -1.86710  0.06151
     9      1      9 -0.18170000   -3.499 -0.73000 -0.60961
    10      1     10 -0.17670000   -2.424 -0.00556 -1.40049
    11      1     11 -0.11790000   -1.099 -0.25508 -0.66333
    12      1     12 0.08050000    1.391  1.81610  0.61575
    13      1     13 0.08050000    1.372  1.14588 -1.02045
    14      1     14 0.08050000    1.424  0.06020  0.35838
    15      1     15 0.09880000   -0.836  1.90975 -0.52984
    16      1     16 0.09270000   -2.121  1.49443  1.33949
    17      1     17 0.09270000   -0.543  1.56976  2.11817
    18      1     18 0.08020000    0.022 -0.35498  3.53563
    19      1     19 0.08020000    0.817 -0.93754  2.07329
    20      1     20 0.08020000   -0.266 -2.00299  2.96050
    21      1     21 0.08090000   -2.409 -0.02236  3.65525
    22      1     22 0.08090000   -2.713 -1.64904  3.03785
    23      1     23 0.08090000   -3.469 -0.24046  2.27258
    24      1     24 0.10160000   -0.654 -2.06263  0.47026
    25      1     25 0.09290000   -3.311 -2.31558  0.88550
    26      1     26 0.09290000   -2.578 -2.66179 -0.67607
    27      1     27 0.09130000   -3.941 -0.05513  0.12956
    28      1     28 0.09130000   -4.307 -1.09251 -1.25353
    29      1     29 0.08950000   -2.665  1.05420 -1.52681
    30      1     30 0.08950000   -2.360 -0.44246 -2.40499
    31      1     31 0.10290000   -0.383 -0.67920 -1.37885

Bonds 

     1      1      2      1
     2      2      3      2
     3      3      4      3
     4      4      5      4
     5      5      6      4
     6      6      7      4
     7      7      8      7
     8      8      9      8
     9      9     10      9
    10     10     11      2
    11     11     12      1
    12     12     13      1
    13     13     14      1
    14     14     15      2
    15     15     16      3
    16     16     17      3
    17     17     18      5
    18     18     19      5
    19     19     20      5
    20     20     21      6
    21     21     22      6
    22     22     23      6
    23     23     24      7
    24     24     25      8
    25     25     26      8
    26     26     27      9
    27     27     28      9
    28     28     29     10
    29     29     30     10
    30     30     31     11
    31     31     11      7
    32     32     11     10

Angles 

     1      1      1      2      3
     2      2      2      3      4
     3      3      3      4      5
     4      4      3      4      6
     5      5      3      4      7
     6      6      4      7      8
     7      7      7      8      9
     8      8      8      9     10
     9      9      1      2     11
    10     10      2      1     12
    11     11      2      1     13
    12     12      2      1     14
    13     13      1      2     15
    14     14      2      3     16
    15     15      2      3     17
    16     16      4      5     18
    17     17      4      5     19
    18     18      4      5     20
    19     19      4      6     21
    20     20      4      6     22
    21     21      4      6     23
    22     22      4      7     24
    23     23      7      8     25
    24     24      7      8     26
    25     25      8      9     27
    26     26      8      9     28
    27     27      9     10     29
    28     28      9     10     30
    29     29      2     11     31
    30     30      8      7     11
    31     31      5      4      6
    32     32      9      8     25
    33     33     16      3     17
    34     34     13      1     14
    35     35     11      7     24
    36     36     10      9     28
    37     37      5      4      7
    38     38     21      6     22
    39     39      3      2     15
    40     40     18      5     20
    41     41     29     10     30
    42     42      6      4      7
    43     43     11      2     15
    44     44     12      1     14
    45     45     27      9     28
    46     46      4      7     11
    47     47     21      6     23
    48     48      3      2     11
    49     49     19      5     20
    50     50      9     10     11
    51     51     12      1     13
    52     52     22      6     23
    53     53      2     11      7
    54     54     11     10     29
    55     55     25      8     26
    56     56      7     11     31
    57     57     18      5     19
    58     58      9      8     26
    59     59      7     11     10
    60     60      4      3     16
    61     61      4      3     17
    62     62      8      7     24
    63     63     10     11     31
    64     64      2     11     10
    65     65     10      9     27
    66     66     11     10     30

Dihedrals

     1      1      4      3      2      1 
     2      2      5      4      3      2 
     3      3      8      7      4      3 
     4      4      9      8      7      4 
     5      5     10      9      8      7 
     6      6     12      1      2      3 
     7      7     18      5      4      3 
     8      8     21      6      4      3 
     9      9     31     11      7     24 
    10     10     24      7     11      2 
    11     11     22      6      4      7 
    12     12     22      6      4      3 
    13     13     28      9      8     26 
    14     14     16      3      2      1 
    15     15     24      7      4      6 
    16     16     26      8      7     11 
    17     17     24      7     11     10 
    18     18     13      1      2      3 
    19     19     13      1      2     11 
    20     20     26      8      9     10 
    21     21     31     11      2      3 
    22     22      7     11      2      3 
    23     23     11      7      4      6 
    24     24     21      6      4      5 
    25     25     23      6      4      3 
    26     26     30     10     11      2 
    27     27     25      8      7     11 
    28     28     22      6      4      5 
    29     29     15      2      1     12 
    30     30     27      9      8      7 
    31     31     27      9      8     25 
    32     32     20      5      4      3 
    33     33     23      6      4      7 
    34     34      9     10     11      7 
    35     35     24      7      4      3 
    36     36     16      3      2     11 
    37     37      6      4      3      2 
    38     38     31     11      2      1 
    39     39     31     11      7      4 
    40     40     10     11      2      1 
    41     41     24      7      8      9 
    42     42     29     10      9      8 
    43     43     11     10      9      8 
    44     44     29     10     11      2 
    45     45     17      3      2     11 
    46     46     25      8      7      4 
    47     47     30     10      9     28 
    48     48     12      1      2     11 
    49     49      7      4      3      2 
    50     50     18      5      4      7 
    51     51     29     10      9     27 
    52     52      4      7     11      2 
    53     53     19      5      4      6 
    54     54     23      6      4      5 
    55     55     16      3      4      6 
    56     56     15      2      3      4 
    57     57     21      6      4      7 
    58     58     15      2     11      7 
    59     59     15      2     11     10 
    60     60     31     11     10     30 
    61     61     19      5      4      7 
    62     62     20      5      4      6 
    63     63     17      3      4      6 
    64     64     16      3      4      7 
    65     65     14      1      2     11 
    66     66     26      8      7     24 
    67     67     19      5      4      3 
    68     68      8      7      4      6 
    69     69     11      7      4      3 
    70     70     25      8      9     10 
    71     71     28      9      8      7 
    72     72     30     10     11      7 
    73     73     31     11     10      9 
    74     74     10     11      2      3 
    75     75     17      3      2      1 
    76     76     27      9      8     26 
    77     77     28      9      8     25 
    78     78      8      7      4      5 
    79     79     24      7      4      5 
    80     80     11      2      3      4 
    81     81      9     10     11      2 
    82     82     15      2      1     13 
    83     83     25      8      7     24 
    84     84     27      9     10     11 
    85     85      8      7     11      2 
    86     86     10     11      7      4 
    87     87     16      3      2     15 
    88     88     11      7      8      9 
    89     89     26      8      7      4 
    90     90     31     11      7      8 
    91     91     18      5      4      6 
    92     92     31     11     10     29 
    93     93     17      3      4      5 
    94     94     15      2      1     14 
    95     95     20      5      4      7 
    96     96     30     10      9      8 
    97     97     10     11      7      8 
    98     98     17      3      4      7 
    99     99     29     10     11      7 
   100    100     14      1      2      3 
   101    101     31     11      2     15 
   102    102     17      3      2     15 
   103    103     29     10      9     28 
   104    104     30     10      9     27 
   105    105     28      9     10     11 
   106    106     11      7      4      5 
   107    107     16      3      4      5 
   108    108      7     11      2      1 

Impropers

     1      1      4      3      5      6 
     2      2      4      3      5      7 
     3      3      2      1     11      3 
     4      4      1      2     12     13 
     5      5      1      2     12     14 
     6      6      2      1      3     15 
     7      7      3      2      4     16 
     8      8      3     17      2      4 
     9      9      5     18     19      4 
    10     10      5      4     18     20 
    11     11      6      4     21     22 
    12     12      6      4     21     23 
    13     13      7      8      4     24 
    14     14      8     25      9      7 
    15     15      8      9     26      7 
    16     16      9     10     27      8 
    17     17      9     10     28      8 
    18     18     10      9     11     29 
    19     19     10      9     11     30 
    20     20     11      2      7     31 

