LAMMPS data file Created by LigParGen - (Written by Leela S. Dodda)

      43 atoms
      44 bonds
      90 angles
     136 dihedrals
      32 impropers
 
      43 atom types
      44 bond types
      90 angle types
     136 dihedral types
      32 improper types
 
   -3.960500    46.039500 xlo xhi
    0.055180    50.055180 ylo yhi
   -5.392760    44.607240 zlo zhi

Masses

       1     12.011  
       2     12.011  
       3     12.011  
       4     12.011  
       5     12.011  
       6     12.011  
       7     12.011  
       8     12.011  
       9     12.011  
      10     12.011  
      11     12.011  
      12     12.011  
      13     12.011  
      14     12.011  
      15     12.011  
      16      1.008  
      17      1.008  
      18      1.008  
      19      1.008  
      20      1.008  
      21      1.008  
      22      1.008  
      23      1.008  
      24      1.008  
      25      1.008  
      26      1.008  
      27      1.008  
      28      1.008  
      29      1.008  
      30      1.008  
      31      1.008  
      32      1.008  
      33      1.008  
      34      1.008  
      35      1.008  
      36      1.008  
      37      1.008  
      38      1.008  
      39      1.008  
      40      1.008  
      41      1.008  
      42      1.008  
      43      1.008  

Pair Coeffs 

       1      0.066  3.5000000 
       2      0.066  3.5000000 
       3      0.066  3.5000000 
       4      0.066  3.5000000 
       5      0.066  3.5000000 
       6      0.066  3.5000000 
       7      0.066  3.5000000 
       8      0.066  3.5000000 
       9      0.066  3.5000000 
      10      0.066  3.5000000 
      11      0.066  3.5000000 
      12      0.083  3.4500000 
      13      0.083  3.4500000 
      14      0.066  3.5000000 
      15      0.083  3.4500000 
      16      0.030  2.5000000 
      17      0.030  2.5000000 
      18      0.030  2.5000000 
      19      0.030  2.5000000 
      20      0.030  2.5000000 
      21      0.030  2.5000000 
      22      0.030  2.5000000 
      23      0.030  2.5000000 
      24      0.030  2.5000000 
      25      0.030  2.5000000 
      26      0.030  2.5000000 
      27      0.030  2.5000000 
      28      0.030  2.5000000 
      29      0.030  2.5000000 
      30      0.030  2.5000000 
      31      0.030  2.5000000 
      32      0.030  2.5000000 
      33      0.030  2.5000000 
      34      0.030  2.5000000 
      35      0.030  2.5000000 
      36      0.030  2.5000000 
      37      0.030  2.5000000 
      38      0.030  2.5000000 
      39      0.030  2.5000000 
      40      0.030  2.5000000 
      41      0.030  2.5000000 
      42      0.030  2.5000000 
      43      0.030  2.5000000 

Bond Coeffs 

       1   268.0000     1.5290 
       2   268.0000     1.5290 
       3   268.0000     1.5290 
       4   268.0000     1.5290 
       5   268.0000     1.5290 
       6   268.0000     1.5290 
       7   268.0000     1.5290 
       8   268.0000     1.5290 
       9   268.0000     1.5290 
      10   268.0000     1.5290 
      11   280.0000     1.5100 
      12   260.0000     1.5200 
      13   280.0000     1.5100 
      14   280.0000     1.5100 
      15   340.0000     1.0900 
      16   340.0000     1.0900 
      17   340.0000     1.0900 
      18   340.0000     1.0900 
      19   340.0000     1.0900 
      20   340.0000     1.0900 
      21   340.0000     1.0900 
      22   340.0000     1.0900 
      23   340.0000     1.0900 
      24   340.0000     1.0900 
      25   340.0000     1.0900 
      26   340.0000     1.0900 
      27   340.0000     1.0900 
      28   340.0000     1.0900 
      29   340.0000     1.0900 
      30   340.0000     1.0900 
      31   340.0000     1.0900 
      32   340.0000     1.0900 
      33   340.0000     1.0900 
      34   340.0000     1.0900 
      35   340.0000     1.0900 
      36   340.0000     1.0900 
      37   340.0000     1.0880 
      38   340.0000     1.0880 
      39   340.0000     1.0900 
      40   340.0000     1.0900 
      41   340.0000     1.0900 
      42   340.0000     1.0880 
      43   260.0000     1.5200 
      44   260.0000     1.5200 

Angle Coeffs 

       1     58.350    112.700
       2     58.350    112.700
       3     58.350    112.700
       4     58.350    112.700
       5     58.350    112.700
       6     58.350    112.700
       7     58.350    112.700
       8     58.350    112.700
       9     58.350    112.700
      10     58.350    112.700
      11     37.500    117.200
      12     37.500    117.200
      13     58.350    112.700
      14     37.500    110.700
      15     37.500    110.700
      16     37.500    110.700
      17     37.500    110.700
      18     37.500    110.700
      19     37.500    110.700
      20     37.500    110.700
      21     37.500    110.700
      22     37.500    110.700
      23     37.500    110.700
      24     37.500    110.700
      25     37.500    110.700
      26     37.500    110.700
      27     37.500    110.700
      28     37.500    110.700
      29     37.500    110.700
      30     37.500    110.700
      31     37.500    110.700
      32     37.500    110.700
      33     37.500    110.700
      34     37.500    110.700
      35     37.500    110.700
      36     35.000    114.300
      37     37.500    117.200
      38     37.500    110.700
      39     37.500    110.700
      40     37.500    110.700
      41     35.000    114.300
      42     37.500    110.700
      43     33.000    107.800
      44     37.500    117.200
      45     37.500    117.200
      46     33.000    107.800
      47     37.500    117.200
      48     30.000     83.000
      49     58.350    112.700
      50     33.000    107.800
      51     37.500    110.700
      52     37.500    117.200
      53     35.000    114.300
      54     58.350    112.700
      55     33.000    107.800
      56     33.000    107.800
      57     33.000    107.800
      58     33.000    107.800
      59     33.000    107.800
      60     37.500    110.700
      61     37.500    110.700
      62     33.000    107.800
      63     37.500    117.200
      64     33.000    107.800
      65     33.000    107.800
      66     37.500    110.700
      67     33.000    107.800
      68     37.500    117.200
      69     33.000    107.800
      70     37.500    117.200
      71     33.000    107.800
      72     37.500    110.700
      73     37.500    117.200
      74     33.000    107.800
      75     30.000     83.000
      76     37.500    117.200
      77     33.000    107.800
      78     37.500    110.700
      79     58.350    112.700
      80     37.500    110.700
      81     37.500    110.700
      82     37.500    110.700
      83     58.350    112.700
      84     33.000    107.800
      85     58.350    112.700
      86     30.000     83.000
      87     33.000    107.800
      88     37.500    110.700
      89     37.500    110.700
      90     33.000    107.800

Dihedral Coeffs  

       1      1.300     -0.200      0.200      0.000 
       2      1.300     -0.200      0.200      0.000 
       3      1.300     -0.200      0.200      0.000 
       4      1.300     -0.200      0.200      0.000 
       5      1.300     -0.200      0.200      0.000 
       6      0.000      0.000      0.000      0.000 
       7      0.000      0.000      0.000      0.000 
       8      0.000      0.000      0.300      0.000 
       9      0.000      0.000      0.300      0.000 
      10      0.000      0.000      0.300      0.000 
      11      0.000      0.000      0.300      0.000 
      12      0.000      0.000      0.300      0.000 
      13      0.000      0.000      0.300      0.000 
      14      0.000      0.000      0.300      0.000 
      15      0.000      0.000      0.300      0.000 
      16      0.000      0.000      0.000      0.000 
      17      0.000      0.000      0.300      0.000 
      18      0.000      0.000      0.300      0.000 
      19      0.000      0.000      0.000      0.000 
      20      0.000      0.000      0.300      0.000 
      21      0.000      0.000      0.300      0.000 
      22      0.000      0.000      0.000      0.000 
      23      0.000      0.000      0.300      0.000 
      24      0.000      0.000      0.300      0.000 
      25      0.000      0.000      0.000      0.000 
      26      0.000      0.000      0.300      0.000 
      27      1.300     -0.200      0.200      0.000 
      28      0.000      0.000      0.300      0.000 
      29      0.000      0.000      0.000      0.000 
      30      0.000      0.000      0.300      0.000 
      31      1.300     -0.200      0.200      0.000 
      32      0.000      0.000      0.300      0.000 
      33      0.000      0.000      0.300      0.000 
      34      0.000      0.000      0.300      0.000 
      35      0.000      0.000      0.300      0.000 
      36      0.000      0.000      0.300      0.000 
      37      0.000      0.000      0.300      0.000 
      38      0.000      0.000      0.000      0.000 
      39      0.000      0.000      0.300      0.000 
      40      0.000      0.000      0.000      0.000 
      41      0.000      0.000      0.300      0.000 
      42      0.000      0.000      0.000      0.000 
      43      0.000      0.000      0.300      0.000 
      44      0.000      0.000      0.000      0.000 
      45      0.000      0.000      0.000      0.000 
      46      0.000      0.000      0.000      0.000 
      47      0.000      0.000      0.300      0.000 
      48      0.000      0.000      0.300      0.000 
      49      0.000      0.000      0.300      0.000 
      50      1.300     -0.200      0.200      0.000 
      51      0.000      0.000      0.300      0.000 
      52      0.000      0.000      0.300      0.000 
      53      0.000      0.000      0.300      0.000 
      54      0.000      0.000      0.000      0.000 
      55      1.300     -0.200      0.200      0.000 
      56      0.000      0.000      0.300      0.000 
      57      0.000      0.000      0.300      0.000 
      58      0.000      0.000      0.300      0.000 
      59      0.000      0.000      0.000      0.000 
      60      0.000      0.000      0.300      0.000 
      61      0.000      0.000      0.300      0.000 
      62      0.000      0.000      0.300      0.000 
      63      0.000      0.000      0.300      0.000 
      64      0.000      0.000      0.300      0.000 
      65      0.000      0.000      0.000      0.000 
      66      0.000      0.000      0.000      0.000 
      67      0.000      0.000      0.000      0.000 
      68      0.000      0.000      0.300      0.000 
      69      0.000      0.000      0.300      0.000 
      70      0.000      0.000      0.300      0.000 
      71      0.000      0.000      0.300      0.000 
      72      0.000      0.000      0.300      0.000 
      73      0.000      0.000      0.300      0.000 
      74      0.000      0.000      0.300      0.000 
      75      0.000      0.000      0.300      0.000 
      76      0.000      0.000      0.300      0.000 
      77      0.000      0.000      0.000      0.000 
      78      0.000      0.000      0.300      0.000 
      79      0.000      0.000      0.300      0.000 
      80      1.300     -0.200      0.200      0.000 
      81      1.300     -0.200      0.200      0.000 
      82      0.000      0.000      0.300      0.000 
      83      1.300     -0.200      0.200      0.000 
      84      0.000      0.000      0.300      0.000 
      85      0.000      0.000      0.300      0.000 
      86      0.000      0.000      0.300      0.000 
      87      0.000      0.000      0.300      0.000 
      88      1.300     -0.200      0.200      0.000 
      89      0.000      0.000      0.300      0.000 
      90      0.000      0.000      0.300      0.000 
      91      0.000      0.000      0.300      0.000 
      92      0.000      0.000      0.300      0.000 
      93      0.000      0.000      0.300      0.000 
      94      0.000      0.000      0.300      0.000 
      95      1.300     -0.200      0.200      0.000 
      96      0.000      0.000      0.300      0.000 
      97      0.000      0.000      0.300      0.000 
      98      0.000      0.000      0.300      0.000 
      99      0.000      0.000      0.300      0.000 
     100      0.000      0.000      0.000      0.000 
     101      0.000      0.000      0.300      0.000 
     102      0.000      0.000      0.300      0.000 
     103      0.000      0.000      0.300      0.000 
     104      0.000      0.000      0.000      0.000 
     105      0.000      0.000      0.300      0.000 
     106      1.300     -0.200      0.200      0.000 
     107      0.000      0.000      0.300      0.000 
     108      0.000      0.000      0.300      0.000 
     109      0.000      0.000      0.300      0.000 
     110      0.000      0.000      0.000      0.000 
     111      0.000      0.000      0.300      0.000 
     112      0.000      0.000      0.300      0.000 
     113      0.000      0.000      0.300      0.000 
     114      0.000      0.000      0.300      0.000 
     115      0.000      0.000      0.000      0.000 
     116      0.000      0.000      0.000      0.000 
     117      0.000      0.000      0.000      0.000 
     118      0.000      0.000      0.300      0.000 
     119      0.000      0.000      0.300      0.000 
     120      0.000      0.000      0.300      0.000 
     121      0.000      0.000      0.300      0.000 
     122      0.000      0.000      0.300      0.000 
     123      0.000      0.000      0.300      0.000 
     124      0.000      0.000      0.300      0.000 
     125      0.000      0.000      0.300      0.000 
     126      0.000      0.000      0.300      0.000 
     127      0.000      0.000      0.300      0.000 
     128      0.000      0.000      0.300      0.000 
     129      0.000      0.000      0.000      0.000 
     130      0.000      0.000      0.300      0.000 
     131      0.000      0.000      0.300      0.000 
     132      1.300     -0.200      0.200      0.000 
     133      0.000      0.000      0.300      0.000 
     134      0.000      0.000      0.300      0.000 
     135      0.000      0.000      0.000      0.000 
     136      0.000      0.000      0.300      0.000 

Improper Coeffs 

       1      0.000      -1       2 
       2      0.000      -1       2 
       3      0.000      -1       2 
       4      0.000      -1       2 
       5      0.000      -1       2 
       6      0.000      -1       2 
       7      0.000      -1       2 
       8      0.000      -1       2 
       9      0.000      -1       2 
      10      0.000      -1       2 
      11      0.000      -1       2 
      12      0.000      -1       2 
      13      0.000      -1       2 
      14      0.000      -1       2 
      15      0.000      -1       2 
      16      0.000      -1       2 
      17      0.000      -1       2 
      18      0.000      -1       2 
      19      0.000      -1       2 
      20      0.000      -1       2 
      21      0.000      -1       2 
      22      0.000      -1       2 
      23      0.000      -1       2 
      24      0.000      -1       2 
      25      0.000      -1       2 
      26      0.000      -1       2 
      27      0.000      -1       2 
      28      0.000      -1       2 
      29      0.000      -1       2 
      30      0.000      -1       2 
      31      0.000      -1       2 
      32      0.000      -1       2 

Atoms 

     1      1      1 -0.23350000    1.000  1.00000  0.00000
     2      1      2 -0.11080000   -0.534  1.00000  0.00000
     3      1      3 -0.23700000   -1.041  1.00000  1.44855
     4      1      4 -0.06820000   -1.179  2.16201 -0.81939
     5      1      5 -0.16440000   -0.822  3.54550 -0.25494
     6      1      6 -0.10480000   -1.038  4.74581 -1.18461
     7      1      7 -0.23220000   -2.479  5.22919 -1.33400
     8      1      8 -0.05590000   -0.315  4.48951 -2.51648
     9      1      9 -0.10880000   -0.156  5.77457 -3.38800
    10      1     10 -0.23970000    0.672  6.83551 -2.63301
    11      1     11 -0.23560000    0.557  5.52017 -4.72237
    12      1     12 -0.15300000   -0.764  3.22935 -3.23303
    13      1     13 -0.14740000   -2.003  2.32367 -3.30880
    14      1     14 -0.20860000   -3.422  2.52479 -2.90407
    15      1     15 -0.19190000   -0.904  2.01622 -2.31312
    16      1     16 0.08090000    1.376  0.10739  0.51311
    17      1     17 0.08090000    1.415  1.86636  0.52352
    18      1     18 0.08090000    1.405  0.98703 -1.01678
    19      1     19 0.09610000   -0.858  0.05518 -0.45679
    20      1     20 0.08110000   -0.666  1.86158  2.00892
    21      1     21 0.08110000   -0.707  0.09553  1.97250
    22      1     22 0.08110000   -2.134  1.02165  1.47890
    23      1     23 0.09670000   -2.257  2.03557 -0.66636
    24      1     24 0.08750000    0.243  3.56067  0.00440
    25      1     25 0.08750000   -1.355  3.71425  0.68549
    26      1     26 0.08920000   -0.527  5.56288 -0.66024
    27      1     27 0.08230000   -2.927  4.93792 -2.28388
    28      1     28 0.08230000   -2.506  6.32570 -1.33338
    29      1     29 0.08230000   -3.112  4.88671 -0.51037
    30      1     30 0.09410000    0.723  4.24193 -2.23417
    31      1     31 0.10220000   -1.143  6.19665 -3.61096
    32      1     32 0.08030000    1.634  6.41888 -2.30021
    33      1     33 0.08030000    0.148  7.21602 -1.75011
    34      1     34 0.08030000    0.892  7.69955 -3.26681
    35      1     35 0.08120000    1.516  5.01197 -4.56936
    36      1     36 0.08120000    0.761  6.46488 -5.23990
    37      1     37 0.08120000   -0.059  4.91397 -5.39276
    38      1     38 0.12030000   -0.106  3.07822 -4.08984
    39      1     39 0.11800000   -2.024  1.68694 -4.19813
    40      1     40 0.08640000   -3.574  2.99097 -1.93286
    41      1     41 0.08640000   -3.914  1.54525 -2.84355
    42      1     42 0.08640000   -3.961  3.11027 -3.65574
    43      1     43 0.12380000   -0.273  1.16101 -2.53782

Bonds 

     1      1      2      1
     2      2      3      2
     3      3      4      2
     4      4      5      4
     5      5      6      5
     6      6      7      6
     7      7      8      6
     8      8      9      8
     9      9     10      9
    10     10     11      9
    11     11     12      8
    12     12     13     12
    13     13     14     13
    14     14     15      4
    15     15     16      1
    16     16     17      1
    17     17     18      1
    18     18     19      2
    19     19     20      3
    20     20     21      3
    21     21     22      3
    22     22     23      4
    23     23     24      5
    24     24     25      5
    25     25     26      6
    26     26     27      7
    27     27     28      7
    28     28     29      7
    29     29     30      8
    30     30     31      9
    31     31     32     10
    32     32     33     10
    33     33     34     10
    34     34     35     11
    35     35     36     11
    36     36     37     11
    37     37     38     12
    38     38     39     13
    39     39     40     14
    40     40     41     14
    41     41     42     14
    42     42     43     15
    43     43     15     12
    44     44     15     13

Angles 

     1      1      1      2      3
     2      2      1      2      4
     3      3      2      4      5
     4      4      4      5      6
     5      5      5      6      7
     6      6      5      6      8
     7      7      6      8      9
     8      8      8      9     10
     9      9      8      9     11
    10     10      6      8     12
    11     11      8     12     13
    12     12     12     13     14
    13     13      2      4     15
    14     14      2      1     16
    15     15      2      1     17
    16     16      2      1     18
    17     17      1      2     19
    18     18      2      3     20
    19     19      2      3     21
    20     20      2      3     22
    21     21      2      4     23
    22     22      4      5     24
    23     23      4      5     25
    24     24      5      6     26
    25     25      6      7     27
    26     26      6      7     28
    27     27      6      7     29
    28     28      6      8     30
    29     29      8      9     31
    30     30      9     10     32
    31     31      9     10     33
    32     32      9     10     34
    33     33      9     11     35
    34     34      9     11     36
    35     35      9     11     37
    36     36      8     12     38
    37     37     12     13     39
    38     38     13     14     40
    39     39     13     14     41
    40     40     13     14     42
    41     41      4     15     43
    42     42     15      4     23
    43     43     35     11     36
    44     44     13     12     38
    45     45     12     15     43
    46     46     21      3     22
    47     47      4     15     13
    48     48     12     13     15
    49     49      5      4     15
    50     50     16      1     17
    51     51      8      6     26
    52     52     13     15     43
    53     53     14     13     39
    54     54     10      9     11
    55     55     40     14     42
    56     56     24      5     25
    57     57     28      7     29
    58     58     20      3     22
    59     59     36     11     37
    60     60     10      9     31
    61     61     12      8     30
    62     62     41     14     42
    63     63     15     12     38
    64     64     27      7     29
    65     65     40     14     41
    66     66      9      8     30
    67     67     27      7     28
    68     68     14     13     15
    69     69     16      1     18
    70     70      4     15     12
    71     71     17      1     18
    72     72      4      2     19
    73     73     15     13     39
    74     74     32     10     34
    75     75     12     15     13
    76     76      8     12     15
    77     77     35     11     37
    78     78      6      5     24
    79     79      9      8     12
    80     80      5      4     23
    81     81      7      6     26
    82     82      3      2     19
    83     83      3      2      4
    84     84     32     10     33
    85     85      7      6      8
    86     86     13     12     15
    87     87     33     10     34
    88     88      6      5     25
    89     89     11      9     31
    90     90     20      3     21

Dihedrals

     1      1      5      4      2      1 
     2      2      6      5      4      2 
     3      3      7      6      5      4 
     4      4      9      8      6      5 
     5      5     10      9      8      6 
     6      6     13     12      8      6 
     7      7     14     13     12      8 
     8      8     16      1      2      3 
     9      9     20      3      2      1 
    10     10     27      7      6      5 
    11     11     32     10      9      8 
    12     12     35     11      9      8 
    13     13     40     14     13     12 
    14     14     28      7      6      8 
    15     15     22      3      2     19 
    16     16     39     13     12     38 
    17     17     27      7      6     26 
    18     18     32     10      9     31 
    19     19     12     15      4      2 
    20     20     32     10      9     11 
    21     21     30      8      6      7 
    22     22     13     12      8      9 
    23     23     37     11      9      8 
    24     24     19      2      1     16 
    25     25     43     15     12      8 
    26     26     38     12      8      6 
    27     27      8      6      5      4 
    28     28     18      1      2      4 
    29     29     14     13     15      4 
    30     30     20      3      2     19 
    31     31     12      8      9     11 
    32     32     43     15      4      5 
    33     33     24      5      6      8 
    34     34     25      5      6      7 
    35     35     30      8      9     10 
    36     36     28      7      6      5 
    37     37     42     14     13     12 
    38     38     43     15     13     12 
    39     39     43     15      4      2 
    40     40     39     13     12      8 
    41     41     42     14     13     39 
    42     42     13     15      4      5 
    43     43     35     11      9     31 
    44     44     38     12     13     14 
    45     45     14     13     15     12 
    46     46      8     12     15      4 
    47     47     29      7      6     26 
    48     48     41     14     13     15 
    49     49     33     10      9     31 
    50     50      9      8      6      7 
    51     51     28      7      6     26 
    52     52     23      4      2      1 
    53     53     24      5      4     15 
    54     54     39     13     15     12 
    55     55      5      4      2      3 
    56     56     36     11      9     10 
    57     57     41     14     13     12 
    58     58     23      4      5      6 
    59     59     43     15     13     14 
    60     60     30      8      6     26 
    61     61     26      6      8      9 
    62     62     36     11      9     31 
    63     63     34     10      9     11 
    64     64     30      8     12     15 
    65     65     12     15      4      5 
    66     66     38     12     15      4 
    67     67     38     12     15     13 
    68     68     30      8      6      5 
    69     69     31      9      8      6 
    70     70     37     11      9     31 
    71     71     24      5      4     23 
    72     72     40     14     13     15 
    73     73     35     11      9     10 
    74     74     17      1      2      4 
    75     75     18      1      2      3 
    76     76     24      5      6      7 
    77     77     39     13     15      4 
    78     78     26      6      5     24 
    79     79     24      5      4      2 
    80     80     12      8      6      5 
    81     81     15      4      2      3 
    82     82     34     10      9      8 
    83     83     11      9      8      6 
    84     84     19      2      4     15 
    85     85     38     12      8     30 
    86     86     21      3      2     19 
    87     87     23      4     15     12 
    88     88     12      8      6      7 
    89     89     29      7      6      8 
    90     90     33     10      9      8 
    91     91     30      8      9     11 
    92     92     23      4      2     19 
    93     93     33     10      9     11 
    94     94     25      5      4      2 
    95     95     12      8      9     10 
    96     96     19      2      1     18 
    97     97     34     10      9     31 
    98     98     36     11      9      8 
    99     99     31      9      8     12 
   100    100     15     12      8      9 
   101    101     23      4      2      3 
   102    102     26      6      8     12 
   103    103     27      7      6      8 
   104    104     43     15     12     13 
   105    105     20      3      2      4 
   106    106     15      4      5      6 
   107    107     43     15      4     23 
   108    108     16      1      2      4 
   109    109     17      1      2      3 
   110    110     39     13     12     15 
   111    111     21      3      2      4 
   112    112     25      5      4     15 
   113    113     30      8     12     13 
   114    114     23      4     15     13 
   115    115     43     15     13     39 
   116    116     13     15      4      2 
   117    117     15     12      8      6 
   118    118     22      3      2      1 
   119    119     29      7      6      5 
   120    120     26      6      5      4 
   121    121     22      3      2      4 
   122    122     19      2      1     17 
   123    123     42     14     13     15 
   124    124     21      3      2      1 
   125    125     38     12      8      9 
   126    126     19      2      4      5 
   127    127     40     14     13     39 
   128    128     31      9      8     30 
   129    129     38     12     13     15 
   130    130     37     11      9     10 
   131    131     25      5      6      8 
   132    132     15      4      2      1 
   133    133     26      6      5     25 
   134    134     41     14     13     39 
   135    135     43     15     12     38 
   136    136     25      5      4     23 

Impropers

     1      1      2      1      3      4 
     2      2      6      5      7      8 
     3      3      9     10     11      8 
     4      4      8      9     12      6 
     5      5      4      2      5     15 
     6      6      1     17     16      2 
     7      7      1     18     16      2 
     8      8      2      1     19      3 
     9      9      3      2     20     21 
    10     10      3      2     20     22 
    11     11      4      2      5     23 
    12     12      5      4      6     24 
    13     13      5     25      4      6 
    14     14      6     26      5      7 
    15     15      7     27     28      6 
    16     16      7     27     29      6 
    17     17      8      9      6     30 
    18     18      9     10     31      8 
    19     19     10     33      9     32 
    20     20     10      9     34     32 
    21     21     11      9     36     35 
    22     22     11      9     37     35 
    23     23     12     13     38      8 
    24     24     13     12     14     39 
    25     25     14     41     13     40 
    26     26     14     42     13     40 
    27     27     15     12     43      4 
    28     28     12     13     15      8 
    29     29     12     13     15      8 
    30     30     13     12     15     14 
    31     31     15     12     13      4 
    32     32     15     12     13      4 

