LAMMPS data file Created by LigParGen - (Written by Leela S. Dodda)

      58 atoms
      59 bonds
     118 angles
     182 dihedrals
      38 impropers
 
      58 atom types
      59 bond types
     118 angle types
     182 dihedral types
      38 improper types
 
   -4.057490    45.942510 xlo xhi
   -0.248850    49.751150 ylo yhi
  -10.005330    39.994670 zlo zhi

Masses

       1     12.011  
       2     12.011  
       3     12.011  
       4     12.011  
       5     12.011  
       6     12.011  
       7     12.011  
       8     12.011  
       9     12.011  
      10     12.011  
      11     12.011  
      12     15.999  
      13     12.011  
      14     15.999  
      15     12.011  
      16     12.011  
      17     12.011  
      18     12.011  
      19     12.011  
      20     12.011  
      21     12.011  
      22     12.011  
      23      1.008  
      24      1.008  
      25      1.008  
      26      1.008  
      27      1.008  
      28      1.008  
      29      1.008  
      30      1.008  
      31      1.008  
      32      1.008  
      33      1.008  
      34      1.008  
      35      1.008  
      36      1.008  
      37      1.008  
      38      1.008  
      39      1.008  
      40      1.008  
      41      1.008  
      42      1.008  
      43      1.008  
      44      1.008  
      45      1.008  
      46      1.008  
      47      1.008  
      48      1.008  
      49      1.008  
      50      1.008  
      51      1.008  
      52      1.008  
      53      1.008  
      54      1.008  
      55      1.008  
      56      1.008  
      57      1.008  
      58      1.008  

Pair Coeffs 

       1      0.066  3.5000000 
       2      0.066  3.5000000 
       3      0.066  3.5000000 
       4      0.066  3.5000000 
       5      0.066  3.5000000 
       6      0.066  3.5000000 
       7      0.066  3.5000000 
       8      0.066  3.5000000 
       9      0.066  3.5000000 
      10      0.066  3.5000000 
      11      0.066  3.5000000 
      12      0.140  2.9000000 
      13      0.070  3.5500000 
      14      0.210  2.9600000 
      15      0.066  3.5000000 
      16      0.066  3.5000000 
      17      0.066  3.5000000 
      18      0.066  3.5000000 
      19      0.066  3.5000000 
      20      0.066  3.5000000 
      21      0.066  3.5000000 
      22      0.066  3.5000000 
      23      0.030  2.5000000 
      24      0.030  2.5000000 
      25      0.030  2.5000000 
      26      0.030  2.5000000 
      27      0.030  2.5000000 
      28      0.030  2.5000000 
      29      0.030  2.5000000 
      30      0.030  2.5000000 
      31      0.030  2.5000000 
      32      0.030  2.5000000 
      33      0.030  2.5000000 
      34      0.030  2.5000000 
      35      0.030  2.5000000 
      36      0.030  2.5000000 
      37      0.030  2.5000000 
      38      0.030  2.5000000 
      39      0.030  2.5000000 
      40      0.030  2.5000000 
      41      0.030  2.5000000 
      42      0.030  2.5000000 
      43      0.030  2.5000000 
      44      0.030  2.5000000 
      45      0.030  2.5000000 
      46      0.030  2.5000000 
      47      0.030  2.5000000 
      48      0.030  2.5000000 
      49      0.030  2.5000000 
      50      0.030  2.5000000 
      51      0.030  2.5000000 
      52      0.030  2.5000000 
      53      0.030  2.5000000 
      54      0.030  2.5000000 
      55      0.030  2.5000000 
      56      0.030  2.5000000 
      57      0.030  2.5000000 
      58      0.030  2.5000000 

Bond Coeffs 

       1   268.0000     1.5290 
       2   268.0000     1.5290 
       3   268.0000     1.5290 
       4   268.0000     1.5290 
       5   268.0000     1.5290 
       6   268.0000     1.5290 
       7   268.0000     1.5290 
       8   268.0000     1.5290 
       9   268.0000     1.5290 
      10   268.0000     1.5290 
      11   320.0000     1.4100 
      12   214.0000     1.3270 
      13   570.0000     1.2290 
      14   317.0000     1.5220 
      15   268.0000     1.5290 
      16   268.0000     1.5290 
      17   268.0000     1.5290 
      18   268.0000     1.5290 
      19   268.0000     1.5290 
      20   268.0000     1.5290 
      21   268.0000     1.5290 
      22   340.0000     1.0900 
      23   340.0000     1.0900 
      24   340.0000     1.0900 
      25   340.0000     1.0900 
      26   340.0000     1.0900 
      27   340.0000     1.0900 
      28   340.0000     1.0900 
      29   340.0000     1.0900 
      30   340.0000     1.0900 
      31   340.0000     1.0900 
      32   340.0000     1.0900 
      33   340.0000     1.0900 
      34   340.0000     1.0900 
      35   340.0000     1.0900 
      36   340.0000     1.0900 
      37   340.0000     1.0900 
      38   340.0000     1.0900 
      39   340.0000     1.0900 
      40   340.0000     1.0900 
      41   340.0000     1.0900 
      42   340.0000     1.0900 
      43   340.0000     1.0900 
      44   340.0000     1.0900 
      45   340.0000     1.0900 
      46   340.0000     1.0900 
      47   340.0000     1.0900 
      48   340.0000     1.0900 
      49   340.0000     1.0900 
      50   340.0000     1.0900 
      51   340.0000     1.0900 
      52   340.0000     1.0900 
      53   340.0000     1.0900 
      54   340.0000     1.0900 
      55   340.0000     1.0900 
      56   340.0000     1.0900 
      57   340.0000     1.0900 
      58   268.0000     1.5290 
      59   268.0000     1.5290 

Angle Coeffs 

       1     58.350    112.700
       2     58.350    112.700
       3     58.350    112.700
       4     58.350    112.700
       5     58.350    112.700
       6     58.350    112.700
       7     58.350    112.700
       8     58.350    112.700
       9     58.350    112.700
      10     50.000    109.500
      11     83.000    116.900
      12     83.000    123.400
      13     81.000    111.400
      14     63.000    111.100
      15     63.000    111.100
      16     63.000    111.100
      17     58.350    112.700
      18     58.350    112.700
      19     58.350    112.700
      20     58.350    112.700
      21     37.500    110.700
      22     37.500    110.700
      23     37.500    110.700
      24     37.500    110.700
      25     37.500    110.700
      26     37.500    110.700
      27     37.500    110.700
      28     37.500    110.700
      29     37.500    110.700
      30     37.500    110.700
      31     37.500    110.700
      32     37.500    110.700
      33     37.500    110.700
      34     37.500    110.700
      35     37.500    110.700
      36     37.500    110.700
      37     37.500    110.700
      38     37.500    110.700
      39     37.500    110.700
      40     37.500    110.700
      41     37.500    110.700
      42     37.500    110.700
      43     37.500    110.700
      44     37.500    110.700
      45     37.500    110.700
      46     37.500    110.700
      47     37.500    110.700
      48     37.500    110.700
      49     37.500    110.700
      50     37.500    110.700
      51     37.500    110.700
      52     37.500    110.700
      53     37.500    110.700
      54     37.500    110.700
      55     37.500    110.700
      56     37.500    110.700
      57     33.000    107.800
      58     33.000    107.800
      59     58.350    112.700
      60     33.000    107.800
      61     37.500    110.700
      62     37.500    110.700
      63     37.500    110.700
      64     33.000    107.800
      65     58.350    112.700
      66     33.000    107.800
      67     33.000    107.800
      68     80.000    120.400
      69     33.000    107.800
      70     58.350    112.700
      71     37.500    110.700
      72     33.000    107.800
      73     37.500    110.700
      74     33.000    107.800
      75     58.350    112.700
      76     33.000    107.800
      77     33.000    107.800
      78     33.000    107.800
      79     37.500    110.700
      80     50.000    109.500
      81     37.500    110.700
      82     33.000    107.800
      83     37.500    110.700
      84     58.350    112.700
      85     58.350    112.700
      86     37.500    110.700
      87     58.350    112.700
      88     33.000    107.800
      89     58.350    112.700
      90     37.500    110.700
      91     33.000    107.800
      92     33.000    107.800
      93     33.000    107.800
      94     33.000    107.800
      95     33.000    107.800
      96     37.500    110.700
      97     33.000    107.800
      98     33.000    107.800
      99     37.500    110.700
     100     37.500    110.700
     101     37.500    110.700
     102     58.350    112.700
     103     33.000    107.800
     104     58.350    112.700
     105     33.000    107.800
     106     33.000    107.800
     107     33.000    107.800
     108     37.500    110.700
     109     37.500    110.700
     110     58.350    112.700
     111     58.350    112.700
     112     37.500    110.700
     113     37.500    110.700
     114     35.000    109.500
     115     37.500    110.700
     116     58.350    112.700
     117     33.000    107.800
     118     58.350    112.700

Dihedral Coeffs  

       1      1.300     -0.200      0.200      0.000 
       2      1.300     -0.200      0.200      0.000 
       3      1.300     -0.200      0.200      0.000 
       4      1.300     -0.200      0.200      0.000 
       5      1.300     -0.200      0.200      0.000 
       6     -1.220     -0.126      0.422      0.000 
       7      0.000      5.124      0.000      0.000 
       8      0.000      0.000     -0.553      0.000 
       9     -2.060     -0.313      0.315      0.000 
      10      1.300     -0.200      0.200      0.000 
      11      0.000      0.000      0.300      0.000 
      12      0.000      0.000      0.300      0.000 
      13      0.000      0.000     -0.100      0.000 
      14      0.000      0.000     -0.100      0.000 
      15      0.000      0.000      0.300      0.000 
      16      0.000      0.000      0.300      0.000 
      17      0.000      0.000      0.300      0.000 
      18      0.000      0.000      0.300      0.000 
      19      1.300     -0.200      0.200      0.000 
      20      0.000      0.000      0.300      0.000 
      21      0.000      0.000      0.300      0.000 
      22      0.000      0.000      0.300      0.000 
      23      0.000      0.000      0.300      0.000 
      24      0.000      0.000      0.300      0.000 
      25      1.300     -0.200      0.200      0.000 
      26      0.000      0.000      0.300      0.000 
      27      0.000      0.000      0.300      0.000 
      28      0.000      0.000      0.300      0.000 
      29      1.711     -0.500      0.663      0.000 
      30      0.000      0.000      0.300      0.000 
      31      0.000      0.000      0.300      0.000 
      32      0.000      0.000      0.300      0.000 
      33      0.000      0.000      0.300      0.000 
      34      1.300     -0.200      0.200      0.000 
      35      0.000      0.000      0.300      0.000 
      36      0.000      0.000      0.300      0.000 
      37      0.000      0.000      0.300      0.000 
      38      0.000      0.000      0.300      0.000 
      39      0.000      0.000      0.300      0.000 
      40      0.000      0.000      0.300      0.000 
      41      0.000      0.000      0.300      0.000 
      42      0.000      0.000      0.300      0.000 
      43      0.000      0.000      0.300      0.000 
      44      0.000      0.000      0.300      0.000 
      45      0.000      0.000      0.300      0.000 
      46      0.000      0.000      0.300      0.000 
      47      0.000      0.000      0.300      0.000 
      48      0.000      0.000      0.300      0.000 
      49      0.000      0.000      0.300      0.000 
      50      0.000      0.000      0.300      0.000 
      51      0.000      0.000      0.300      0.000 
      52      0.000      0.000      0.300      0.000 
      53      0.000      0.000      0.300      0.000 
      54      0.000      0.000      0.300      0.000 
      55      0.000      0.000      0.300      0.000 
      56      0.000      0.000      0.300      0.000 
      57      0.000      0.000      0.300      0.000 
      58      1.300     -0.200      0.200      0.000 
      59      0.000      0.000      0.300      0.000 
      60      0.000      0.000      0.300      0.000 
      61      0.000      0.000      0.300      0.000 
      62      0.000      0.000      0.300      0.000 
      63      0.000      0.000      0.300      0.000 
      64      0.000      0.000      0.300      0.000 
      65      0.000      0.000      0.300      0.000 
      66      0.000      0.000      0.300      0.000 
      67      0.000      0.000      0.300      0.000 
      68      1.300     -0.200      0.200      0.000 
      69      0.000      0.000      0.300      0.000 
      70      0.000      0.000      0.300      0.000 
      71      0.000      0.000      0.300      0.000 
      72      1.300     -0.200      0.200      0.000 
      73      0.000      0.000      0.300      0.000 
      74      0.000      0.000      0.300      0.000 
      75      1.300     -0.200      0.200      0.000 
      76      0.000      0.000      0.300      0.000 
      77      0.000      0.000      0.300      0.000 
      78      0.000      0.000     -0.553      0.000 
      79      0.000      0.000      0.000      0.000 
      80      0.000      0.000      0.300      0.000 
      81      1.300     -0.200      0.200      0.000 
      82      1.300     -0.200      0.200      0.000 
      83      0.000      0.000      0.300      0.000 
      84      1.711     -0.500      0.663      0.000 
      85      0.000      0.000      0.300      0.000 
      86      0.000      0.000      0.300      0.000 
      87      1.300     -0.200      0.200      0.000 
      88      0.000      0.000      0.300      0.000 
      89      0.000      0.000      0.300      0.000 
      90      0.000      0.000      0.300      0.000 
      91      0.000      0.000      0.300      0.000 
      92      0.000      0.000      0.300      0.000 
      93      1.300     -0.200      0.200      0.000 
      94      0.000      0.000      0.300      0.000 
      95      1.300     -0.200      0.200      0.000 
      96      0.000      0.000      0.000      0.000 
      97      1.300     -0.200      0.200      0.000 
      98      1.711     -0.500      0.663      0.000 
      99      0.000      0.000     -0.100      0.000 
     100      0.000      0.000      0.300      0.000 
     101      0.000      0.000      0.300      0.000 
     102      0.000      0.000      0.300      0.000 
     103      0.000      0.000      0.300      0.000 
     104      1.300     -0.200      0.200      0.000 
     105      0.000      0.000     -0.100      0.000 
     106      0.000      0.000      0.300      0.000 
     107      0.000      0.000      0.300      0.000 
     108      0.000      0.000      0.300      0.000 
     109      0.000      0.000      0.300      0.000 
     110      0.000      0.000      0.000      0.000 
     111      1.300     -0.200      0.200      0.000 
     112      0.000      0.000      0.300      0.000 
     113      0.000      0.000      0.300      0.000 
     114      1.300     -0.200      0.200      0.000 
     115      0.000      0.000      0.300      0.000 
     116      0.000      0.000      0.300      0.000 
     117      0.000      0.000      0.300      0.000 
     118      0.000      0.000      0.300      0.000 
     119      0.000      0.000      0.300      0.000 
     120      0.000      0.000      0.300      0.000 
     121      0.000      0.000      0.300      0.000 
     122      0.000      0.000      0.300      0.000 
     123      0.000      0.000      0.300      0.000 
     124      0.000      0.000      0.300      0.000 
     125      0.000      0.000      0.300      0.000 
     126      0.000      0.000      0.300      0.000 
     127      0.000      0.000      0.300      0.000 
     128      0.000      0.000      0.300      0.000 
     129      0.000      0.000      0.300      0.000 
     130      0.000      0.000      0.300      0.000 
     131     -1.220     -0.126      0.422      0.000 
     132      0.000      0.000      0.300      0.000 
     133      1.300     -0.200      0.200      0.000 
     134      0.000      0.000      0.300      0.000 
     135      0.000      0.000     -0.100      0.000 
     136      0.000      0.000      0.300      0.000 
     137      0.000      0.000      0.300      0.000 
     138      0.000      0.000      0.300      0.000 
     139      0.000      0.000      0.300      0.000 
     140      0.000      0.000      0.468      0.000 
     141      0.000      0.000      0.468      0.000 
     142      0.000      0.000      0.300      0.000 
     143      0.000      0.000     -0.553      0.000 
     144      0.000      0.000      0.300      0.000 
     145      0.000      0.000      0.300      0.000 
     146      1.300     -0.200      0.200      0.000 
     147      0.000      0.000      0.300      0.000 
     148      0.000      0.000      0.300      0.000 
     149      4.669      5.124      0.000      0.000 
     150      0.000      0.000      0.300      0.000 
     151      0.000      0.000      0.300      0.000 
     152      0.000      0.000      0.300      0.000 
     153      0.000      0.000      0.300      0.000 
     154      0.000      0.000      0.300      0.000 
     155      0.000      0.000      0.300      0.000 
     156      0.000      0.000     -0.100      0.000 
     157      0.000      0.000     -0.100      0.000 
     158      0.000      0.000      0.300      0.000 
     159      0.000      0.000      0.300      0.000 
     160      0.000      0.000      0.300      0.000 
     161      0.000      0.000      0.300      0.000 
     162      0.000      0.000      0.300      0.000 
     163      0.000      0.000      0.300      0.000 
     164      0.000      0.000      0.300      0.000 
     165      1.711     -0.500      0.663      0.000 
     166      1.300     -0.200      0.200      0.000 
     167      0.000      0.000      0.300      0.000 
     168      0.000      0.000      0.300      0.000 
     169      0.000      0.000      0.300      0.000 
     170      0.000      0.000      0.300      0.000 
     171      0.000      0.000      0.300      0.000 
     172      0.000      0.000      0.300      0.000 
     173      0.000      0.000      0.300      0.000 
     174      0.000      0.000      0.300      0.000 
     175      0.000      0.000      0.300      0.000 
     176      0.000      0.000      0.300      0.000 
     177      0.000      0.000      0.300      0.000 
     178      0.000      0.000      0.300      0.000 
     179      0.000      0.000     -0.100      0.000 
     180      0.000      0.000      0.300      0.000 
     181      0.000      0.000      0.198      0.000 
     182      1.300     -0.200      0.200      0.000 

Improper Coeffs 

       1      0.000      -1       2 
       2      0.000      -1       2 
       3      0.000      -1       2 
       4      0.000      -1       2 
       5     10.500      -1       2 
       6      0.000      -1       2 
       7      0.000      -1       2 
       8      0.000      -1       2 
       9      0.000      -1       2 
      10      0.000      -1       2 
      11      0.000      -1       2 
      12      0.000      -1       2 
      13      0.000      -1       2 
      14      0.000      -1       2 
      15      0.000      -1       2 
      16      0.000      -1       2 
      17      0.000      -1       2 
      18      0.000      -1       2 
      19      0.000      -1       2 
      20      0.000      -1       2 
      21      0.000      -1       2 
      22      0.000      -1       2 
      23      0.000      -1       2 
      24      0.000      -1       2 
      25      0.000      -1       2 
      26      0.000      -1       2 
      27      0.000      -1       2 
      28      0.000      -1       2 
      29      0.000      -1       2 
      30      0.000      -1       2 
      31      0.000      -1       2 
      32      0.000      -1       2 
      33      0.000      -1       2 
      34      0.000      -1       2 
      35      0.000      -1       2 
      36      0.000      -1       2 
      37      0.000      -1       2 
      38      0.000      -1       2 

Atoms 

     1      1      1 -0.23430000    1.000  1.00000  0.00000
     2      1      2 -0.11660000   -0.530  1.00000  0.00000
     3      1      3 -0.23700000   -1.038  1.00000  1.44576
     4      1      4 -0.15960000   -1.105  2.20907 -0.76419
     5      1      5 -0.11510000   -0.774  2.23387 -2.26534
     6      1      6 -0.17650000   -1.374  3.46150 -2.98666
     7      1      7 -0.12770000   -2.125  2.83347 -4.17887
     8      1      8 -0.18210000   -3.390  2.14228 -3.64281
     9      1      9 -0.17910000   -2.826  0.88425 -2.95874
    10      1     10 -0.14010000   -1.310  1.05241 -3.12306
    11      1     11 0.04670000   -1.253  1.62368 -4.55174
    12      1     12 -0.33920000    0.040  2.03750 -4.97664
    13      1     13 0.43340000    0.867  1.05457 -5.42222
    14      1     14 -0.45720000    0.538 -0.12299 -5.53308
    15      1     15 -0.02520000    2.293  1.58196 -5.71243
    16      1     16 -0.22810000    2.365  3.08813 -5.40831
    17      1     17 -0.23360000    3.200  0.84476 -4.71770
    18      1     18 -0.15430000    2.592  1.23795 -7.20992
    19      1     19 -0.03890000    3.933  1.59235 -7.93579
    20      1     20 -0.23130000    5.141  0.83585 -7.36284
    21      1     21 -0.23680000    3.792  1.15125 -9.41714
    22      1     22 -0.23080000    4.236  3.09706 -7.95040
    23      1     23 0.08080000    1.387  0.16405  0.59259
    24      1     24 0.08080000    1.395  1.92782  0.42837
    25      1     25 0.08080000    1.400  0.89055 -1.01232
    26      1     26 0.10060000   -0.874  0.07173 -0.47072
    27      1     27 0.08090000   -0.784  1.93484  1.95760
    28      1     28 0.08090000   -0.597  0.17366  2.01425
    29      1     29 0.08090000   -2.126  0.88091  1.47487
    30      1     30 0.08890000   -0.723  3.13304 -0.30911
    31      1     31 0.08890000   -2.192  2.24270 -0.61906
    32      1     32 0.10580000    0.316  2.28998 -2.37498
    33      1     33 0.09870000   -0.567  4.11509 -3.34070
    34      1     34 0.09870000   -2.035  4.05859 -2.35029
    35      1     35 0.12340000   -2.307  3.55245 -4.98082
    36      1     36 0.09840000   -4.057  1.85914 -4.46368
    37      1     37 0.09840000   -3.948  2.77400 -2.94490
    38      1     38 0.10080000   -3.167 -0.00974 -3.49454
    39      1     39 0.10080000   -3.153  0.78984 -1.92134
    40      1     40 0.13130000   -0.739  0.13333 -2.97225
    41      1     41 0.13600000   -1.734  0.99123 -5.30906
    42      1     42 0.09290000    1.923  3.32585 -4.43298
    43      1     43 0.09290000    1.826  3.67034 -6.16333
    44      1     44 0.09290000    3.393  3.44687 -5.34589
    45      1     45 0.09480000    2.761  0.83789 -3.71295
    46      1     46 0.09480000    4.181  1.31892 -4.62556
    47      1     47 0.09480000    3.347 -0.20359 -5.00995
    48      1     48 0.09950000    1.779  1.68842 -7.79932
    49      1     49 0.09950000    2.446  0.15309 -7.33086
    50      1     50 0.08270000    5.005 -0.24885 -7.43962
    51      1     51 0.08270000    5.330  1.08382 -6.31869
    52      1     52 0.08270000    6.056  1.09042 -7.91268
    53      1     53 0.08350000    3.699  0.06280 -9.50238
    54      1     54 0.08350000    4.669  1.45129 -10.00533
    55      1     55 0.08350000    2.910  1.60265 -9.88453
    56      1     56 0.08220000    4.567  3.45940 -6.97707
    57      1     57 0.08220000    3.362  3.67458 -8.26912
    58      1     58 0.08220000    5.055  3.32860 -8.64203

Bonds 

     1      1      2      1
     2      2      3      2
     3      3      4      2
     4      4      5      4
     5      5      6      5
     6      6      7      6
     7      7      8      7
     8      8      9      8
     9      9     10      5
    10     10     11      7
    11     11     12     11
    12     12     13     12
    13     13     14     13
    14     14     15     13
    15     15     16     15
    16     16     17     15
    17     17     18     15
    18     18     19     18
    19     19     20     19
    20     20     21     19
    21     21     22     19
    22     22     23      1
    23     23     24      1
    24     24     25      1
    25     25     26      2
    26     26     27      3
    27     27     28      3
    28     28     29      3
    29     29     30      4
    30     30     31      4
    31     31     32      5
    32     32     33      6
    33     33     34      6
    34     34     35      7
    35     35     36      8
    36     36     37      8
    37     37     38      9
    38     38     39      9
    39     39     40     10
    40     40     41     11
    41     41     42     16
    42     42     43     16
    43     43     44     16
    44     44     45     17
    45     45     46     17
    46     46     47     17
    47     47     48     18
    48     48     49     18
    49     49     50     20
    50     50     51     20
    51     51     52     20
    52     52     53     21
    53     53     54     21
    54     54     55     21
    55     55     56     22
    56     56     57     22
    57     57     58     22
    58     58     10      9
    59     59     11     10

Angles 

     1      1      1      2      3
     2      2      1      2      4
     3      3      2      4      5
     4      4      4      5      6
     5      5      5      6      7
     6      6      6      7      8
     7      7      7      8      9
     8      8      4      5     10
     9      9      6      7     11
    10     10      7     11     12
    11     11     11     12     13
    12     12     12     13     14
    13     13     12     13     15
    14     14     13     15     16
    15     15     13     15     17
    16     16     13     15     18
    17     17     15     18     19
    18     18     18     19     20
    19     19     18     19     21
    20     20     18     19     22
    21     21      2      1     23
    22     22      2      1     24
    23     23      2      1     25
    24     24      1      2     26
    25     25      2      3     27
    26     26      2      3     28
    27     27      2      3     29
    28     28      2      4     30
    29     29      2      4     31
    30     30      4      5     32
    31     31      5      6     33
    32     32      5      6     34
    33     33      6      7     35
    34     34      7      8     36
    35     35      7      8     37
    36     36      8      9     38
    37     37      8      9     39
    38     38      5     10     40
    39     39      7     11     41
    40     40     15     16     42
    41     41     15     16     43
    42     42     15     16     44
    43     43     15     17     45
    44     44     15     17     46
    45     45     15     17     47
    46     46     15     18     48
    47     47     15     18     49
    48     48     19     20     50
    49     49     19     20     51
    50     50     19     20     52
    51     51     19     21     53
    52     52     19     21     54
    53     53     19     21     55
    54     54     19     22     56
    55     55     19     22     57
    56     56     19     22     58
    57     57     45     17     47
    58     58     42     16     44
    59     59     20     19     21
    60     60     53     21     54
    61     61      3      2     26
    62     62     19     18     49
    63     63     10      9     39
    64     64     33      6     34
    65     65      5     10      9
    66     66     27      3     28
    67     67     53     21     55
    68     68     14     13     15
    69     69     50     20     52
    70     70     16     15     17
    71     71      6      5     32
    72     72     57     22     58
    73     73      4      2     26
    74     74     45     17     46
    75     75      6      5     10
    76     76     28      3     29
    77     77     23      1     24
    78     78     42     16     43
    79     79      9      8     37
    80     80     10     11     12
    81     81     19     18     48
    82     82     56     22     58
    83     83      9      8     36
    84     84      7     11     10
    85     85     20     19     22
    86     86      9     10     40
    87     87     16     15     18
    88     88     48     18     49
    89     89      8      7     11
    90     90     11     10     40
    91     91     56     22     57
    92     92     23      1     25
    93     93     30      4     31
    94     94     36      8     37
    95     95     50     20     51
    96     96      8      7     35
    97     97     51     20     52
    98     98     54     21     55
    99     99     10     11     41
   100    100      5      4     31
   101    101      7      6     34
   102    102      9     10     11
   103    103     46     17     47
   104    104      8      9     10
   105    105     27      3     29
   106    106     43     16     44
   107    107     24      1     25
   108    108      5      4     30
   109    109     10      9     38
   110    110      3      2      4
   111    111     21     19     22
   112    112     11      7     35
   113    113      7      6     33
   114    114     12     11     41
   115    115     10      5     32
   116    116      5     10     11
   117    117     38      9     39
   118    118     17     15     18

Dihedrals

     1      1      5      4      2      1 
     2      2      6      5      4      2 
     3      3      7      6      5      4 
     4      4      8      7      6      5 
     5      5      9      8      7      6 
     6      6     13     12     11      7 
     7      7     14     13     12     11 
     8      8     16     15     13     12 
     9      9     19     18     15     13 
    10     10     20     19     18     15 
    11     11     23      1      2      3 
    12     12     27      3      2      1 
    13     13     42     16     15     13 
    14     14     45     17     15     13 
    15     15     50     20     19     18 
    16     16     53     21     19     18 
    17     17     56     22     19     18 
    18     18     38      9     10      5 
    19     19     19     18     15     17 
    20     20     40     10     11      7 
    21     21     52     20     19     18 
    22     22     58     22     19     18 
    23     23     35      7      8      9 
    24     24     55     21     19     22 
    25     25      8      9     10      5 
    26     26     48     18     15     16 
    27     27     49     18     19     22 
    28     28     53     21     19     20 
    29     29     12     11     10      5 
    30     30     31      4      2      1 
    31     31     34      6      7     11 
    32     32     38      9      8      7 
    33     33     26      2      1     23 
    34     34     10      5      4      2 
    35     35     34      6      5      4 
    36     36     41     11      7      8 
    37     37     38      9     10     11 
    38     38     33      6      5     32 
    39     39     45     17     15     18 
    40     40     47     17     15     16 
    41     41     35      7      6      5 
    42     42     42     16     15     17 
    43     43     25      1      2      4 
    44     44     33      6      5     10 
    45     45     31      4      2      3 
    46     46     48     18     19     20 
    47     47     33      6      7     11 
    48     48     37      8      7     11 
    49     49     49     18     15     16 
    50     50     54     21     19     20 
    51     51     40     10      9     38 
    52     52     48     18     15     17 
    53     53     37      8      7     35 
    54     54     57     22     19     18 
    55     55     26      2      1     24 
    56     56     40     10      9      8 
    57     57     56     22     19     20 
    58     58     19     18     15     16 
    59     59     28      3      2      4 
    60     60     48     18     19     21 
    61     61     49     18     19     20 
    62     62     30      4      5      6 
    63     63     29      3      2      1 
    64     64     32      5      4     31 
    65     65     33      6      7      8 
    66     66     49     18     15     17 
    67     67     36      8      7     11 
    68     68      5      4      2      3 
    69     69     36      8      9     10 
    70     70     52     20     19     22 
    71     71     27      3      2     26 
    72     72      9     10     11      7 
    73     73     54     21     19     18 
    74     74     37      8      7      6 
    75     75     10      5      6      7 
    76     76     45     17     15     16 
    77     77     35      7      6     34 
    78     78     18     15     13     12 
    79     79     16     15     13     14 
    80     80     30      4      2      3 
    81     81     11     10      9      8 
    82     82      7     11     10      5 
    83     83     39      9      8      7 
    84     84     12     11      7      8 
    85     85     36      8      7     35 
    86     86     32      5      6      7 
    87     87     10     11      7      6 
    88     88     42     16     15     18 
    89     89     46     17     15     18 
    90     90     24      1      2      3 
    91     91     23      1      2      4 
    92     92     30      4      2      1 
    93     93      9     10      5      6 
    94     94     26      2      4      5 
    95     95     11      7      6      5 
    96     96     17     15     13     14 
    97     97     22     19     18     15 
    98     98     12     11     10      9 
    99     99     49     18     15     13 
   100    100     39      9      8     36 
   101    101     32      5      4      2 
   102    102     52     20     19     21 
   103    103     51     20     19     22 
   104    104     21     19     18     15 
   105    105     44     16     15     13 
   106    106     33      6      5      4 
   107    107     57     22     19     20 
   108    108     25      1      2      3 
   109    109     24      1      2      4 
   110    110     18     15     13     14 
   111    111     11     10      5      4 
   112    112     49     18     19     21 
   113    113     26      2      1     25 
   114    114     10      9      8      7 
   115    115     32      5      4     30 
   116    116     58     22     19     21 
   117    117     39      9     10      5 
   118    118     32      5     10     11 
   119    119     41     11     10     40 
   120    120     43     16     15     17 
   121    121     48     18     19     22 
   122    122     31      4      5      6 
   123    123     27      3      2      4 
   124    124     28      3      2     26 
   125    125     55     21     19     20 
   126    126     30      4      2     26 
   127    127     53     21     19     22 
   128    128     50     20     19     21 
   129    129     34      6      5     10 
   130    130     31      4      5     10 
   131    131     13     12     11     10 
   132    132     44     16     15     18 
   133    133      9     10      5      4 
   134    134     39      9     10     11 
   135    135     46     17     15     13 
   136    136     54     21     19     22 
   137    137     41     11     10      5 
   138    138     36      8      7      6 
   139    139     38      9      8     37 
   140    140     40     10     11     12 
   141    141     35      7     11     12 
   142    142     29      3      2      4 
   143    143     17     15     13     12 
   144    144     41     11      7      6 
   145    145     56     22     19     21 
   146    146     11      7      8      9 
   147    147     47     17     15     18 
   148    148     34      6      5     32 
   149    149     15     13     12     11 
   150    150     29      3      2     26 
   151    151     40     10      5      4 
   152    152     40     10      5     32 
   153    153     50     20     19     22 
   154    154     51     20     19     21 
   155    155     39      9      8     37 
   156    156     43     16     15     13 
   157    157     47     17     15     13 
   158    158     40     10      9     39 
   159    159     30      4      5     10 
   160    160     31      4      2     26 
   161    161     51     20     19     18 
   162    162     34      6      7      8 
   163    163     28      3      2      1 
   164    164     40     10      5      6 
   165    165     12     11      7      6 
   166    166     10     11      7      8 
   167    167     35      7     11     10 
   168    168     43     16     15     18 
   169    169     44     16     15     17 
   170    170     58     22     19     20 
   171    171     57     22     19     21 
   172    172     46     17     15     16 
   173    173     41     11      7     35 
   174    174     55     21     19     18 
   175    175     38      9      8     36 
   176    176     32      5     10      9 
   177    177     37      8      9     10 
   178    178     35      7      6     33 
   179    179     48     18     15     13 
   180    180     41     11     10      9 
   181    181     41     11     12     13 
   182    182     11     10      5      6 

Impropers

     1      1      2      1      3      4 
     2      2      5     10      4      6 
     3      3      7     11      6      8 
     4      4     11     10     12      7 
     5      5     13     12     14     15 
     6      6     15     17     13     16 
     7      7     15     18     13     16 
     8      8     19     18     20     21 
     9      9     19     18     20     22 
    10     10      1      2     23     24 
    11     11      1     25     23      2 
    12     12      2      1     26      3 
    13     13      3      2     28     27 
    14     14      3      2     29     27 
    15     15      4      2      5     30 
    16     16      4      2      5     31 
    17     17      5      4      6     32 
    18     18      6     33      5      7 
    19     19      6     34      5      7 
    20     20      7     35      6      8 
    21     21      8      9     36      7 
    22     22      8      9     37      7 
    23     23      9     10     38      8 
    24     24      9     10     39      8 
    25     25     10      9      5     40 
    26     26     11     41     10      7 
    27     27     16     42     43     15 
    28     28     16     42     44     15 
    29     29     17     45     46     15 
    30     30     17     45     15     47 
    31     31     18     19     15     48 
    32     32     18     49     19     15 
    33     33     20     50     51     19 
    34     34     20     50     19     52 
    35     35     21     53     19     54 
    36     36     21     53     19     55 
    37     37     22     57     19     56 
    38     38     22     58     19     56 

