LAMMPS data file Created by LigParGen - (Written by Leela S. Dodda)

      35 atoms
      34 bonds
      66 angles
      90 dihedrals
      22 impropers
 
      35 atom types
      34 bond types
      66 angle types
      90 dihedral types
      22 improper types
 
   -8.258340    41.741660 xlo xhi
    0.015350    50.015350 ylo yhi
   -1.025010    48.974990 zlo zhi

Masses

       1     12.011  
       2     12.011  
       3     12.011  
       4     12.011  
       5     12.011  
       6     12.011  
       7     12.011  
       8     12.011  
       9     12.011  
      10     12.011  
      11     12.011  
      12      1.008  
      13      1.008  
      14      1.008  
      15      1.008  
      16      1.008  
      17      1.008  
      18      1.008  
      19      1.008  
      20      1.008  
      21      1.008  
      22      1.008  
      23      1.008  
      24      1.008  
      25      1.008  
      26      1.008  
      27      1.008  
      28      1.008  
      29      1.008  
      30      1.008  
      31      1.008  
      32      1.008  
      33      1.008  
      34      1.008  
      35      1.008  

Pair Coeffs 

       1      0.066  3.5000000 
       2      0.066  3.5000000 
       3      0.066  3.5000000 
       4      0.066  3.5000000 
       5      0.066  3.5000000 
       6      0.066  3.5000000 
       7      0.066  3.5000000 
       8      0.066  3.5000000 
       9      0.066  3.5000000 
      10      0.066  3.5000000 
      11      0.066  3.5000000 
      12      0.030  2.5000000 
      13      0.030  2.5000000 
      14      0.030  2.5000000 
      15      0.030  2.5000000 
      16      0.030  2.5000000 
      17      0.030  2.5000000 
      18      0.030  2.5000000 
      19      0.030  2.5000000 
      20      0.030  2.5000000 
      21      0.030  2.5000000 
      22      0.030  2.5000000 
      23      0.030  2.5000000 
      24      0.030  2.5000000 
      25      0.030  2.5000000 
      26      0.030  2.5000000 
      27      0.030  2.5000000 
      28      0.030  2.5000000 
      29      0.030  2.5000000 
      30      0.030  2.5000000 
      31      0.030  2.5000000 
      32      0.030  2.5000000 
      33      0.030  2.5000000 
      34      0.030  2.5000000 
      35      0.030  2.5000000 

Bond Coeffs 

       1   268.0000     1.5290 
       2   268.0000     1.5290 
       3   268.0000     1.5290 
       4   268.0000     1.5290 
       5   268.0000     1.5290 
       6   268.0000     1.5290 
       7   268.0000     1.5290 
       8   268.0000     1.5290 
       9   268.0000     1.5290 
      10   268.0000     1.5290 
      11   340.0000     1.0900 
      12   340.0000     1.0900 
      13   340.0000     1.0900 
      14   340.0000     1.0900 
      15   340.0000     1.0900 
      16   340.0000     1.0900 
      17   340.0000     1.0900 
      18   340.0000     1.0900 
      19   340.0000     1.0900 
      20   340.0000     1.0900 
      21   340.0000     1.0900 
      22   340.0000     1.0900 
      23   340.0000     1.0900 
      24   340.0000     1.0900 
      25   340.0000     1.0900 
      26   340.0000     1.0900 
      27   340.0000     1.0900 
      28   340.0000     1.0900 
      29   340.0000     1.0900 
      30   340.0000     1.0900 
      31   340.0000     1.0900 
      32   340.0000     1.0900 
      33   340.0000     1.0900 
      34   340.0000     1.0900 

Angle Coeffs 

       1     58.350    112.700
       2     58.350    112.700
       3     58.350    112.700
       4     58.350    112.700
       5     58.350    112.700
       6     58.350    112.700
       7     58.350    112.700
       8     58.350    112.700
       9     58.350    112.700
      10     37.500    110.700
      11     37.500    110.700
      12     37.500    110.700
      13     37.500    110.700
      14     37.500    110.700
      15     37.500    110.700
      16     37.500    110.700
      17     37.500    110.700
      18     37.500    110.700
      19     37.500    110.700
      20     37.500    110.700
      21     37.500    110.700
      22     37.500    110.700
      23     37.500    110.700
      24     37.500    110.700
      25     37.500    110.700
      26     37.500    110.700
      27     37.500    110.700
      28     37.500    110.700
      29     37.500    110.700
      30     37.500    110.700
      31     37.500    110.700
      32     37.500    110.700
      33     37.500    110.700
      34     33.000    107.800
      35     33.000    107.800
      36     33.000    107.800
      37     37.500    110.700
      38     33.000    107.800
      39     33.000    107.800
      40     37.500    110.700
      41     37.500    110.700
      42     37.500    110.700
      43     33.000    107.800
      44     33.000    107.800
      45     37.500    110.700
      46     33.000    107.800
      47     37.500    110.700
      48     37.500    110.700
      49     33.000    107.800
      50     37.500    110.700
      51     33.000    107.800
      52     37.500    110.700
      53     33.000    107.800
      54     37.500    110.700
      55     37.500    110.700
      56     37.500    110.700
      57     37.500    110.700
      58     33.000    107.800
      59     37.500    110.700
      60     33.000    107.800
      61     37.500    110.700
      62     33.000    107.800
      63     33.000    107.800
      64     58.350    112.700
      65     37.500    110.700
      66     33.000    107.800

Dihedral Coeffs  

       1      1.300     -0.200      0.200      0.000 
       2      1.300     -0.200      0.200      0.000 
       3      1.300     -0.200      0.200      0.000 
       4      1.300     -0.200      0.200      0.000 
       5      1.300     -0.200      0.200      0.000 
       6      1.300     -0.200      0.200      0.000 
       7      1.300     -0.200      0.200      0.000 
       8      0.000      0.000      0.300      0.000 
       9      0.000      0.000      0.300      0.000 
      10      0.000      0.000      0.300      0.000 
      11      0.000      0.000      0.300      0.000 
      12      0.000      0.000      0.300      0.000 
      13      0.000      0.000      0.300      0.000 
      14      1.300     -0.200      0.200      0.000 
      15      0.000      0.000      0.300      0.000 
      16      0.000      0.000      0.300      0.000 
      17      0.000      0.000      0.300      0.000 
      18      0.000      0.000      0.300      0.000 
      19      0.000      0.000      0.300      0.000 
      20      0.000      0.000      0.300      0.000 
      21      0.000      0.000      0.300      0.000 
      22      0.000      0.000      0.300      0.000 
      23      0.000      0.000      0.300      0.000 
      24      0.000      0.000      0.300      0.000 
      25      0.000      0.000      0.300      0.000 
      26      0.000      0.000      0.300      0.000 
      27      0.000      0.000      0.300      0.000 
      28      0.000      0.000      0.300      0.000 
      29      0.000      0.000      0.300      0.000 
      30      0.000      0.000      0.300      0.000 
      31      0.000      0.000      0.300      0.000 
      32      1.300     -0.200      0.200      0.000 
      33      0.000      0.000      0.300      0.000 
      34      0.000      0.000      0.300      0.000 
      35      0.000      0.000      0.300      0.000 
      36      0.000      0.000      0.300      0.000 
      37      0.000      0.000      0.300      0.000 
      38      0.000      0.000      0.300      0.000 
      39      0.000      0.000      0.300      0.000 
      40      0.000      0.000      0.300      0.000 
      41      0.000      0.000      0.300      0.000 
      42      0.000      0.000      0.300      0.000 
      43      0.000      0.000      0.300      0.000 
      44      0.000      0.000      0.300      0.000 
      45      0.000      0.000      0.300      0.000 
      46      0.000      0.000      0.300      0.000 
      47      0.000      0.000      0.300      0.000 
      48      0.000      0.000      0.300      0.000 
      49      0.000      0.000      0.300      0.000 
      50      0.000      0.000      0.300      0.000 
      51      0.000      0.000      0.300      0.000 
      52      0.000      0.000      0.300      0.000 
      53      0.000      0.000      0.300      0.000 
      54      0.000      0.000      0.300      0.000 
      55      0.000      0.000      0.300      0.000 
      56      0.000      0.000      0.300      0.000 
      57      0.000      0.000      0.300      0.000 
      58      0.000      0.000      0.300      0.000 
      59      0.000      0.000      0.300      0.000 
      60      0.000      0.000      0.300      0.000 
      61      0.000      0.000      0.300      0.000 
      62      0.000      0.000      0.300      0.000 
      63      0.000      0.000      0.300      0.000 
      64      0.000      0.000      0.300      0.000 
      65      1.300     -0.200      0.200      0.000 
      66      0.000      0.000      0.300      0.000 
      67      0.000      0.000      0.300      0.000 
      68      0.000      0.000      0.300      0.000 
      69      0.000      0.000      0.300      0.000 
      70      0.000      0.000      0.300      0.000 
      71      0.000      0.000      0.300      0.000 
      72      0.000      0.000      0.300      0.000 
      73      0.000      0.000      0.300      0.000 
      74      0.000      0.000      0.300      0.000 
      75      0.000      0.000      0.300      0.000 
      76      0.000      0.000      0.300      0.000 
      77      0.000      0.000      0.300      0.000 
      78      0.000      0.000      0.300      0.000 
      79      0.000      0.000      0.300      0.000 
      80      0.000      0.000      0.300      0.000 
      81      0.000      0.000      0.300      0.000 
      82      0.000      0.000      0.300      0.000 
      83      0.000      0.000      0.300      0.000 
      84      0.000      0.000      0.300      0.000 
      85      0.000      0.000      0.300      0.000 
      86      0.000      0.000      0.300      0.000 
      87      0.000      0.000      0.300      0.000 
      88      0.000      0.000      0.300      0.000 
      89      0.000      0.000      0.300      0.000 
      90      0.000      0.000      0.300      0.000 

Improper Coeffs 

       1      0.000      -1       2 
       2      0.000      -1       2 
       3      0.000      -1       2 
       4      0.000      -1       2 
       5      0.000      -1       2 
       6      0.000      -1       2 
       7      0.000      -1       2 
       8      0.000      -1       2 
       9      0.000      -1       2 
      10      0.000      -1       2 
      11      0.000      -1       2 
      12      0.000      -1       2 
      13      0.000      -1       2 
      14      0.000      -1       2 
      15      0.000      -1       2 
      16      0.000      -1       2 
      17      0.000      -1       2 
      18      0.000      -1       2 
      19      0.000      -1       2 
      20      0.000      -1       2 
      21      0.000      -1       2 
      22      0.000      -1       2 

Atoms 

     1      1      1 -0.23930000    1.000  1.00000  0.00000
     2      1      2 -0.17840000   -0.522  1.00000  0.00000
     3      1      3 -0.17980000   -1.059  1.00000  1.42829
     4      1      4 -0.17770000   -2.590  0.99821  1.47932
     5      1      5 -0.18060000   -3.053  1.00014  2.93850
     6      1      6 -0.17270000   -4.578  1.00029  3.07970
     7      1      7 -0.10720000   -5.052  1.00044  4.55700
     8      1      8 -0.16980000   -4.488  2.17721  5.38436
     9      1      9 -0.23540000   -4.962  3.55587  4.94627
    10      1     10 -0.17340000   -6.594  0.91639  4.59110
    11      1     11 -0.23710000   -7.180  0.84507  5.99453
    12      1     12 0.08060000    1.382  0.99870 -1.02501
    13      1     13 0.08060000    1.391  0.11394  0.51070
    14      1     14 0.08060000    1.391  1.88829  0.50764
    15      1     15 0.08870000   -0.885  0.11712 -0.53787
    16      1     16 0.08870000   -0.883  1.88499 -0.53632
    17      1     17 0.08860000   -0.678  1.88360  1.95547
    18      1     18 0.08860000   -0.677  0.11996  1.96030
    19      1     19 0.08960000   -2.981  0.11716  0.95772
    20      1     20 0.08960000   -2.979  1.88585  0.96717
    21      1     21 0.08970000   -2.633  1.88625  3.42071
    22      1     22 0.08970000   -2.645  0.11980  3.45074
    23      1     23 0.08810000   -4.974  0.10455  2.58130
    24      1     24 0.08810000   -4.996  1.86151  2.54388
    25      1     25 0.09210000   -4.666  0.07997  5.01626
    26      1     26 0.08590000   -3.394  2.15476  5.35991
    27      1     27 0.08590000   -4.744  2.04018  6.44221
    28      1     28 0.08010000   -4.895  3.69350  3.86405
    29      1     29 0.08010000   -4.342  4.32797  5.41535
    30      1     30 0.08010000   -5.997  3.73116  5.25411
    31      1     31 0.08700000   -6.908  0.01535  4.04954
    32      1     32 0.08700000   -7.035  1.76868  4.06073
    33      1     33 0.08060000   -6.727  0.03213  6.57029
    34      1     34 0.08060000   -8.258  0.66199  5.94027
    35      1     35 0.08060000   -7.033  1.78167  6.54065

Bonds 

     1      1      2      1
     2      2      3      2
     3      3      4      3
     4      4      5      4
     5      5      6      5
     6      6      7      6
     7      7      8      7
     8      8      9      8
     9      9     10      7
    10     10     11     10
    11     11     12      1
    12     12     13      1
    13     13     14      1
    14     14     15      2
    15     15     16      2
    16     16     17      3
    17     17     18      3
    18     18     19      4
    19     19     20      4
    20     20     21      5
    21     21     22      5
    22     22     23      6
    23     23     24      6
    24     24     25      7
    25     25     26      8
    26     26     27      8
    27     27     28      9
    28     28     29      9
    29     29     30      9
    30     30     31     10
    31     31     32     10
    32     32     33     11
    33     33     34     11
    34     34     35     11

Angles 

     1      1      1      2      3
     2      2      2      3      4
     3      3      3      4      5
     4      4      4      5      6
     5      5      5      6      7
     6      6      6      7      8
     7      7      7      8      9
     8      8      6      7     10
     9      9      7     10     11
    10     10      2      1     12
    11     11      2      1     13
    12     12      2      1     14
    13     13      1      2     15
    14     14      1      2     16
    15     15      2      3     17
    16     16      2      3     18
    17     17      3      4     19
    18     18      3      4     20
    19     19      4      5     21
    20     20      4      5     22
    21     21      5      6     23
    22     22      5      6     24
    23     23      6      7     25
    24     24      7      8     26
    25     25      7      8     27
    26     26      8      9     28
    27     27      8      9     29
    28     28      8      9     30
    29     29      7     10     31
    30     30      7     10     32
    31     31     10     11     33
    32     32     10     11     34
    33     33     10     11     35
    34     34     29      9     30
    35     35     19      4     20
    36     36     21      5     22
    37     37      3      2     15
    38     38     13      1     14
    39     39     23      6     24
    40     40      6      5     22
    41     41      7      6     23
    42     42     11     10     32
    43     43     33     11     34
    44     44     12      1     14
    45     45      3      2     16
    46     46     28      9     30
    47     47      4      3     18
    48     48      7      6     24
    49     49     33     11     35
    50     50      8      7     25
    51     51     12      1     13
    52     52      5      4     19
    53     53     34     11     35
    54     54     11     10     31
    55     55     10      7     25
    56     56      6      5     21
    57     57      5      4     20
    58     58     31     10     32
    59     59      9      8     26
    60     60     15      2     16
    61     61      4      3     17
    62     62     26      8     27
    63     63     17      3     18
    64     64      8      7     10
    65     65      9      8     27
    66     66     28      9     29

Dihedrals

     1      1      4      3      2      1 
     2      2      5      4      3      2 
     3      3      6      5      4      3 
     4      4      7      6      5      4 
     5      5      8      7      6      5 
     6      6      9      8      7      6 
     7      7     11     10      7      6 
     8      8     12      1      2      3 
     9      9     28      9      8      7 
    10     10     33     11     10      7 
    11     11     23      6      7      8 
    12     12     21      5      4      3 
    13     13     23      6      5      4 
    14     14     10      7      8      9 
    15     15     17      3      2     16 
    16     16     18      3      2     15 
    17     17     24      6      5     22 
    18     18     27      8      7     10 
    19     19     25      7      6     23 
    20     20     31     10      7      8 
    21     21     19      4      3      2 
    22     22     20      4      3     18 
    23     23     13      1      2      3 
    24     24     35     11     10     32 
    25     25     23      6      7     10 
    26     26     29      9      8      7 
    27     27     31     10      7     25 
    28     28     24      6      7     10 
    29     29     26      8      7     25 
    30     30     25      7     10     11 
    31     31     16      2      3      4 
    32     32     11     10      7      8 
    33     33     26      8      7     10 
    34     34     35     11     10     31 
    35     35     15      2      1     12 
    36     36     28      9      8     27 
    37     37     29      9      8     26 
    38     38     32     10      7      6 
    39     39     23      6      5     21 
    40     40     22      5      4     19 
    41     41     34     11     10      7 
    42     42     17      3      2     15 
    43     43     27      8      7      6 
    44     44     30      9      8     27 
    45     45     19      4      5      6 
    46     46     22      5      4      3 
    47     47     30      9      8      7 
    48     48     16      2      1     14 
    49     49     21      5      6      7 
    50     50     24      6      7      8 
    51     51     15      2      3      4 
    52     52     18      3      2      1 
    53     53     32     10      7      8 
    54     54     25      7      6      5 
    55     55     20      4      5      6 
    56     56     18      3      4      5 
    57     57     25      7      6     24 
    58     58     34     11     10     32 
    59     59     24      6      5      4 
    60     60     20      4      3     17 
    61     61     19      4      3     18 
    62     62     19      4      3     17 
    63     63     22      5      6      7 
    64     64     17      3      4      5 
    65     65     10      7      6      5 
    66     66     33     11     10     31 
    67     67     33     11     10     32 
    68     68     28      9      8     26 
    69     69     29      9      8     27 
    70     70     30      9      8     26 
    71     71     35     11     10      7 
    72     72     15      2      1     13 
    73     73     16      2      1     12 
    74     74     18      3      2     16 
    75     75     21      5      4     19 
    76     76     31     10      7      6 
    77     77     32     10      7     25 
    78     78     26      8      7      6 
    79     79     22      5      4     20 
    80     80     24      6      5     21 
    81     81     16      2      1     13 
    82     82     15      2      1     14 
    83     83     20      4      3      2 
    84     84     27      8      7     25 
    85     85     17      3      2      1 
    86     86     34     11     10     31 
    87     87     23      6      5     22 
    88     88     14      1      2      3 
    89     89     21      5      4     20 
    90     90     25      7      8      9 

Impropers

     1      1      7     10      6      8 
     2      2      1      2     12     13 
     3      3      1      2     12     14 
     4      4      2      1      3     15 
     5      5      2      1      3     16 
     6      6      3     17      2      4 
     7      7      3     18      4      2 
     8      8      4     19      5      3 
     9      9      4      3     20      5 
    10     10      5      4     21      6 
    11     11      5      4     22      6 
    12     12      6      7      5     23 
    13     13      6      5      7     24 
    14     14      7     25      6      8 
    15     15      8      9     26      7 
    16     16      8      9     27      7 
    17     17      9     28     29      8 
    18     18      9     28     30      8 
    19     19     10     11      7     31 
    20     20     10     11      7     32 
    21     21     11     33     34     10 
    22     22     11     33     10     35 

