LAMMPS data file Created by LigParGen - (Written by Leela S. Dodda)

      38 atoms
      39 bonds
      75 angles
     112 dihedrals
      23 impropers
 
      38 atom types
      39 bond types
      75 angle types
     112 dihedral types
      23 improper types
 
   -5.464490    44.535510 xlo xhi
   -2.084320    47.915680 ylo yhi
   -1.717510    48.282490 zlo zhi

Masses

       1     12.011  
       2     12.011  
       3     12.011  
       4     15.999  
       5     12.011  
       6     12.011  
       7     12.011  
       8     15.999  
       9     12.011  
      10     12.011  
      11     15.999  
      12     12.011  
      13     15.999  
      14     15.999  
      15     12.011  
      16     12.011  
      17     12.011  
      18     12.011  
      19      1.008  
      20      1.008  
      21      1.008  
      22      1.008  
      23      1.008  
      24      1.008  
      25      1.008  
      26      1.008  
      27      1.008  
      28      1.008  
      29      1.008  
      30      1.008  
      31      1.008  
      32      1.008  
      33      1.008  
      34      1.008  
      35      1.008  
      36      1.008  
      37      1.008  
      38      1.008  

Pair Coeffs 

       1      0.066  3.5000000 
       2      0.066  3.5000000 
       3      0.066  3.5000000 
       4      0.140  2.9000000 
       5      0.066  3.5000000 
       6      0.066  3.5000000 
       7      0.070  3.5500000 
       8      0.210  2.9600000 
       9      0.066  3.5000000 
      10      0.066  3.5000000 
      11      0.140  2.9000000 
      12      0.070  3.5500000 
      13      0.210  2.9600000 
      14      0.140  2.9000000 
      15      0.066  3.5000000 
      16      0.066  3.5000000 
      17      0.066  3.5000000 
      18      0.066  3.5000000 
      19      0.030  2.5000000 
      20      0.030  2.5000000 
      21      0.030  2.5000000 
      22      0.030  2.5000000 
      23      0.030  2.5000000 
      24      0.030  2.5000000 
      25      0.030  2.5000000 
      26      0.030  2.5000000 
      27      0.030  2.5000000 
      28      0.030  2.5000000 
      29      0.030  2.5000000 
      30      0.030  2.5000000 
      31      0.030  2.5000000 
      32      0.030  2.5000000 
      33      0.030  2.5000000 
      34      0.030  2.5000000 
      35      0.030  2.5000000 
      36      0.030  2.5000000 
      37      0.030  2.5000000 
      38      0.030  2.5000000 

Bond Coeffs 

       1   268.0000     1.5290 
       2   268.0000     1.5290 
       3   320.0000     1.4100 
       4   320.0000     1.4100 
       5   268.0000     1.5290 
       6   317.0000     1.5220 
       7   570.0000     1.2290 
       8   268.0000     1.5290 
       9   268.0000     1.5290 
      10   320.0000     1.4100 
      11   214.0000     1.3270 
      12   570.0000     1.2290 
      13   214.0000     1.3270 
      14   268.0000     1.5290 
      15   268.0000     1.5290 
      16   268.0000     1.5290 
      17   268.0000     1.5290 
      18   340.0000     1.0900 
      19   340.0000     1.0900 
      20   340.0000     1.0900 
      21   340.0000     1.0900 
      22   340.0000     1.0900 
      23   340.0000     1.0900 
      24   340.0000     1.0900 
      25   340.0000     1.0900 
      26   340.0000     1.0900 
      27   340.0000     1.0900 
      28   340.0000     1.0900 
      29   340.0000     1.0900 
      30   340.0000     1.0900 
      31   340.0000     1.0900 
      32   340.0000     1.0900 
      33   340.0000     1.0900 
      34   340.0000     1.0900 
      35   340.0000     1.0900 
      36   340.0000     1.0900 
      37   340.0000     1.0900 
      38   320.0000     1.4100 
      39   268.0000     1.5290 

Angle Coeffs 

       1     58.350    112.700
       2     50.000    109.500
       3     60.000    109.500
       4     58.350    112.700
       5     63.000    111.100
       6     80.000    120.400
       7     58.350    112.700
       8     58.350    112.700
       9     50.000    109.500
      10     83.000    116.900
      11     83.000    123.400
      12     69.900    118.180
      13     58.350    112.700
      14     58.350    112.700
      15     58.350    112.700
      16     58.350    112.700
      17     37.500    110.700
      18     37.500    110.700
      19     37.500    110.700
      20     37.500    110.700
      21     37.500    110.700
      22     35.000    109.500
      23     35.000    109.500
      24     35.000    109.500
      25     37.500    110.700
      26     35.000    115.000
      27     37.500    110.700
      28     37.500    110.700
      29     37.500    110.700
      30     37.500    110.700
      31     37.500    110.700
      32     37.500    110.700
      33     37.500    110.700
      34     37.500    110.700
      35     37.500    110.700
      36     37.500    110.700
      37     33.000    107.800
      38     58.350    112.700
      39     33.000    107.800
      40     83.000    123.400
      41     33.000    107.800
      42     33.000    107.800
      43     63.000    111.100
      44     33.000    107.800
      45     33.000    107.800
      46     50.000    109.500
      47     33.000    107.800
      48     83.000    116.900
      49     37.500    110.700
      50     37.500    110.700
      51     33.000    107.800
      52     33.000    107.800
      53     35.000    123.000
      54     33.000    107.800
      55     58.350    112.700
      56     35.000    109.500
      57     37.500    110.700
      58     58.350    112.700
      59     33.000    107.800
      60     58.350    112.700
      61     50.000    109.500
      62     58.350    112.700
      63     50.000    109.500
      64     35.000    109.500
      65     50.000    109.500
      66     33.000    107.800
      67     58.350    112.700
      68     50.000    109.500
      69     58.350    112.700
      70     50.000    109.500
      71     37.500    110.700
      72     33.000    107.800
      73     33.000    107.800
      74     33.000    107.800
      75     33.000    107.800

Dihedral Coeffs  

       1      1.711     -0.500      0.663      0.000 
       2      0.650     -0.250      0.670      0.000 
       3     -2.060     -0.313      0.315      0.000 
       4      0.000      0.000      0.000      0.000 
       5      1.300     -0.200      0.200      0.000 
       6     -1.220     -0.126      0.422      0.000 
       7      0.000      5.124      0.000      0.000 
       8      0.000      0.000      0.300      0.000 
       9      0.000      0.000      0.760      0.000 
      10      0.000      0.000      0.300      0.000 
      11      0.000      0.000      0.300      0.000 
      12      0.000      0.000      0.300      0.000 
      13      0.000      0.000      0.300      0.000 
      14      1.711     -0.500      0.663      0.000 
      15      0.000      0.000      0.300      0.000 
      16      1.711     -0.500      0.663      0.000 
      17      0.000      0.000      0.760      0.000 
      18      0.000      0.000      0.300      0.000 
      19      0.000      0.000      0.300      0.000 
      20      0.000      0.000      0.300      0.000 
      21      1.300     -0.200      0.200      0.000 
      22      0.000      0.000      0.300      0.000 
      23     -2.060     -0.313      0.315      0.000 
      24      0.000      0.000      0.468      0.000 
      25      0.000      0.000      0.300      0.000 
      26      1.300     -0.200      0.200      0.000 
      27      0.000      0.000      0.300      0.000 
      28      0.000      0.000      0.300      0.000 
      29      4.669      5.124      0.000      0.000 
      30      0.000      0.000      0.300      0.000 
      31      0.000      0.000      0.468      0.000 
      32      1.300     -0.200      0.200      0.000 
      33      0.000      0.000      0.300      0.000 
      34      0.000      0.000      0.360      0.000 
      35      0.000      0.000      0.300      0.000 
      36      1.300     -0.200      0.200      0.000 
      37     -2.060     -0.313      0.315      0.000 
      38      1.711     -0.500      0.663      0.000 
      39      0.000      0.000      0.000      0.000 
      40      0.000      0.000      0.300      0.000 
      41      0.000      0.000      0.300      0.000 
      42      1.711     -0.500      0.663      0.000 
      43      1.300     -0.200      0.200      0.000 
      44      0.000      0.000      0.300      0.000 
      45      1.300     -0.200      0.200      0.000 
      46      0.000      0.000      0.300      0.000 
      47      0.000      0.000      0.300      0.000 
      48      0.000      0.000      0.300      0.000 
      49      1.711     -0.500      0.663      0.000 
      50      0.000      0.000      0.300      0.000 
      51      0.000      0.000      0.300      0.000 
      52      0.000      0.000      0.300      0.000 
      53      1.300     -0.200      0.200      0.000 
      54      0.000      0.000      0.300      0.000 
      55      1.300     -0.200      0.200      0.000 
      56      1.300     -0.200      0.200      0.000 
      57     -6.180      0.000      0.000      0.000 
      58      0.000      0.000      0.300      0.000 
      59      0.000      0.000      0.760      0.000 
      60      0.000      0.000      0.300      0.000 
      61      0.000      0.000      0.300      0.000 
      62     -1.220     -0.126      0.422      0.000 
      63      1.300     -0.200      0.200      0.000 
      64      1.711     -0.500      0.663      0.000 
      65      1.300     -0.200      0.200      0.000 
      66      0.000      0.000      0.300      0.000 
      67      1.711     -0.500      0.663      0.000 
      68      0.000      0.000      0.300      0.000 
      69      0.000      0.000      0.468      0.000 
      70      4.669      5.124      0.000      0.000 
      71      0.000      0.000      0.000      0.000 
      72     -2.060     -0.313      0.315      0.000 
      73      1.711     -0.500      0.663      0.000 
      74      0.000      0.000      0.468      0.000 
      75      0.000      0.000      0.000      0.000 
      76      0.000      0.000      0.300      0.000 
      77      0.000      0.000      0.300      0.000 
      78      0.000      0.000      0.300      0.000 
      79      0.000      0.000      0.300      0.000 
      80      1.711     -0.500      0.663      0.000 
      81      0.000      0.000      0.468      0.000 
      82     -1.220     -0.126      0.422      0.000 
      83      1.300     -0.200      0.200      0.000 
      84      0.000      0.000      0.300      0.000 
      85      0.000      0.000      0.300      0.000 
      86      0.000      0.000      0.198      0.000 
      87      0.650     -0.250      0.670      0.000 
      88      0.000      0.000      0.300      0.000 
      89     -6.180      0.000      0.000      0.000 
      90      1.300     -0.200      0.200      0.000 
      91      0.000      0.000      0.468      0.000 
      92     -1.220     -0.126      0.422      0.000 
      93      1.711     -0.500      0.663      0.000 
      94      0.000      0.000      0.300      0.000 
      95      0.000      0.000      0.300      0.000 
      96     -1.220     -0.126      0.422      0.000 
      97      0.000      0.000      0.300      0.000 
      98     -0.550      0.000      0.000      0.000 
      99      1.300     -0.200      0.200      0.000 
     100      0.000      0.000      0.300      0.000 
     101      0.000      0.000      0.300      0.000 
     102      0.000      0.000      0.468      0.000 
     103      0.000      0.000      0.000      0.000 
     104      1.300     -0.200      0.200      0.000 
     105      0.000      0.000      0.300      0.000 
     106      1.300     -0.200      0.200      0.000 
     107      0.000      0.000      0.300      0.000 
     108      1.711     -0.500      0.663      0.000 
     109      0.000      0.000      0.300      0.000 
     110      0.650     -0.250      0.670      0.000 
     111      0.000      0.000      0.468      0.000 
     112      0.000      5.124      0.000      0.000 

Improper Coeffs 

       1      0.000      -1       2 
       2      0.000      -1       2 
       3      0.000      -1       2 
       4     10.500      -1       2 
       5      0.000      -1       2 
       6      0.000      -1       2 
       7      0.000      -1       2 
       8      0.000      -1       2 
       9      0.000      -1       2 
      10      0.000      -1       2 
      11      0.000      -1       2 
      12      0.000      -1       2 
      13      0.000      -1       2 
      14      0.000      -1       2 
      15      0.000      -1       2 
      16     10.500      -1       2 
      17      0.000      -1       2 
      18      0.000      -1       2 
      19      0.000      -1       2 
      20      0.000      -1       2 
      21      0.000      -1       2 
      22      0.000      -1       2 
      23      0.000      -1       2 

Atoms 

     1      1      1 -0.23180000    1.000  1.00000  0.00000
     2      1      2 -0.19340000   -0.523  1.00000  0.00000
     3      1      3 0.16930000   -1.258  1.00000  1.37929
     4      1      4 -0.38010000   -0.677  2.00879  2.22607
     5      1      5 -0.05680000   -0.866  3.37296  1.86805
     6      1      6 -0.24490000   -2.807  1.16433  1.20779
     7      1      7 0.32910000   -3.236  2.00032  0.01926
     8      1      8 -0.43800000   -3.546  3.18590  0.11689
     9      1      9 0.10330000   -3.395 -0.26775  1.13382
    10      1     10 -0.24520000   -4.679 -0.39343  1.95200
    11      1     11 -0.33480000   -3.695 -0.69174 -0.19243
    12      1     12 0.56530000   -2.774 -1.60603 -0.59886
    13      1     13 -0.37490000   -2.732 -2.08432 -1.71751
    14      1     14 -0.32230000   -1.868 -1.84713  0.38229
    15      1     15 0.03060000   -2.301 -1.21820  1.58129
    16      1     16 -0.03390000   -1.199 -0.34752  2.21967
    17      1     17 -0.22450000    0.166 -1.04624  2.24309
    18      1     18 -0.22590000   -1.575 -0.11593  3.71453
    19      1     19 0.09020000    1.359  1.26540 -1.00260
    20      1     20 0.09020000    1.418  0.01549  0.21385
    21      1     21 0.09020000    1.417  1.72627  0.70266
    22      1     22 0.09810000   -0.871  0.18952 -0.64094
    23      1     23 0.09810000   -0.792  1.91976 -0.53283
    24      1     24 0.09210000   -0.186  3.97048  2.48417
    25      1     25 0.09210000   -1.884  3.69288  2.09926
    26      1     26 0.09210000   -0.624  3.56668  0.82374
    27      1     27 0.16150000   -3.199  1.67889  2.09531
    28      1     28 0.13880000   -3.188  1.52242 -0.97440
    29      1     29 0.11160000   -5.464  0.24654  1.53450
    30      1     30 0.11160000   -4.533 -0.11823  3.00004
    31      1     31 0.11160000   -5.064 -1.41909  1.91753
    32      1     32 0.15200000   -2.651 -2.00633  2.25764
    33      1     33 0.09910000    0.426 -1.49549  1.28199
    34      1     34 0.09910000    0.178 -1.86335  2.97442
    35      1     35 0.09910000    0.958 -0.34592  2.53105
    36      1     36 0.09370000   -2.503  0.44499  3.84227
    37      1     37 0.09370000   -0.787  0.42849  4.24643
    38      1     38 0.09370000   -1.708 -1.07618  4.22956

Bonds 

     1      1      2      1
     2      2      3      2
     3      3      4      3
     4      4      5      4
     5      5      6      3
     6      6      7      6
     7      7      8      7
     8      8      9      6
     9      9     10      9
    10     10     11      9
    11     11     12     11
    12     12     13     12
    13     13     14     12
    14     14     15      9
    15     15     16      3
    16     16     17     16
    17     17     18     16
    18     18     19      1
    19     19     20      1
    20     20     21      1
    21     21     22      2
    22     22     23      2
    23     23     24      5
    24     24     25      5
    25     25     26      5
    26     26     27      6
    27     27     28      7
    28     28     29     10
    29     29     30     10
    30     30     31     10
    31     31     32     15
    32     32     33     17
    33     33     34     17
    34     34     35     17
    35     35     36     18
    36     36     37     18
    37     37     38     18
    38     38     15     14
    39     39     16     15

Angles 

     1      1      1      2      3
     2      2      2      3      4
     3      3      3      4      5
     4      4      2      3      6
     5      5      3      6      7
     6      6      6      7      8
     7      7      3      6      9
     8      8      6      9     10
     9      9      6      9     11
    10     10      9     11     12
    11     11     11     12     13
    12     12     11     12     14
    13     13      6      9     15
    14     14      2      3     16
    15     15      3     16     17
    16     16      3     16     18
    17     17      2      1     19
    18     18      2      1     20
    19     19      2      1     21
    20     20      1      2     22
    21     21      1      2     23
    22     22      4      5     24
    23     23      4      5     25
    24     24      4      5     26
    25     25      3      6     27
    26     26      6      7     28
    27     27      9     10     29
    28     28      9     10     30
    29     29      9     10     31
    30     30      9     15     32
    31     31     16     17     33
    32     32     16     17     34
    33     33     16     17     35
    34     34     16     18     36
    35     35     16     18     37
    36     36     16     18     38
    37     37     19      1     20
    38     38     15     16     18
    39     39     30     10     31
    40     40     13     12     14
    41     41     20      1     21
    42     42     24      5     26
    43     43      7      6      9
    44     44     34     17     35
    45     45     29     10     30
    46     46      9     15     14
    47     47     36     18     38
    48     48     12     14     15
    49     49      3      2     22
    50     50      3      2     23
    51     51     19      1     21
    52     52     24      5     25
    53     53      8      7     28
    54     54     22      2     23
    55     55     10      9     15
    56     56      7      6     27
    57     57      9      6     27
    58     58      3     16     15
    59     59     25      5     26
    60     60      6      3     16
    61     61      4      3      6
    62     62     17     16     18
    63     63     10      9     11
    64     64     14     15     32
    65     65     14     15     16
    66     66     37     18     38
    67     67     15     16     17
    68     68      4      3     16
    69     69      9     15     16
    70     70     11      9     15
    71     71     16     15     32
    72     72     33     17     34
    73     73     33     17     35
    74     74     29     10     31
    75     75     36     18     37

Dihedrals

     1      1      4      3      2      1 
     2      2      5      4      3      2 
     3      3      7      6      3      2 
     4      4      8      7      6      3 
     5      5     10      9      6      3 
     6      6     12     11      9      6 
     7      7     13     12     11      9 
     8      8     19      1      2      3 
     9      9     24      5      4      3 
    10     10     29     10      9      6 
    11     11     33     17     16      3 
    12     12     36     18     16      3 
    13     13     37     18     16     15 
    14     14     16     15      9     11 
    15     15     31     10      9     15 
    16     16     14     15      9     10 
    17     17     25      5      4      3 
    18     18     23      2      1     21 
    19     19     23      2      3     16 
    20     20     36     18     16     15 
    21     21     16      3      2      1 
    22     22     27      6      3     16 
    23     23     10      9      6      7 
    24     24     23      2      3      4 
    25     25     32     15      9     10 
    26     26     16     15      9      6 
    27     27     33     17     16     15 
    28     28     35     17     16     15 
    29     29     15     14     12     11 
    30     30     32     15     16     17 
    31     31     27      6      9     11 
    32     32     18     16      3      2 
    33     33     27      6      9     15 
    34     34     28      7      6     27 
    35     35     22      2      1     20 
    36     36     16      3      6      9 
    37     37     15      9      6      7 
    38     38     14     15     16      3 
    39     39     27      6      7      8 
    40     40     33     17     16     18 
    41     41     30     10      9      6 
    42     42     17     16     15     14 
    43     43     17     16      3      6 
    44     44     22      2      3     16 
    45     45     17     16     15      9 
    46     46     32     15     16     18 
    47     47     30     10      9     15 
    48     48     31     10      9      6 
    49     49      9      6      3      4 
    50     50     23      2      1     19 
    51     51     37     18     16     17 
    52     52     35     17     16     18 
    53     53      9     15     16      3 
    54     54     22      2      3      6 
    55     55     15      9      6      3 
    56     56     16     15      9     10 
    57     57     11      9      6      7 
    58     58     21      1      2      3 
    59     59     26      5      4      3 
    60     60     27      6      3      2 
    61     61     38     18     16      3 
    62     62     16     15     14     12 
    63     63     17     16      3      2 
    64     64     15     16      3      4 
    65     65     15     16      3      2 
    66     66     29     10      9     15 
    67     67     11      9      6      3 
    68     68     22      2      1     19 
    69     69     31     10      9     11 
    70     70     14     12     11      9 
    71     71      9      6      7      8 
    72     72     16      3      6      7 
    73     73     18     16      3      4 
    74     74     30     10      9     11 
    75     75     28      7      6      9 
    76     76     38     18     16     15 
    77     77     36     18     16     17 
    78     78     27      6      9     10 
    79     79     32     15      9      6 
    80     80     14     15      9      6 
    81     81     29     10      9     11 
    82     82     12     11      9     10 
    83     83     18     16     15      9 
    84     84     34     17     16      3 
    85     85     32     15     16      3 
    86     86     32     15     14     12 
    87     87      6      3      4      5 
    88     88     23      2      1     20 
    89     89      7      6      3      4 
    90     90      9      6      3      2 
    91     91     32     15      9     11 
    92     92     15      9     11     12 
    93     93     18     16     15     14 
    94     94     38     18     16     17 
    95     95     23      2      3      6 
    96     96     12     14     15      9 
    97     97     20      1      2      3 
    98     98     14     15      9     11 
    99     99     18     16      3      6 
   100    100     34     17     16     15 
   101    101     22      2      1     21 
   102    102     22      2      3      4 
   103    103     28      7      6      3 
   104    104      6      3      2      1 
   105    105     35     17     16      3 
   106    106     15     16      3      6 
   107    107     34     17     16     18 
   108    108     17     16      3      4 
   109    109     37     18     16      3 
   110    110     16      3      4      5 
   111    111     27      6      3      4 
   112    112     15     14     12     13 

Impropers

     1      1      3      2      4      6 
     2      2      6      9      3      7 
     3      3      9     10     11      6 
     4      4     12     11     13     14 
     5      5      9     10      6     15 
     6      6      3      2      4     16 
     7      7     16     17      3     15 
     8      8     16     18      3     15 
     9      9      1      2     19     20 
    10     10      1      2     19     21 
    11     11      2      1      3     22 
    12     12      2      1      3     23 
    13     13      5     25      4     24 
    14     14      5     26      4     24 
    15     15      6     27      3      7 
    16     16      7     28      6      8 
    17     17     10      9     29     30 
    18     18     10      9     29     31 
    19     19     15      9     14     32 
    20     20     17     34     33     16 
    21     21     17     33     35     16 
    22     22     18     36     37     16 
    23     23     18     36     38     16 

