LAMMPS data file Created by LigParGen - (Written by Leela S. Dodda)

      53 atoms
      52 bonds
      98 angles
     130 dihedrals
      32 impropers
 
      53 atom types
      52 bond types
      98 angle types
     130 dihedral types
      32 improper types
 
   -8.241730    41.758270 xlo xhi
   -7.570120    42.429880 ylo yhi
   -7.429840    42.570160 zlo zhi

Masses

       1     12.011  
       2     12.011  
       3     12.011  
       4     12.011  
       5     12.011  
       6     15.999  
       7     15.999  
       8     12.011  
       9     12.011  
      10     12.011  
      11     15.999  
      12     15.999  
      13     12.011  
      14     12.011  
      15     12.011  
      16     12.011  
      17     12.011  
      18     12.011  
      19     12.011  
      20     12.011  
      21     12.011  
      22      1.008  
      23      1.008  
      24      1.008  
      25      1.008  
      26      1.008  
      27      1.008  
      28      1.008  
      29      1.008  
      30      1.008  
      31      1.008  
      32      1.008  
      33      1.008  
      34      1.008  
      35      1.008  
      36      1.008  
      37      1.008  
      38      1.008  
      39      1.008  
      40      1.008  
      41      1.008  
      42      1.008  
      43      1.008  
      44      1.008  
      45      1.008  
      46      1.008  
      47      1.008  
      48      1.008  
      49      1.008  
      50      1.008  
      51      1.008  
      52      1.008  
      53      1.008  

Pair Coeffs 

       1      0.066  3.5000000 
       2      0.066  3.5000000 
       3      0.066  3.5000000 
       4      0.066  3.5000000 
       5      0.070  3.5500000 
       6      0.210  2.9600000 
       7      0.140  2.9000000 
       8      0.066  3.5000000 
       9      0.066  3.5000000 
      10      0.070  3.5500000 
      11      0.210  2.9600000 
      12      0.140  2.9000000 
      13      0.066  3.5000000 
      14      0.066  3.5000000 
      15      0.066  3.5000000 
      16      0.066  3.5000000 
      17      0.066  3.5000000 
      18      0.066  3.5000000 
      19      0.066  3.5000000 
      20      0.066  3.5000000 
      21      0.066  3.5000000 
      22      0.030  2.5000000 
      23      0.030  2.5000000 
      24      0.030  2.5000000 
      25      0.030  2.5000000 
      26      0.030  2.5000000 
      27      0.030  2.5000000 
      28      0.030  2.5000000 
      29      0.030  2.5000000 
      30      0.030  2.5000000 
      31      0.030  2.5000000 
      32      0.030  2.5000000 
      33      0.030  2.5000000 
      34      0.030  2.5000000 
      35      0.030  2.5000000 
      36      0.030  2.5000000 
      37      0.030  2.5000000 
      38      0.030  2.5000000 
      39      0.030  2.5000000 
      40      0.030  2.5000000 
      41      0.030  2.5000000 
      42      0.030  2.5000000 
      43      0.030  2.5000000 
      44      0.030  2.5000000 
      45      0.030  2.5000000 
      46      0.030  2.5000000 
      47      0.030  2.5000000 
      48      0.030  2.5000000 
      49      0.030  2.5000000 
      50      0.030  2.5000000 
      51      0.030  2.5000000 
      52      0.030  2.5000000 
      53      0.030  2.5000000 

Bond Coeffs 

       1   268.0000     1.5290 
       2   268.0000     1.5290 
       3   268.0000     1.5290 
       4   317.0000     1.5220 
       5   570.0000     1.2290 
       6   214.0000     1.3270 
       7   320.0000     1.4100 
       8   268.0000     1.5290 
       9   317.0000     1.5220 
      10   570.0000     1.2290 
      11   214.0000     1.3270 
      12   320.0000     1.4100 
      13   268.0000     1.5290 
      14   268.0000     1.5290 
      15   268.0000     1.5290 
      16   268.0000     1.5290 
      17   268.0000     1.5290 
      18   268.0000     1.5290 
      19   268.0000     1.5290 
      20   268.0000     1.5290 
      21   340.0000     1.0900 
      22   340.0000     1.0900 
      23   340.0000     1.0900 
      24   340.0000     1.0900 
      25   340.0000     1.0900 
      26   340.0000     1.0900 
      27   340.0000     1.0900 
      28   340.0000     1.0900 
      29   340.0000     1.0900 
      30   340.0000     1.0900 
      31   340.0000     1.0900 
      32   340.0000     1.0900 
      33   340.0000     1.0900 
      34   340.0000     1.0900 
      35   340.0000     1.0900 
      36   340.0000     1.0900 
      37   340.0000     1.0900 
      38   340.0000     1.0900 
      39   340.0000     1.0900 
      40   340.0000     1.0900 
      41   340.0000     1.0900 
      42   340.0000     1.0900 
      43   340.0000     1.0900 
      44   340.0000     1.0900 
      45   340.0000     1.0900 
      46   340.0000     1.0900 
      47   340.0000     1.0900 
      48   340.0000     1.0900 
      49   340.0000     1.0900 
      50   340.0000     1.0900 
      51   340.0000     1.0900 
      52   340.0000     1.0900 

Angle Coeffs 

       1     58.350    112.700
       2     58.350    112.700
       3     63.000    111.100
       4     80.000    120.400
       5     81.000    111.400
       6     83.000    116.900
       7     50.000    109.500
       8     63.000    111.100
       9     80.000    120.400
      10     81.000    111.400
      11     83.000    116.900
      12     50.000    109.500
      13     50.000    109.500
      14     58.350    112.700
      15     58.350    112.700
      16     50.000    109.500
      17     58.350    112.700
      18     58.350    112.700
      19     58.350    112.700
      20     37.500    110.700
      21     37.500    110.700
      22     37.500    110.700
      23     37.500    110.700
      24     37.500    110.700
      25     37.500    110.700
      26     37.500    110.700
      27     37.500    110.700
      28     37.500    110.700
      29     35.000    109.500
      30     35.000    109.500
      31     37.500    110.700
      32     37.500    110.700
      33     37.500    110.700
      34     37.500    110.700
      35     37.500    110.700
      36     37.500    110.700
      37     37.500    110.700
      38     37.500    110.700
      39     37.500    110.700
      40     37.500    110.700
      41     37.500    110.700
      42     37.500    110.700
      43     37.500    110.700
      44     37.500    110.700
      45     37.500    110.700
      46     37.500    110.700
      47     37.500    110.700
      48     37.500    110.700
      49     37.500    110.700
      50     37.500    110.700
      51     37.500    110.700
      52     58.350    112.700
      53     33.000    107.800
      54     37.500    110.700
      55     33.000    107.800
      56     37.500    110.700
      57     33.000    107.800
      58     58.350    112.700
      59     33.000    107.800
      60     37.500    110.700
      61     33.000    107.800
      62     35.000    109.500
      63     33.000    107.800
      64     37.500    110.700
      65     33.000    107.800
      66     37.500    110.700
      67     33.000    107.800
      68     33.000    107.800
      69     83.000    123.400
      70     37.500    110.700
      71     37.500    110.700
      72     37.500    110.700
      73     33.000    107.800
      74     33.000    107.800
      75     33.000    107.800
      76     33.000    107.800
      77     83.000    123.400
      78     37.500    110.700
      79     33.000    107.800
      80     33.000    107.800
      81     58.350    112.700
      82     33.000    107.800
      83     33.000    107.800
      84     37.500    110.700
      85     33.000    107.800
      86     37.500    110.700
      87     33.000    107.800
      88     37.500    110.700
      89     58.350    112.700
      90     37.500    110.700
      91     35.000    109.500
      92     33.000    107.800
      93     35.000    109.500
      94     35.000    109.500
      95     33.000    107.800
      96     37.500    110.700
      97     33.000    107.800
      98     33.000    107.800

Dihedral Coeffs  

       1      1.300     -0.200      0.200      0.000 
       2     -2.060     -0.313      0.315      0.000 
       3      0.000      0.000      0.000      0.000 
       4      4.669      5.124      0.000      0.000 
       5     -1.220     -0.126      0.422      0.000 
       6     -6.180      0.000      0.000      0.000 
       7      0.000      0.000      0.000      0.000 
       8      4.669      5.124      0.000      0.000 
       9     -1.220     -0.126      0.422      0.000 
      10      1.711     -0.500      0.663      0.000 
      11      1.300     -0.200      0.200      0.000 
      12      1.711     -0.500      0.663      0.000 
      13      1.300     -0.200      0.200      0.000 
      14      0.000      0.000      0.300      0.000 
      15      0.000      0.000      0.468      0.000 
      16      0.000      0.000      0.300      0.000 
      17      0.000      0.000      0.300      0.000 
      18      0.000      0.000      0.300      0.000 
      19      0.000      0.000     -0.100      0.000 
      20      0.000      0.000      0.300      0.000 
      21      0.000      0.000      0.300      0.000 
      22      0.000      0.000      0.132      0.000 
      23      0.000      0.000      0.300      0.000 
      24      0.000      0.000      0.300      0.000 
      25      0.000      0.000      0.300      0.000 
      26      0.000      0.000      0.300      0.000 
      27      0.000      0.000      0.198      0.000 
      28      0.000      0.000      0.300      0.000 
      29      0.000      0.000      0.300      0.000 
      30     -1.220     -0.126      0.422      0.000 
      31      0.000      0.000      0.300      0.000 
      32      0.000      0.000      0.300      0.000 
      33      0.000      0.000      0.132      0.000 
      34      0.000      0.000      0.300      0.000 
      35      0.000      0.000      0.300      0.000 
      36      0.000      0.000      0.300      0.000 
      37      0.000      0.000      0.300      0.000 
      38      0.000      0.000      0.300      0.000 
      39      0.000      0.000      0.300      0.000 
      40      0.000      5.124      0.000      0.000 
      41      0.000      0.000      0.468      0.000 
      42      0.000      0.000      0.300      0.000 
      43      0.000      0.000      0.300      0.000 
      44      0.000      0.000      0.300      0.000 
      45      0.000      0.000      0.300      0.000 
      46      0.000      0.000      0.300      0.000 
      47      0.000      0.000      0.300      0.000 
      48      0.000      0.000      0.300      0.000 
      49      0.000      0.000      0.300      0.000 
      50      0.000      0.000      0.300      0.000 
      51      0.000      0.000      0.198      0.000 
      52      1.300     -0.200      0.200      0.000 
      53      0.000      0.000      0.300      0.000 
      54      0.000      0.000      0.468      0.000 
      55      0.000      0.000      0.300      0.000 
      56      0.000      0.000      0.300      0.000 
      57      0.000      0.000      0.300      0.000 
      58      0.000      0.000      0.300      0.000 
      59      0.000      0.000      0.300      0.000 
      60      0.000      0.000      0.468      0.000 
      61      0.000      0.000      0.300      0.000 
      62      0.000      0.000      0.132      0.000 
      63      0.000      0.000      0.000      0.000 
      64      1.300     -0.200      0.200      0.000 
      65      0.000      0.000      0.300      0.000 
      66      0.000      0.000      0.300      0.000 
      67      0.000      0.000      0.300      0.000 
      68      1.300     -0.200      0.200      0.000 
      69      0.000      0.000      0.300      0.000 
      70      0.000      0.000      0.300      0.000 
      71      0.000      0.000      0.000      0.000 
      72      0.000      0.000      0.300      0.000 
      73      0.000      0.000      0.300      0.000 
      74      0.000      0.000     -0.100      0.000 
      75      0.000      0.000      0.300      0.000 
      76      0.000      0.000      0.468      0.000 
      77      0.000      0.000      0.300      0.000 
      78      0.000      0.000      0.300      0.000 
      79     -1.220     -0.126      0.422      0.000 
      80      0.000      0.000      0.300      0.000 
      81      0.000      0.000      0.468      0.000 
      82      0.000      0.000      0.300      0.000 
      83      0.000      0.000      0.300      0.000 
      84      0.000      0.000      0.300      0.000 
      85      1.300     -0.200      0.200      0.000 
      86      0.000      0.000      0.468      0.000 
      87      0.000      0.000     -0.100      0.000 
      88      0.000      0.000      0.300      0.000 
      89      0.000      0.000      0.300      0.000 
      90      0.000      0.000      0.000      0.000 
      91      0.000      0.000      0.468      0.000 
      92      0.000      0.000      0.300      0.000 
      93      0.000      0.000      0.300      0.000 
      94      0.000      0.000      0.300      0.000 
      95      0.000      0.000      0.300      0.000 
      96      0.000      0.000      0.300      0.000 
      97      0.000      0.000      0.300      0.000 
      98      0.000      0.000      0.300      0.000 
      99      0.000      0.000      0.300      0.000 
     100      0.000      0.000      0.300      0.000 
     101      0.000      0.000      0.300      0.000 
     102      0.000      0.000      0.300      0.000 
     103      0.000      0.000      0.300      0.000 
     104      0.000      0.000      0.300      0.000 
     105      0.000      0.000      0.300      0.000 
     106      0.000      0.000      0.300      0.000 
     107      0.000      0.000      0.300      0.000 
     108      0.000      0.000      0.300      0.000 
     109      0.000      0.000      0.300      0.000 
     110      0.000      5.124      0.000      0.000 
     111      0.000      0.000     -0.553      0.000 
     112      0.000      0.000     -0.553      0.000 
     113      0.000      0.000      0.300      0.000 
     114      0.000      0.000     -0.100      0.000 
     115      0.000      0.000      0.000      0.000 
     116      0.000      0.000      0.132      0.000 
     117      0.000      0.000      0.300      0.000 
     118      0.000      0.000      0.300      0.000 
     119      0.000      0.000      0.300      0.000 
     120      0.000      0.000      0.300      0.000 
     121      0.000      0.000      0.300      0.000 
     122      0.000      0.000      0.300      0.000 
     123      0.000      0.000      0.300      0.000 
     124      0.000      0.000      0.300      0.000 
     125      0.000      0.000      0.300      0.000 
     126      0.000      0.000      0.300      0.000 
     127      0.000      0.000      0.300      0.000 
     128      0.000      0.000      0.300      0.000 
     129      0.000      0.000      0.468      0.000 
     130      1.300     -0.200      0.200      0.000 

Improper Coeffs 

       1     10.500      -1       2 
       2     10.500      -1       2 
       3      0.000      -1       2 
       4      0.000      -1       2 
       5      0.000      -1       2 
       6      0.000      -1       2 
       7      0.000      -1       2 
       8      0.000      -1       2 
       9      0.000      -1       2 
      10      0.000      -1       2 
      11      0.000      -1       2 
      12      0.000      -1       2 
      13      0.000      -1       2 
      14      0.000      -1       2 
      15      0.000      -1       2 
      16      0.000      -1       2 
      17      0.000      -1       2 
      18      0.000      -1       2 
      19      0.000      -1       2 
      20      0.000      -1       2 
      21      0.000      -1       2 
      22      0.000      -1       2 
      23      0.000      -1       2 
      24      0.000      -1       2 
      25      0.000      -1       2 
      26      0.000      -1       2 
      27      0.000      -1       2 
      28      0.000      -1       2 
      29      0.000      -1       2 
      30      0.000      -1       2 
      31      0.000      -1       2 
      32      0.000      -1       2 

Atoms 

     1      1      1 -0.23880000    1.000  1.00000  0.00000
     2      1      2 -0.18240000   -0.520  1.00000  0.00000
     3      1      3 -0.17000000   -1.079  1.00000  1.42464
     4      1      4 -0.18970000   -2.606  1.00178  1.45262
     5      1      5 0.43850000   -3.214 -0.20255  0.77387
     6      1      6 -0.45030000   -4.052 -0.13372 -0.11355
     7      1      7 -0.35240000   -2.702 -1.35178  1.28707
     8      1      8 0.00680000   -3.254 -2.56608  0.75428
     9      1      9 -0.22380000   -2.530 -2.98190 -0.52025
    10      1     10 0.45870000   -3.142 -4.25419 -1.03536
    11      1     11 -0.46370000   -3.633 -5.10283 -0.30293
    12      1     12 -0.36950000   -3.071 -4.31630 -2.39488
    13      1     13 0.15550000   -3.749 -5.39355 -3.11636
    14      1     14 -0.27340000   -3.162 -6.75283 -2.68082
    15      1     15 -0.20490000   -5.274 -5.28356 -2.86333
    16      1     16 -0.16850000   -6.147 -6.33827 -3.54399
    17      1     17 -0.24050000   -7.615 -6.10733 -3.21030
    18      1     18 -0.16410000   -3.387 -5.22554 -4.62609
    19      1     19 -0.11270000   -3.912 -3.98023 -5.37794
    20      1     20 -0.22850000   -3.375 -2.66528 -4.81625
    21      1     21 -0.23940000   -3.535 -4.08990 -6.86289
    22      1     22 0.08350000    1.377  0.99870 -1.02714
    23      1     23 0.08350000    1.390  0.11163  0.50660
    24      1     24 0.08350000    1.391  1.88895  0.50666
    25      1     25 0.09250000   -0.869  0.11523 -0.54472
    26      1     26 0.09250000   -0.883  1.88048 -0.54208
    27      1     27 0.10390000   -0.720  1.89101  1.95454
    28      1     28 0.10390000   -0.694  0.12956  1.96946
    29      1     29 0.12980000   -2.985  1.90200  0.95530
    30      1     30 0.12980000   -2.969  1.02666  2.48712
    31      1     31 0.13270000   -4.337 -2.46806  0.59455
    32      1     32 0.13270000   -3.128 -3.32929  1.53154
    33      1     33 0.14560000   -1.465 -3.14968 -0.32695
    34      1     34 0.14560000   -2.612 -2.19043 -1.27366
    35      1     35 0.10240000   -3.428 -7.01337 -1.65329
    36      1     36 0.10240000   -2.067 -6.72845 -2.72634
    37      1     37 0.10240000   -3.513 -7.57012 -3.31935
    38      1     38 0.10860000   -5.612 -4.28023 -3.15185
    39      1     39 0.10860000   -5.478 -5.33523 -1.78829
    40      1     40 0.09070000   -5.865 -7.34023 -3.20320
    41      1     41 0.09070000   -6.020 -6.30614 -4.63022
    42      1     42 0.08360000   -7.786 -6.18018 -2.13097
    43      1     43 0.08360000   -8.242 -6.85592 -3.70426
    44      1     44 0.08360000   -7.939 -5.11497 -3.54076
    45      1     45 0.10120000   -3.743 -6.11358 -5.16713
    46      1     46 0.10120000   -2.292 -5.23109 -4.71838
    47      1     47 0.09800000   -5.007 -3.95759 -5.33032
    48      1     48 0.08420000   -2.296 -2.72052 -4.63307
    49      1     49 0.08420000   -3.873 -2.41039 -3.87668
    50      1     50 0.08420000   -3.553 -1.83714 -5.51127
    51      1     51 0.08120000   -2.447 -4.10734 -6.99717
    52      1     52 0.08120000   -3.933 -3.24252 -7.42984
    53      1     53 0.08120000   -3.947 -5.00468 -7.30266

Bonds 

     1      1      2      1
     2      2      3      2
     3      3      4      3
     4      4      5      4
     5      5      6      5
     6      6      7      5
     7      7      8      7
     8      8      9      8
     9      9     10      9
    10     10     11     10
    11     11     12     10
    12     12     13     12
    13     13     14     13
    14     14     15     13
    15     15     16     15
    16     16     17     16
    17     17     18     13
    18     18     19     18
    19     19     20     19
    20     20     21     19
    21     21     22      1
    22     22     23      1
    23     23     24      1
    24     24     25      2
    25     25     26      2
    26     26     27      3
    27     27     28      3
    28     28     29      4
    29     29     30      4
    30     30     31      8
    31     31     32      8
    32     32     33      9
    33     33     34      9
    34     34     35     14
    35     35     36     14
    36     36     37     14
    37     37     38     15
    38     38     39     15
    39     39     40     16
    40     40     41     16
    41     41     42     17
    42     42     43     17
    43     43     44     17
    44     44     45     18
    45     45     46     18
    46     46     47     19
    47     47     48     20
    48     48     49     20
    49     49     50     20
    50     50     51     21
    51     51     52     21
    52     52     53     21

Angles 

     1      1      1      2      3
     2      2      2      3      4
     3      3      3      4      5
     4      4      4      5      6
     5      5      4      5      7
     6      6      5      7      8
     7      7      7      8      9
     8      8      8      9     10
     9      9      9     10     11
    10     10      9     10     12
    11     11     10     12     13
    12     12     12     13     14
    13     13     12     13     15
    14     14     13     15     16
    15     15     15     16     17
    16     16     12     13     18
    17     17     13     18     19
    18     18     18     19     20
    19     19     18     19     21
    20     20      2      1     22
    21     21      2      1     23
    22     22      2      1     24
    23     23      1      2     25
    24     24      1      2     26
    25     25      2      3     27
    26     26      2      3     28
    27     27      3      4     29
    28     28      3      4     30
    29     29      7      8     31
    30     30      7      8     32
    31     31      8      9     33
    32     32      8      9     34
    33     33     13     14     35
    34     34     13     14     36
    35     35     13     14     37
    36     36     13     15     38
    37     37     13     15     39
    38     38     15     16     40
    39     39     15     16     41
    40     40     16     17     42
    41     41     16     17     43
    42     42     16     17     44
    43     43     13     18     45
    44     44     13     18     46
    45     45     18     19     47
    46     46     19     20     48
    47     47     19     20     49
    48     48     19     20     50
    49     49     19     21     51
    50     50     19     21     52
    51     51     19     21     53
    52     52     20     19     21
    53     53     29      4     30
    54     54      3      2     26
    55     55     31      8     32
    56     56      9      8     31
    57     57     27      3     28
    58     58     14     13     15
    59     59     35     14     37
    60     60     16     15     39
    61     61     22      1     24
    62     62     10      9     33
    63     63     49     20     50
    64     64     21     19     47
    65     65     51     21     53
    66     66     16     15     38
    67     67     35     14     36
    68     68     42     17     43
    69     69     11     10     12
    70     70     17     16     40
    71     71      3      2     25
    72     72     19     18     45
    73     73     42     17     44
    74     74     45     18     46
    75     75     23      1     24
    76     76     40     16     41
    77     77      6      5      7
    78     78      4      3     28
    79     79     48     20     50
    80     80     51     21     52
    81     81     14     13     18
    82     82     43     17     44
    83     83     52     21     53
    84     84     17     16     41
    85     85     25      2     26
    86     86     20     19     47
    87     87     48     20     49
    88     88      4      3     27
    89     89     15     13     18
    90     90      9      8     32
    91     91      5      4     29
    92     92     33      9     34
    93     93      5      4     30
    94     94     10      9     34
    95     95     22      1     23
    96     96     19     18     46
    97     97     36     14     37
    98     98     38     15     39

Dihedrals

     1      1      4      3      2      1 
     2      2      5      4      3      2 
     3      3      6      5      4      3 
     4      4      8      7      5      4 
     5      5      9      8      7      5 
     6      6     10      9      8      7 
     7      7     11     10      9      8 
     8      8     13     12     10      9 
     9      9     14     13     12     10 
    10     10     16     15     13     12 
    11     11     17     16     15     13 
    12     12     19     18     13     12 
    13     13     20     19     18     13 
    14     14     22      1      2      3 
    15     15     35     14     13     12 
    16     16     42     17     16     15 
    17     17     48     20     19     18 
    18     18     51     21     19     18 
    19     19     27      3      4      5 
    20     20     42     17     16     41 
    21     21     45     18     13     15 
    22     22     34      9     10     12 
    23     23     30      4      3      2 
    24     24     45     18     19     21 
    25     25     38     15     13     18 
    26     26     46     18     13     14 
    27     27     32      8      7      5 
    28     28     53     21     19     20 
    29     29     50     20     19     18 
    30     30     15     13     12     10 
    31     31     26      2      1     23 
    32     32     25      2      1     24 
    33     33     30      4      5      7 
    34     34     23      1      2      3 
    35     35     53     21     19     47 
    36     36     29      4      3     28 
    37     37     30      4      3     27 
    38     38     49     20     19     18 
    39     39     46     18     19     20 
    40     40     13     12     10     11 
    41     41     33      9      8      7 
    42     42     47     19     18     45 
    43     43     36     14     13     18 
    44     44     52     21     19     18 
    45     45     34      9      8     32 
    46     46     38     15     16     17 
    47     47     26      2      1     24 
    48     48     33      9      8     32 
    49     49     34      9      8     31 
    50     50     26      2      3      4 
    51     51     31      8      7      5 
    52     52     19     18     13     14 
    53     53     51     21     19     20 
    54     54     39     15     13     12 
    55     55     43     17     16     15 
    56     56     49     20     19     21 
    57     57     52     21     19     20 
    58     58     39     15     13     18 
    59     59     40     16     15     13 
    60     60     36     14     13     12 
    61     61     49     20     19     47 
    62     62     33      9     10     12 
    63     63     34      9     10     11 
    64     64     16     15     13     14 
    65     65     44     17     16     15 
    66     66     47     19     18     13 
    67     67     39     15     13     14 
    68     68     19     18     13     15 
    69     69     51     21     19     47 
    70     70     29      4      3      2 
    71     71     29      4      5      6 
    72     72     52     21     19     47 
    73     73     35     14     13     18 
    74     74     32      8      9     10 
    75     75     24      1      2      3 
    76     76     37     14     13     12 
    77     77     41     16     15     39 
    78     78     45     18     19     20 
    79     79     18     13     12     10 
    80     80     27      3      2      1 
    81     81     46     18     13     12 
    82     82     40     16     15     39 
    83     83     37     14     13     18 
    84     84     45     18     13     14 
    85     85     21     19     18     13 
    86     86     34      9      8      7 
    87     87     31      8      9     10 
    88     88     33      9      8     31 
    89     89     26      2      1     22 
    90     90     33      9     10     11 
    91     91     38     15     13     12 
    92     92     36     14     13     15 
    93     93     28      3      2     26 
    94     94     25      2      1     23 
    95     95     38     15     13     14 
    96     96     41     16     15     38 
    97     97     50     20     19     21 
    98     98     25      2      1     22 
    99     99     40     16     15     38 
   100    100     30      4      3     28 
   101    101     47     19     18     46 
   102    102     42     17     16     40 
   103    103     37     14     13     15 
   104    104     48     20     19     47 
   105    105     35     14     13     15 
   106    106     53     21     19     18 
   107    107     29      4      3     27 
   108    108     43     17     16     40 
   109    109     46     18     13     15 
   110    110      8      7      5      6 
   111    111     12     10      9      8 
   112    112      7      5      4      3 
   113    113     39     15     16     17 
   114    114     28      3      4      5 
   115    115     30      4      5      6 
   116    116     29      4      5      7 
   117    117     46     18     19     21 
   118    118     25      2      3      4 
   119    119     48     20     19     21 
   120    120     28      3      2      1 
   121    121     28      3      2     25 
   122    122     44     17     16     40 
   123    123     27      3      2     26 
   124    124     43     17     16     41 
   125    125     50     20     19     47 
   126    126     27      3      2     25 
   127    127     41     16     15     13 
   128    128     44     17     16     41 
   129    129     45     18     13     12 
   130    130     18     13     15     16 

Impropers

     1      1      5      4      6      7 
     2      2     10      9     11     12 
     3      3     13     12     14     15 
     4      4     13     18     12     14 
     5      5     19     18     20     21 
     6      6      1      2     22     23 
     7      7      1      2     22     24 
     8      8      2     25      3      1 
     9      9      2      1     26      3 
    10     10      3      2     27      4 
    11     11      3      4      2     28 
    12     12      4      5      3     29 
    13     13      4      3      5     30 
    14     14      8      9      7     31 
    15     15      8      9      7     32 
    16     16      9     33     10      8 
    17     17      9     34     10      8 
    18     18     14     35     36     13 
    19     19     14     13     35     37 
    20     20     15     13     38     16 
    21     21     15     13     39     16 
    22     22     16     17     15     40 
    23     23     16     41     17     15 
    24     24     17     42     43     16 
    25     25     17     42     44     16 
    26     26     18     19     45     13 
    27     27     18     19     13     46 
    28     28     19     18     20     47 
    29     29     20     49     19     48 
    30     30     20     50     19     48 
    31     31     21     19     52     51 
    32     32     21     19     53     51 

