LAMMPS data file Created by LigParGen - (Written by Leela S. Dodda)

      26 atoms
      25 bonds
      48 angles
      63 dihedrals
      16 impropers
 
      26 atom types
      25 bond types
      48 angle types
      63 dihedral types
      16 improper types
 
   -4.848290    45.151710 xlo xhi
   -0.183900    49.816100 ylo yhi
   -2.731040    47.268960 zlo zhi

Masses

       1     12.011  
       2     12.011  
       3     18.998  
       4     12.011  
       5     12.011  
       6     32.060  
       7     12.011  
       8     12.011  
       9     12.011  
      10     18.998  
      11      1.008  
      12      1.008  
      13      1.008  
      14      1.008  
      15      1.008  
      16      1.008  
      17      1.008  
      18      1.008  
      19      1.008  
      20      1.008  
      21      1.008  
      22      1.008  
      23      1.008  
      24      1.008  
      25      1.008  
      26      1.008  

Pair Coeffs 

       1      0.066  3.5000000 
       2      0.066  3.5000000 
       3      0.060  2.9000000 
       4      0.066  3.5000000 
       5      0.066  3.5000000 
       6      0.355  3.6000000 
       7      0.066  3.5000000 
       8      0.066  3.5000000 
       9      0.066  3.5000000 
      10      0.060  2.9000000 
      11      0.030  2.5000000 
      12      0.030  2.5000000 
      13      0.030  2.5000000 
      14      0.030  2.5000000 
      15      0.030  2.5000000 
      16      0.030  2.5000000 
      17      0.030  2.5000000 
      18      0.030  2.5000000 
      19      0.030  2.5000000 
      20      0.030  2.5000000 
      21      0.030  2.5000000 
      22      0.030  2.5000000 
      23      0.030  2.5000000 
      24      0.030  2.5000000 
      25      0.030  2.5000000 
      26      0.030  2.5000000 

Bond Coeffs 

       1   268.0000     1.5290 
       2   367.0000     1.3600 
       3   268.0000     1.5290 
       4   268.0000     1.5290 
       5   222.0000     1.8100 
       6   222.0000     1.8100 
       7   222.0000     1.8100 
       8   222.0000     1.8100 
       9   367.0000     1.3600 
      10   340.0000     1.0900 
      11   340.0000     1.0900 
      12   340.0000     1.0900 
      13   340.0000     1.0900 
      14   340.0000     1.0900 
      15   340.0000     1.0900 
      16   340.0000     1.0900 
      17   340.0000     1.0900 
      18   340.0000     1.0900 
      19   340.0000     1.0900 
      20   340.0000     1.0900 
      21   340.0000     1.0900 
      22   340.0000     1.0900 
      23   340.0000     1.0900 
      24   340.0000     1.0900 
      25   340.0000     1.0900 

Angle Coeffs 

       1     50.000    109.500
       2     58.350    112.700
       3     58.350    112.700
       4     50.000    114.700
       5     62.000     98.900
       6     62.000     98.900
       7     62.000     98.900
       8     51.650    110.580
       9     37.500    110.700
      10     37.500    110.700
      11     37.500    110.700
      12     37.500    110.700
      13     37.500    110.700
      14     37.500    110.700
      15     37.500    110.700
      16     37.500    110.700
      17     35.000    109.500
      18     35.000    109.500
      19     35.000    109.500
      20     35.000    109.500
      21     35.000    109.500
      22     35.000    109.500
      23     35.000    109.500
      24     35.000    109.500
      25     35.000    109.500
      26     50.000    114.700
      27     33.000    107.800
      28     40.000    107.000
      29     62.000     98.900
      30     33.000    107.800
      31     33.000    107.800
      32     33.000    107.800
      33     33.000    107.800
      34     33.000    107.800
      35     40.000    107.000
      36     33.000    107.800
      37     37.500    110.700
      38     33.000    107.800
      39     33.000    107.800
      40     33.000    107.800
      41     33.000    107.800
      42     50.000    109.500
      43     37.500    110.700
      44     40.000    107.000
      45     62.000     98.900
      46     33.000    107.800
      47     62.000     98.900
      48     33.000    107.800

Dihedral Coeffs  

       1      1.300     -0.200      0.200      0.000 
       2      0.925     -0.576      0.677      0.000 
       3      0.000      0.000      0.647      0.000 
       4      0.000      0.000      0.400      0.000 
       5      0.000      0.000      0.300      0.000 
       6      0.000      0.000      0.647      0.000 
       7      0.000      0.000      0.647      0.000 
       8      0.000      0.000      0.647      0.000 
       9      0.000      0.000      0.300      0.000 
      10      0.000      0.000      0.300      0.000 
      11      0.000      0.000      0.647      0.000 
      12      0.000      0.000      0.300      0.000 
      13      0.925     -0.576      0.677      0.000 
      14      0.000      0.000      0.647      0.000 
      15      0.000      0.000      0.647      0.000 
      16      0.000      0.000      0.452      0.000 
      17      0.300     -0.400      0.400      0.000 
      18      0.000      0.000      0.400      0.000 
      19      0.000      0.000      0.300      0.000 
      20      0.000      0.000      0.647      0.000 
      21      0.000      0.000      0.300      0.000 
      22      0.000      0.000      0.452      0.000 
      23      0.000      0.000      0.300      0.000 
      24      0.000      0.000      0.647      0.000 
      25      0.000      0.000      0.452      0.000 
      26      0.000      0.000      0.300      0.000 
      27      0.925     -0.576      0.677      0.000 
      28      0.000      0.000      0.647      0.000 
      29      0.000      0.000      0.647      0.000 
      30      0.000      0.000      0.647      0.000 
      31      0.000      0.000      0.300      0.000 
      32      0.000      0.000      0.647      0.000 
      33      0.000      0.000      0.647      0.000 
      34      0.000      0.000      0.647      0.000 
      35      0.000      0.000      0.647      0.000 
      36      2.619     -0.620      0.258      0.000 
      37      0.000      0.000      0.647      0.000 
      38      0.000      0.000      0.647      0.000 
      39      0.000      0.000      0.647      0.000 
      40      0.000      0.000      0.647      0.000 
      41      0.000      0.000      0.300      0.000 
      42      0.000      0.000      0.647      0.000 
      43      0.000      0.000      0.647      0.000 
      44      0.000      0.000      0.400      0.000 
      45      0.000      0.000      0.300      0.000 
      46     -2.500      0.000      0.250      0.000 
      47      0.000      0.000      0.647      0.000 
      48      0.000      0.000      0.300      0.000 
      49      0.000      0.000      0.647      0.000 
      50      0.000      0.000      0.647      0.000 
      51      0.925     -0.576      0.677      0.000 
      52      0.000      0.000      0.647      0.000 
      53      0.925     -0.576      0.677      0.000 
      54      0.000      0.000      0.300      0.000 
      55      0.000      0.000      0.300      0.000 
      56      0.000      0.000      0.647      0.000 
      57      0.000      0.000      0.647      0.000 
      58      0.000      0.000      0.300      0.000 
      59      0.000      0.000      0.400      0.000 
      60      0.000      0.000      0.647      0.000 
      61      0.925     -0.576      0.677      0.000 
      62      0.000      0.000      0.647      0.000 
      63      0.000      0.000      0.452      0.000 

Improper Coeffs 

       1      0.000      -1       2 
       2      0.000      -1       2 
       3      0.000      -1       2 
       4      0.000      -1       2 
       5      0.000      -1       2 
       6      0.000      -1       2 
       7      0.000      -1       2 
       8      0.000      -1       2 
       9      0.000      -1       2 
      10      0.000      -1       2 
      11      0.000      -1       2 
      12      0.000      -1       2 
      13      0.000      -1       2 
      14      0.000      -1       2 
      15      0.000      -1       2 
      16      0.000      -1       2 

Atoms 

     1      1      1 -0.27660000    1.000  1.00000  0.00000
     2      1      2 0.10520000   -0.519  1.00000  0.00000
     3      1      3 -0.19500000   -0.906  1.00000  1.31037
     4      1      4 -0.33750000   -1.151  2.22193 -0.68550
     5      1      5 -0.20040000   -0.703  2.37963 -2.13568
     6      1      6 0.26990000   -2.959  2.15348 -0.60328
     7      1      7 -0.39790000   -3.673  3.57047 -1.39626
     8      1      8 -0.39920000   -3.598  0.69005 -1.37348
     9      1      9 -0.17220000   -3.497  2.17455  1.08656
    10      1     10 -0.16990000   -4.848  2.28612  1.13140
    11      1     11 0.09720000    1.371  0.16636  0.60492
    12      1     12 0.09720000    1.387  1.91901  0.45433
    13      1     13 0.09720000    1.413  0.89855 -1.00754
    14      1     14 0.09400000   -0.881  0.06671 -0.44485
    15      1     15 0.13480000   -0.886  3.12624 -0.12307
    16      1     16 0.08200000   -0.966  1.49936 -2.73104
    17      1     17 0.08200000    0.379  2.52818 -2.20480
    18      1     18 0.08200000   -1.171  3.25033 -2.60463
    19      1     19 0.12710000   -3.445  3.53296 -2.46168
    20      1     20 0.12710000   -3.251  4.46888 -0.94325
    21      1     21 0.12710000   -4.754  3.53993 -1.24760
    22      1     22 0.12670000   -3.349  0.71637 -2.43545
    23      1     23 0.12670000   -4.682  0.68105 -1.24203
    24      1     24 0.12670000   -3.155 -0.18390 -0.89658
    25      1     25 0.12280000   -3.052  3.03791  1.58535
    26      1     26 0.12280000   -3.209  1.24307  1.57313

Bonds 

     1      1      2      1
     2      2      3      2
     3      3      4      2
     4      4      5      4
     5      5      6      4
     6      6      7      6
     7      7      8      6
     8      8      9      6
     9      9     10      9
    10     10     11      1
    11     11     12      1
    12     12     13      1
    13     13     14      2
    14     14     15      4
    15     15     16      5
    16     16     17      5
    17     17     18      5
    18     18     19      7
    19     19     20      7
    20     20     21      7
    21     21     22      8
    22     22     23      8
    23     23     24      8
    24     24     25      9
    25     25     26      9

Angles 

     1      1      1      2      3
     2      2      1      2      4
     3      3      2      4      5
     4      4      2      4      6
     5      5      4      6      7
     6      6      4      6      8
     7      7      4      6      9
     8      8      6      9     10
     9      9      2      1     11
    10     10      2      1     12
    11     11      2      1     13
    12     12      1      2     14
    13     13      2      4     15
    14     14      4      5     16
    15     15      4      5     17
    16     16      4      5     18
    17     17      6      7     19
    18     18      6      7     20
    19     19      6      7     21
    20     20      6      8     22
    21     21      6      8     23
    22     22      6      8     24
    23     23      6      9     25
    24     24      6      9     26
    25     25      6      4     15
    26     26      5      4      6
    27     27     17      5     18
    28     28      3      2     14
    29     29      7      6      9
    30     30     11      1     13
    31     31     23      8     24
    32     32     25      9     26
    33     33     16      5     17
    34     34     20      7     21
    35     35     10      9     26
    36     36     22      8     24
    37     37      4      2     14
    38     38     22      8     23
    39     39     19      7     20
    40     40     11      1     12
    41     41     12      1     13
    42     42      3      2      4
    43     43      5      4     15
    44     44     10      9     25
    45     45      7      6      8
    46     46     16      5     18
    47     47      8      6      9
    48     48     19      7     21

Dihedrals

     1      1      5      4      2      1 
     2      2      7      6      4      2 
     3      3     10      9      6      4 
     4      4     11      1      2      3 
     5      5     16      5      4      2 
     6      6     19      7      6      4 
     7      7     22      8      6      4 
     8      8     23      8      6      9 
     9      9     12      1      2      4 
    10     10     14      2      1     11 
    11     11     15      4      6      8 
    12     12     14      2      1     13 
    13     13      9      6      4      2 
    14     14     25      9      6      4 
    15     15     22      8      6      9 
    16     16     17      5      4      6 
    17     17      5      4      2      3 
    18     18     15      4      2      3 
    19     19     16      5      4     15 
    20     20     26      9      6      8 
    21     21     15      4      2     14 
    22     22     18      5      4      6 
    23     23     18      5      4     15 
    24     24     24      8      6      4 
    25     25     14      2      4      6 
    26     26     11      1      2      4 
    27     27      8      6      4      5 
    28     28     20      7      6      9 
    29     29     21      7      6      8 
    30     30     26      9      6      4 
    31     31     14      2      4      5 
    32     32     23      8      6      7 
    33     33     24      8      6      7 
    34     34     24      8      6      9 
    35     35     25      9      6      7 
    36     36      6      4      2      1 
    37     37     19      7      6      8 
    38     38     10      9      6      7 
    39     39     19      7      6      9 
    40     40     22      8      6      7 
    41     41     17      5      4     15 
    42     42     23      8      6      4 
    43     43     20      7      6      8 
    44     44     13      1      2      3 
    45     45     13      1      2      4 
    46     46      6      4      2      3 
    47     47     21      7      6      9 
    48     48     17      5      4      2 
    49     49     10      9      6      8 
    50     50     15      4      6      9 
    51     51      8      6      4      2 
    52     52     20      7      6      4 
    53     53      9      6      4      5 
    54     54     15      4      2      1 
    55     55     18      5      4      2 
    56     56     26      9      6      7 
    57     57     25      9      6      8 
    58     58     14      2      1     12 
    59     59     12      1      2      3 
    60     60     21      7      6      4 
    61     61      7      6      4      5 
    62     62     15      4      6      7 
    63     63     16      5      4      6 

Impropers

     1      1      2      1      3      4 
     2      2      4      2      5      6 
     3      3      6      4      7      8 
     4      4      6      9      4      7 
     5      5      1      2     11     12 
     6      6      1      2     11     13 
     7      7      2      1      3     14 
     8      8      4      2      5     15 
     9      9      5     17      4     16 
    10     10      5     18      4     16 
    11     11      7     19     20      6 
    12     12      7     19     21      6 
    13     13      8     22      6     23 
    14     14      8     22      6     24 
    15     15      9     25      6     10 
    16     16      9     26      6     10 

