LAMMPS data file Created by LigParGen - (Written by Leela S. Dodda)

      50 atoms
      49 bonds
      94 angles
     128 dihedrals
      31 impropers
 
      50 atom types
      49 bond types
      94 angle types
     128 dihedral types
      31 improper types
 
   -6.565750    43.434250 xlo xhi
   -3.774470    46.225530 ylo yhi
   -1.010810    48.989190 zlo zhi

Masses

       1     12.011  
       2     12.011  
       3     12.011  
       4     12.011  
       5     12.011  
       6     12.011  
       7     12.011  
       8     12.011  
       9     15.999  
      10     12.011  
      11     15.999  
      12     12.011  
      13     12.011  
      14     12.011  
      15     12.011  
      16     12.011  
      17     12.011  
      18     12.011  
      19      1.008  
      20      1.008  
      21      1.008  
      22      1.008  
      23      1.008  
      24      1.008  
      25      1.008  
      26      1.008  
      27      1.008  
      28      1.008  
      29      1.008  
      30      1.008  
      31      1.008  
      32      1.008  
      33      1.008  
      34      1.008  
      35      1.008  
      36      1.008  
      37      1.008  
      38      1.008  
      39      1.008  
      40      1.008  
      41      1.008  
      42      1.008  
      43      1.008  
      44      1.008  
      45      1.008  
      46      1.008  
      47      1.008  
      48      1.008  
      49      1.008  
      50      1.008  

Pair Coeffs 

       1      0.066  3.5000000 
       2      0.066  3.5000000 
       3      0.066  3.5000000 
       4      0.066  3.5000000 
       5      0.066  3.5000000 
       6      0.066  3.5000000 
       7      0.066  3.5000000 
       8      0.066  3.5000000 
       9      0.140  2.9000000 
      10      0.070  3.5500000 
      11      0.210  2.9600000 
      12      0.066  3.5000000 
      13      0.066  3.5000000 
      14      0.066  3.5000000 
      15      0.066  3.5000000 
      16      0.066  3.5000000 
      17      0.066  3.5000000 
      18      0.066  3.5000000 
      19      0.030  2.5000000 
      20      0.030  2.5000000 
      21      0.030  2.5000000 
      22      0.030  2.5000000 
      23      0.030  2.5000000 
      24      0.030  2.5000000 
      25      0.030  2.5000000 
      26      0.030  2.5000000 
      27      0.030  2.5000000 
      28      0.030  2.5000000 
      29      0.030  2.5000000 
      30      0.030  2.5000000 
      31      0.030  2.5000000 
      32      0.030  2.5000000 
      33      0.030  2.5000000 
      34      0.030  2.5000000 
      35      0.030  2.5000000 
      36      0.030  2.5000000 
      37      0.030  2.5000000 
      38      0.030  2.5000000 
      39      0.030  2.5000000 
      40      0.030  2.5000000 
      41      0.030  2.5000000 
      42      0.030  2.5000000 
      43      0.030  2.5000000 
      44      0.030  2.5000000 
      45      0.030  2.5000000 
      46      0.030  2.5000000 
      47      0.030  2.5000000 
      48      0.030  2.5000000 
      49      0.030  2.5000000 
      50      0.030  2.5000000 

Bond Coeffs 

       1   268.0000     1.5290 
       2   268.0000     1.5290 
       3   268.0000     1.5290 
       4   268.0000     1.5290 
       5   268.0000     1.5290 
       6   268.0000     1.5290 
       7   268.0000     1.5290 
       8   320.0000     1.4100 
       9   214.0000     1.3270 
      10   570.0000     1.2290 
      11   317.0000     1.5220 
      12   268.0000     1.5290 
      13   268.0000     1.5290 
      14   268.0000     1.5290 
      15   268.0000     1.5290 
      16   268.0000     1.5290 
      17   268.0000     1.5290 
      18   340.0000     1.0900 
      19   340.0000     1.0900 
      20   340.0000     1.0900 
      21   340.0000     1.0900 
      22   340.0000     1.0900 
      23   340.0000     1.0900 
      24   340.0000     1.0900 
      25   340.0000     1.0900 
      26   340.0000     1.0900 
      27   340.0000     1.0900 
      28   340.0000     1.0900 
      29   340.0000     1.0900 
      30   340.0000     1.0900 
      31   340.0000     1.0900 
      32   340.0000     1.0900 
      33   340.0000     1.0900 
      34   340.0000     1.0900 
      35   340.0000     1.0900 
      36   340.0000     1.0900 
      37   340.0000     1.0900 
      38   340.0000     1.0900 
      39   340.0000     1.0900 
      40   340.0000     1.0900 
      41   340.0000     1.0900 
      42   340.0000     1.0900 
      43   340.0000     1.0900 
      44   340.0000     1.0900 
      45   340.0000     1.0900 
      46   340.0000     1.0900 
      47   340.0000     1.0900 
      48   340.0000     1.0900 
      49   340.0000     1.0900 

Angle Coeffs 

       1     58.350    112.700
       2     58.350    112.700
       3     58.350    112.700
       4     58.350    112.700
       5     58.350    112.700
       6     58.350    112.700
       7     50.000    109.500
       8     83.000    116.900
       9     83.000    123.400
      10     81.000    111.400
      11     63.000    111.100
      12     63.000    111.100
      13     58.350    112.700
      14     58.350    112.700
      15     58.350    112.700
      16     58.350    112.700
      17     37.500    110.700
      18     37.500    110.700
      19     37.500    110.700
      20     37.500    110.700
      21     37.500    110.700
      22     37.500    110.700
      23     37.500    110.700
      24     37.500    110.700
      25     37.500    110.700
      26     37.500    110.700
      27     37.500    110.700
      28     37.500    110.700
      29     37.500    110.700
      30     37.500    110.700
      31     37.500    110.700
      32     37.500    110.700
      33     37.500    110.700
      34     35.000    109.500
      35     37.500    110.700
      36     37.500    110.700
      37     37.500    110.700
      38     37.500    110.700
      39     37.500    110.700
      40     37.500    110.700
      41     37.500    110.700
      42     37.500    110.700
      43     37.500    110.700
      44     37.500    110.700
      45     37.500    110.700
      46     37.500    110.700
      47     37.500    110.700
      48     37.500    110.700
      49     37.500    110.700
      50     58.350    112.700
      51     80.000    120.400
      52     37.500    110.700
      53     33.000    107.800
      54     37.500    110.700
      55     33.000    107.800
      56     33.000    107.800
      57     58.350    112.700
      58     50.000    109.500
      59     37.500    110.700
      60     33.000    107.800
      61     33.000    107.800
      62     33.000    107.800
      63     33.000    107.800
      64     33.000    107.800
      65     33.000    107.800
      66     58.350    112.700
      67     37.500    110.700
      68     33.000    107.800
      69     33.000    107.800
      70     33.000    107.800
      71     33.000    107.800
      72     37.500    110.700
      73     37.500    110.700
      74     33.000    107.800
      75     33.000    107.800
      76     33.000    107.800
      77     37.500    110.700
      78     58.350    112.700
      79     33.000    107.800
      80     37.500    110.700
      81     33.000    107.800
      82     37.500    110.700
      83     37.500    110.700
      84     33.000    107.800
      85     33.000    107.800
      86     33.000    107.800
      87     35.000    109.500
      88     37.500    110.700
      89     37.500    110.700
      90     33.000    107.800
      91     58.350    112.700
      92     33.000    107.800
      93     33.000    107.800
      94     33.000    107.800

Dihedral Coeffs  

       1      1.300     -0.200      0.200      0.000 
       2      1.300     -0.200      0.200      0.000 
       3      1.300     -0.200      0.200      0.000 
       4      1.300     -0.200      0.200      0.000 
       5     -1.220     -0.126      0.422      0.000 
       6      0.000      5.124      0.000      0.000 
       7      0.000      0.000     -0.553      0.000 
       8     -2.060     -0.313      0.315      0.000 
       9      1.300     -0.200      0.200      0.000 
      10      0.000      0.000      0.300      0.000 
      11      0.000      0.000      0.300      0.000 
      12      0.000      0.000      0.300      0.000 
      13      0.000      0.000     -0.100      0.000 
      14      0.000      0.000      0.300      0.000 
      15      0.000      0.000      0.300      0.000 
      16      0.000      0.000      0.300      0.000 
      17      0.000      0.000      0.300      0.000 
      18      0.000      0.000      0.300      0.000 
      19      0.000      0.000      0.300      0.000 
      20      0.000      0.000      0.300      0.000 
      21      0.000      0.000      0.300      0.000 
      22      0.000      0.000      0.468      0.000 
      23      0.000      0.000      0.300      0.000 
      24      0.000      0.000      0.300      0.000 
      25      0.000      0.000      0.300      0.000 
      26      0.000      0.000      0.300      0.000 
      27      0.000      0.000      0.300      0.000 
      28      0.000      0.000      0.132      0.000 
      29      0.000      0.000      0.300      0.000 
      30      1.300     -0.200      0.200      0.000 
      31      0.000      0.000      0.300      0.000 
      32      1.300     -0.200      0.200      0.000 
      33      0.000      0.000      0.300      0.000 
      34      0.000      0.000      0.300      0.000 
      35      0.000      0.000      0.300      0.000 
      36      0.000      0.000      0.000      0.000 
      37      0.000      0.000      0.300      0.000 
      38      0.000      0.000      0.300      0.000 
      39      0.000      0.000      0.300      0.000 
      40      0.000      0.000      0.300      0.000 
      41      0.000      0.000      0.468      0.000 
      42      0.000      0.000      0.300      0.000 
      43      0.000      0.000      0.300      0.000 
      44      0.000      0.000      0.300      0.000 
      45      0.000      0.000      0.300      0.000 
      46      0.000      0.000      0.300      0.000 
      47     -2.060     -0.313      0.315      0.000 
      48      0.000      0.000      0.300      0.000 
      49      0.000      0.000      0.300      0.000 
      50      0.000      0.000      0.468      0.000 
      51      0.000      0.000      0.300      0.000 
      52      0.000      0.000      0.300      0.000 
      53      0.000      0.000      0.300      0.000 
      54      0.000      0.000      0.300      0.000 
      55      0.000      0.000      0.300      0.000 
      56      1.711     -0.500      0.663      0.000 
      57      0.000      0.000      0.300      0.000 
      58      0.000      0.000      0.300      0.000 
      59      0.000      0.000      0.300      0.000 
      60      0.000      0.000      0.300      0.000 
      61      0.000      0.000      0.300      0.000 
      62      0.000      0.000      0.300      0.000 
      63      0.000      0.000      0.300      0.000 
      64      0.000      0.000      0.300      0.000 
      65      0.000      0.000      0.300      0.000 
      66      0.000      0.000      0.300      0.000 
      67      0.000      0.000      0.300      0.000 
      68      0.000      0.000     -0.100      0.000 
      69      0.000      0.000      0.300      0.000 
      70      0.000      0.000      0.300      0.000 
      71      0.000      0.000      0.300      0.000 
      72      0.000      0.000      0.300      0.000 
      73     -1.220     -0.126      0.422      0.000 
      74      0.000      0.000      0.300      0.000 
      75      0.000      0.000      0.300      0.000 
      76      0.000      0.000      0.300      0.000 
      77     -2.060     -0.313      0.315      0.000 
      78      4.669      5.124      0.000      0.000 
      79      0.000      0.000      0.300      0.000 
      80      0.000      0.000     -0.100      0.000 
      81      0.000      0.000      0.300      0.000 
      82      0.000      0.000      0.198      0.000 
      83      1.300     -0.200      0.200      0.000 
      84      0.000      0.000      0.300      0.000 
      85      0.000      0.000      0.300      0.000 
      86      0.000      0.000      0.300      0.000 
      87      0.000      0.000      0.300      0.000 
      88      0.000      0.000      0.300      0.000 
      89      0.000      0.000      0.300      0.000 
      90      0.000      0.000      0.300      0.000 
      91      0.000      0.000      0.300      0.000 
      92      0.000      0.000     -0.553      0.000 
      93      0.000      0.000      0.300      0.000 
      94      0.000      0.000      0.300      0.000 
      95      1.300     -0.200      0.200      0.000 
      96      0.000      0.000      0.300      0.000 
      97      0.000      0.000      0.300      0.000 
      98      1.711     -0.500      0.663      0.000 
      99      0.000      0.000      0.300      0.000 
     100      0.000      0.000      0.300      0.000 
     101      0.000      0.000      0.300      0.000 
     102      0.000      0.000      0.468      0.000 
     103      0.000      0.000      0.300      0.000 
     104      0.000      0.000      0.300      0.000 
     105      0.000      0.000      0.300      0.000 
     106      0.000      0.000      0.300      0.000 
     107      0.000      0.000      0.300      0.000 
     108      0.000      0.000      0.300      0.000 
     109      0.000      0.000      0.300      0.000 
     110      0.000      0.000      0.300      0.000 
     111      0.000      0.000      0.300      0.000 
     112      0.000      0.000      0.300      0.000 
     113      0.000      0.000      0.300      0.000 
     114      0.000      0.000      0.300      0.000 
     115      0.000      0.000      0.300      0.000 
     116      0.000      0.000      0.300      0.000 
     117      0.000      0.000      0.000      0.000 
     118      1.300     -0.200      0.200      0.000 
     119      0.000      0.000      0.300      0.000 
     120      0.000      0.000      0.300      0.000 
     121      0.000      0.000      0.300      0.000 
     122      0.000      0.000      0.300      0.000 
     123      0.000      0.000      0.000      0.000 
     124      0.000      0.000      0.300      0.000 
     125      0.000      0.000      0.300      0.000 
     126      0.000      0.000      0.300      0.000 
     127      0.000      0.000      0.300      0.000 
     128      1.300     -0.200      0.200      0.000 

Improper Coeffs 

       1      0.000      -1       2 
       2      0.000      -1       2 
       3     10.500      -1       2 
       4      0.000      -1       2 
       5      0.000      -1       2 
       6      0.000      -1       2 
       7      0.000      -1       2 
       8      0.000      -1       2 
       9      0.000      -1       2 
      10      0.000      -1       2 
      11      0.000      -1       2 
      12      0.000      -1       2 
      13      0.000      -1       2 
      14      0.000      -1       2 
      15      0.000      -1       2 
      16      0.000      -1       2 
      17      0.000      -1       2 
      18      0.000      -1       2 
      19      0.000      -1       2 
      20      0.000      -1       2 
      21      0.000      -1       2 
      22      0.000      -1       2 
      23      0.000      -1       2 
      24      0.000      -1       2 
      25      0.000      -1       2 
      26      0.000      -1       2 
      27      0.000      -1       2 
      28      0.000      -1       2 
      29      0.000      -1       2 
      30      0.000      -1       2 
      31      0.000      -1       2 

Atoms 

     1      1      1 -0.24170000    1.000  1.00000  0.00000
     2      1      2 -0.18810000   -0.523  1.00000  0.00000
     3      1      3 0.06290000   -1.112  1.00000  1.41953
     4      1      4 -0.19410000   -2.653  1.00183  1.35501
     5      1      5 -0.17510000   -3.306  1.00013  2.74374
     6      1      6 -0.11500000   -4.846  1.06654  2.71691
     7      1      7 -0.23430000   -5.474 -0.11829  1.98170
     8      1      8 -0.23630000   -5.381  1.11763  4.15201
     9      1      9 -0.35920000   -0.669 -0.21764  2.05742
    10      1     10 0.44420000   -0.135 -0.12825  3.30482
    11      1     11 -0.46280000   -0.006  0.92313  3.92184
    12      1     12 -0.09820000    0.288 -1.50097  3.85274
    13      1     13 -0.23140000   -0.213 -2.64029  2.94287
    14      1     14 -0.02770000    1.823 -1.58758  4.19326
    15      1     15 -0.23160000    2.178 -2.99217  4.73998
    16      1     16 -0.23830000    2.686 -1.35646  2.93221
    17      1     17 -0.17310000    2.275 -0.53371  5.25475
    18      1     18 -0.23370000    1.538 -0.57173  6.58904
    19      1     19 0.08580000    1.377  0.81573 -1.01081
    20      1     20 0.08580000    1.404  0.21771  0.64621
    21      1     21 0.08580000    1.390  1.96482  0.33894
    22      1     22 0.10170000   -0.856  0.10033 -0.53239
    23      1     23 0.10170000   -0.881  1.87021 -0.56165
    24      1     24 0.13420000   -0.764  1.89452  1.94929
    25      1     25 0.10210000   -2.979  0.10990  0.80796
    26      1     26 0.10210000   -2.993  1.87990  0.79199
    27      1     27 0.09570000   -2.926  1.86224  3.30713
    28      1     28 0.09570000   -3.000  0.10087  3.29144
    29      1     29 0.09540000   -5.151  1.98902  2.20724
    30      1     30 0.08100000   -5.141 -1.07155  2.40597
    31      1     31 0.08100000   -5.221 -0.10770  0.91776
    32      1     32 0.08100000   -6.566 -0.07967  2.05234
    33      1     33 0.08220000   -5.105  0.21583  4.71008
    34      1     34 0.08220000   -6.474  1.19563  4.15936
    35      1     35 0.08220000   -4.980  1.98446  4.68774
    36      1     36 0.12900000   -0.285 -1.61822  4.78202
    37      1     37 0.09230000    0.276 -2.62843  1.96320
    38      1     38 0.09230000   -1.291 -2.54806  2.76807
    39      1     39 0.09230000   -0.055 -3.62269  3.39528
    40      1     40 0.08470000    2.032 -3.77447  3.98829
    41      1     41 0.08470000    1.569 -3.24916  5.61293
    42      1     42 0.08470000    3.232 -3.04206  5.03825
    43      1     43 0.08600000    2.439 -2.05927  2.13081
    44      1     44 0.08600000    3.751 -1.48796  3.15766
    45      1     45 0.08600000    2.561 -0.33989  2.54770
    46      1     46 0.09780000    2.196  0.47785  4.84086
    47      1     47 0.09780000    3.344 -0.67347  5.46330
    48      1     48 0.08150000    0.464 -0.40746  6.47068
    49      1     49 0.08150000    1.919  0.22128  7.24154
    50      1     50 0.08150000    1.690 -1.52299  7.10628

Bonds 

     1      1      2      1
     2      2      3      2
     3      3      4      3
     4      4      5      4
     5      5      6      5
     6      6      7      6
     7      7      8      6
     8      8      9      3
     9      9     10      9
    10     10     11     10
    11     11     12     10
    12     12     13     12
    13     13     14     12
    14     14     15     14
    15     15     16     14
    16     16     17     14
    17     17     18     17
    18     18     19      1
    19     19     20      1
    20     20     21      1
    21     21     22      2
    22     22     23      2
    23     23     24      3
    24     24     25      4
    25     25     26      4
    26     26     27      5
    27     27     28      5
    28     28     29      6
    29     29     30      7
    30     30     31      7
    31     31     32      7
    32     32     33      8
    33     33     34      8
    34     34     35      8
    35     35     36     12
    36     36     37     13
    37     37     38     13
    38     38     39     13
    39     39     40     15
    40     40     41     15
    41     41     42     15
    42     42     43     16
    43     43     44     16
    44     44     45     16
    45     45     46     17
    46     46     47     17
    47     47     48     18
    48     48     49     18
    49     49     50     18

Angles 

     1      1      1      2      3
     2      2      2      3      4
     3      3      3      4      5
     4      4      4      5      6
     5      5      5      6      7
     6      6      5      6      8
     7      7      2      3      9
     8      8      3      9     10
     9      9      9     10     11
    10     10      9     10     12
    11     11     10     12     13
    12     12     10     12     14
    13     13     12     14     15
    14     14     12     14     16
    15     15     12     14     17
    16     16     14     17     18
    17     17      2      1     19
    18     18      2      1     20
    19     19      2      1     21
    20     20      1      2     22
    21     21      1      2     23
    22     22      2      3     24
    23     23      3      4     25
    24     24      3      4     26
    25     25      4      5     27
    26     26      4      5     28
    27     27      5      6     29
    28     28      6      7     30
    29     29      6      7     31
    30     30      6      7     32
    31     31      6      8     33
    32     32      6      8     34
    33     33      6      8     35
    34     34     10     12     36
    35     35     12     13     37
    36     36     12     13     38
    37     37     12     13     39
    38     38     14     15     40
    39     39     14     15     41
    40     40     14     15     42
    41     41     14     16     43
    42     42     14     16     44
    43     43     14     16     45
    44     44     14     17     46
    45     45     14     17     47
    46     46     17     18     48
    47     47     17     18     49
    48     48     17     18     50
    49     49     18     17     47
    50     50     13     12     14
    51     51     11     10     12
    52     52      8      6     29
    53     53     48     18     50
    54     54     13     12     36
    55     55     25      4     26
    56     56     19      1     21
    57     57     16     14     17
    58     58      4      3      9
    59     59      4      3     24
    60     60     30      7     32
    61     61     43     16     45
    62     62     38     13     39
    63     63     49     18     50
    64     64     20      1     21
    65     65     34      8     35
    66     66     15     14     16
    67     67      5      4     26
    68     68     37     13     39
    69     69     27      5     28
    70     70     44     16     45
    71     71     31      7     32
    72     72      5      4     25
    73     73      6      5     28
    74     74     41     15     42
    75     75     48     18     49
    76     76     37     13     38
    77     77     14     12     36
    78     78     15     14     17
    79     79     33      8     34
    80     80      6      5     27
    81     81     43     16     44
    82     82      7      6     29
    83     83     18     17     46
    84     84     46     17     47
    85     85     22      2     23
    86     86     40     15     42
    87     87      9      3     24
    88     88      3      2     22
    89     89      3      2     23
    90     90     40     15     41
    91     91      7      6      8
    92     92     30      7     31
    93     93     19      1     20
    94     94     33      8     35

Dihedrals

     1      1      4      3      2      1 
     2      2      5      4      3      2 
     3      3      6      5      4      3 
     4      4      7      6      5      4 
     5      5     10      9      3      2 
     6      6     11     10      9      3 
     7      7     13     12     10      9 
     8      8     15     14     12     10 
     9      9     18     17     14     12 
    10     10     19      1      2      3 
    11     11     30      7      6      5 
    12     12     33      8      6      5 
    13     13     37     13     12     10 
    14     14     40     15     14     12 
    15     15     43     16     14     12 
    16     16     48     18     17     14 
    17     17     31      7      6      5 
    18     18     29      6      5      4 
    19     19     33      8      6     29 
    20     20     34      8      6      7 
    21     21     45     16     14     12 
    22     22     26      4      3      9 
    23     23     50     18     17     14 
    24     24     44     16     14     15 
    25     25     50     18     17     47 
    26     26     39     13     12     14 
    27     27     35      8      6     29 
    28     28     36     12     10      9 
    29     29     46     17     14     12 
    30     30      8      6      5      4 
    31     31     41     15     14     12 
    32     32     16     14     12     13 
    33     33     34      8      6     29 
    34     34     45     16     14     15 
    35     35     32      7      6     29 
    36     36     13     12     10     11 
    37     37     25      4      5      6 
    38     38     38     13     12     36 
    39     39     28      5      4      3 
    40     40     23      2      3      4 
    41     41     25      4      3      9 
    42     42     24      3      2     22 
    43     43     48     18     17     47 
    44     44     32      7      6      8 
    45     45     34      8      6      5 
    46     46     49     18     17     46 
    47     47     16     14     12     10 
    48     48     47     17     14     16 
    49     49     36     12     14     15 
    50     50     23      2      3      9 
    51     51     29      6      5     27 
    52     52     42     15     14     17 
    53     53     26      4      3      2 
    54     54     28      5      6      7 
    55     55     39     13     12     36 
    56     56      9      3      2      1 
    57     57     27      5      6      8 
    58     58     30      7      6     29 
    59     59     43     16     14     17 
    60     60     30      7      6      8 
    61     61     38     13     12     14 
    62     62     22      2      1     20 
    63     63     23      2      1     19 
    64     64     25      4      3     24 
    65     65     45     16     14     17 
    66     66     27      5      4     25 
    67     67     43     16     14     15 
    68     68     38     13     12     10 
    69     69     21      1      2      3 
    70     70     46     17     14     16 
    71     71     27      5      6      7 
    72     72     25      4      3      2 
    73     73     10      9      3      4 
    74     74     40     15     14     16 
    75     75     37     13     12     36 
    76     76     24      3      4      5 
    77     77     17     14     12     10 
    78     78     12     10      9      3 
    79     79     48     18     17     46 
    80     80     39     13     12     10 
    81     81     22      2      1     19 
    82     82     24      3      9     10 
    83     83     18     17     14     15 
    84     84     42     15     14     12 
    85     85     31      7      6      8 
    86     86     32      7      6      5 
    87     87     28      5      4     26 
    88     88     28      5      6      8 
    89     89     23      2      1     21 
    90     90     49     18     17     14 
    91     91     44     16     14     12 
    92     92     14     12     10      9 
    93     93     33      8      6      7 
    94     94     36     12     14     16 
    95     95     17     14     12     13 
    96     96     35      8      6      5 
    97     97     46     17     14     15 
    98     98      9      3      4      5 
    99     99     31      7      6     29 
   100    100     24      3      2     23 
   101    101     24      3      2      1 
   102    102     22      2      3      9 
   103    103     20      1      2      3 
   104    104     41     15     14     16 
   105    105     40     15     14     17 
   106    106     28      5      4     25 
   107    107     44     16     14     17 
   108    108     37     13     12     14 
   109    109     36     12     14     17 
   110    110     26      4      5      6 
   111    111     27      5      4     26 
   112    112     27      5      4      3 
   113    113     23      2      1     20 
   114    114     22      2      1     21 
   115    115     22      2      3      4 
   116    116     29      6      5     28 
   117    117     14     12     10     11 
   118    118     18     17     14     16 
   119    119     35      8      6      7 
   120    120     26      4      3     24 
   121    121     49     18     17     47 
   122    122     50     18     17     46 
   123    123     36     12     10     11 
   124    124     47     17     14     15 
   125    125     47     17     14     12 
   126    126     42     15     14     16 
   127    127     41     15     14     17 
   128    128     15     14     12     13 

Impropers

     1      1      6      5      7      8 
     2      2      3      9      2      4 
     3      3     10      9     11     12 
     4      4     12     10     13     14 
     5      5     14     12     15     16 
     6      6     14     17     12     15 
     7      7      1      2     19     20 
     8      8      1      2     19     21 
     9      9      2      1      3     22 
    10     10      2      1      3     23 
    11     11      3      2      4     24 
    12     12      4     25      3      5 
    13     13      4     26      3      5 
    14     14      5     27      4      6 
    15     15      5      4     28      6 
    16     16      6      5     29      7 
    17     17      7     30     31      6 
    18     18      7     30      6     32 
    19     19      8     33     34      6 
    20     20      8     33     35      6 
    21     21     12     10     36     13 
    22     22     13     37     12     38 
    23     23     13     37     12     39 
    24     24     15     41     14     40 
    25     25     15     42     14     40 
    26     26     16     43     44     14 
    27     27     16     43     45     14 
    28     28     17     18     46     14 
    29     29     17     18     14     47 
    30     30     18     49     17     48 
    31     31     18     17     50     48 

