LAMMPS data file Created by LigParGen - (Written by Leela S. Dodda)

      25 atoms
      25 bonds
      45 angles
      61 dihedrals
      14 impropers
 
      25 atom types
      25 bond types
      45 angle types
      61 dihedral types
      14 improper types
 
   -5.444670    44.555330 xlo xhi
   -1.153170    48.846830 ylo yhi
   -2.618070    47.381930 zlo zhi

Masses

       1     12.011  
       2     12.011  
       3     12.011  
       4     12.011  
       5     15.999  
       6     12.011  
       7     12.011  
       8     15.999  
       9     15.999  
      10     12.011  
      11     15.999  
      12     12.011  
      13     12.011  
      14     14.007  
      15      1.008  
      16      1.008  
      17      1.008  
      18      1.008  
      19      1.008  
      20      1.008  
      21      1.008  
      22      1.008  
      23      1.008  
      24      1.008  
      25      1.008  

Pair Coeffs 

       1      0.066  3.5000000 
       2      0.066  3.5000000 
       3      0.066  3.5000000 
       4      0.066  3.5000000 
       5      0.140  2.9000000 
       6      0.070  3.5500000 
       7      0.066  3.5000000 
       8      0.210  2.9600000 
       9      0.140  2.9000000 
      10      0.070  3.5500000 
      11      0.210  2.9600000 
      12      0.066  3.5000000 
      13      0.066  3.3000000 
      14      0.170  3.2000000 
      15      0.030  2.5000000 
      16      0.030  2.5000000 
      17      0.030  2.5000000 
      18      0.030  2.5000000 
      19      0.030  2.5000000 
      20      0.030  2.5000000 
      21      0.030  2.5000000 
      22      0.030  2.5000000 
      23      0.030  2.5000000 
      24      0.030  2.5000000 
      25      0.030  2.5000000 

Bond Coeffs 

       1   268.0000     1.5290 
       2   268.0000     1.5290 
       3   268.0000     1.5290 
       4   320.0000     1.3800 
       5   214.0000     1.3270 
       6   317.0000     1.5220 
       7   570.0000     1.2290 
       8   320.0000     1.3800 
       9   214.0000     1.3270 
      10   570.0000     1.2290 
      11   268.0000     1.5290 
      12   390.0000     1.4700 
      13   650.0000     1.1570 
      14   340.0000     1.0900 
      15   340.0000     1.0900 
      16   340.0000     1.0900 
      17   340.0000     1.0900 
      18   340.0000     1.0900 
      19   340.0000     1.0900 
      20   340.0000     1.0900 
      21   340.0000     1.0900 
      22   340.0000     1.0900 
      23   340.0000     1.0900 
      24   340.0000     1.0900 
      25   317.0000     1.5220 

Angle Coeffs 

       1     58.350    112.700
       2     58.350    112.700
       3     50.000    109.500
       4     83.000    116.900
       5     81.000    111.400
       6     83.000    123.400
       7     50.000    109.500
       8     83.000    116.900
       9     83.000    123.400
      10     58.350    112.700
      11     58.350    112.700
      12    150.000    180.000
      13     37.500    110.700
      14     37.500    110.700
      15     37.500    110.700
      16     37.500    110.700
      17     37.500    110.700
      18     37.500    110.700
      19     37.500    110.700
      20     35.000    109.500
      21     35.000    109.500
      22     35.000    109.500
      23     37.500    110.700
      24     33.000    107.800
      25     33.000    107.800
      26     33.000    107.800
      27     37.500    110.700
      28     80.000    120.400
      29     92.600    111.550
      30     63.000    111.100
      31     33.000    107.800
      32     51.650    110.580
      33     35.000    109.500
      34     81.000    111.400
      35     37.500    110.700
      36     37.500    110.700
      37     33.000    107.800
      38     80.000    120.400
      39     33.000    107.800
      40     33.000    107.800
      41     58.350    112.700
      42     35.000    108.500
      43     35.000    109.500
      44     35.000    109.500
      45     37.500    110.700

Dihedral Coeffs  

       1      1.300     -0.200      0.200      0.000 
       2      1.711     -0.500      0.663      0.000 
       3      0.650     -0.250      0.670      0.000 
       4      4.669      5.124      0.000      0.000 
       5      0.650     -0.250      0.670      0.000 
       6      0.000      5.124      0.000      0.000 
       7      0.000      0.000      0.000      0.000 
       8      0.000      0.000      0.300      0.000 
       9      0.000      0.000      0.132      0.000 
      10      0.000      0.000      0.468      0.000 
      11      1.300     -0.200      0.200      0.000 
      12      0.000      0.000      0.760      0.000 
      13     -2.060     -0.313      0.315      0.000 
      14      0.000      0.000      0.000      0.000 
      15      0.000     -0.650      0.000      0.000 
      16      0.000      0.000      0.300      0.000 
      17      0.000      0.000      0.300      0.000 
      18      0.000      0.000      0.300      0.000 
      19      0.000      0.000      0.300      0.000 
      20      0.000      0.000     -0.553      0.000 
      21      0.000      0.000      0.468      0.000 
      22      0.000      0.000      0.000      0.000 
      23      0.000      0.000      0.300      0.000 
      24      0.000      0.000      0.132      0.000 
      25      0.000      0.000      0.300      0.000 
      26      0.000      0.000      0.300      0.000 
      27      0.000      0.000      0.300      0.000 
      28      1.711     -0.500      0.663      0.000 
      29      0.000      0.000      0.300      0.000 
      30      0.000      5.124      0.000      0.000 
      31      0.000      0.000      0.300      0.000 
      32      0.000      0.000     -0.100      0.000 
      33      1.300     -0.200      0.200      0.000 
      34      0.000      0.000      0.300      0.000 
      35      0.000      0.000     -0.553      0.000 
      36      0.000      0.000      0.300      0.000 
      37      0.000      0.000      0.760      0.000 
      38      0.000      0.000      0.132      0.000 
      39      0.000      0.000      0.300      0.000 
      40      0.000      0.000      0.300      0.000 
      41      0.000      0.000      0.300      0.000 
      42      0.000      0.000      0.366      0.000 
      43      0.000      0.000      0.300      0.000 
      44      0.000      0.000      0.300      0.000 
      45      0.000      0.000      0.000      0.000 
      46      0.000      0.000      0.000      0.000 
      47      0.000      0.000      0.000      0.000 
      48     -0.375     -1.358      0.004      0.000 
      49      0.000      0.000      0.000      0.000 
      50      0.000      0.000      0.000      0.000 
      51      0.000      0.000      0.300      0.000 
      52      1.711     -0.500      0.663      0.000 
      53      0.000      0.000      0.300      0.000 
      54      4.669      5.124      0.000      0.000 
      55      1.711     -0.500      0.663      0.000 
      56      0.000      0.000      0.132      0.000 
      57      1.300     -0.200      0.200      0.000 
      58     -0.375     -1.358      0.004      0.000 
      59      0.000      0.000      0.300      0.000 
      60      0.000      0.000      0.000      0.000 
      61      0.000      0.000      0.300      0.000 

Improper Coeffs 

       1     10.500      -1       2 
       2      0.000      -1       2 
       3      0.000      -1       2 
       4      0.000      -1       2 
       5      0.000      -1       2 
       6      0.000      -1       2 
       7      0.000      -1       2 
       8      0.000      -1       2 
       9      0.000      -1       2 
      10      0.000      -1       2 
      11      0.000      -1       2 
      12      0.000      -1       2 
      13      0.000      -1       2 
      14     10.500      -1       2 

Atoms 

     1      1      1 -0.24250000    1.000  1.00000  0.00000
     2      1      2 -0.17140000   -0.525  1.00000  0.00000
     3      1      3 -0.16670000   -1.166  1.00000  1.39636
     4      1      4 0.22520000   -2.692  1.00174  1.42504
     5      1      5 -0.36600000   -3.275  0.18390  0.40716
     6      1      6 0.45450000   -3.658  0.85939 -0.70936
     7      1      7 -0.25860000   -4.423 -0.02622 -1.64293
     8      1      8 -0.44600000   -3.418  2.03777 -0.93346
     9      1      9 -0.31450000   -3.035  0.45461  2.70651
    10      1     10 0.45060000   -2.009 -0.31912  3.15898
    11      1     11 -0.35210000   -2.075 -0.99587  4.17066
    12      1     12 -0.03750000   -0.852 -0.24251  2.22204
    13      1     13 0.14260000    0.443 -0.02906  2.98906
    14      1     14 -0.34610000    1.516  0.14746  3.62665
    15      1     15 0.09280000    1.370  0.85345 -1.01965
    16      1     16 0.09280000    1.417  0.19157  0.60371
    17      1     17 0.09280000    1.391  1.95307  0.36928
    18      1     18 0.10900000   -0.864  0.12689 -0.56795
    19      1     19 0.10900000   -0.852  1.89254 -0.54519
    20      1     20 0.15070000   -0.826  1.89482  1.93897
    21      1     21 0.18240000   -3.087  2.02356  1.39977
    22      1     22 0.13560000   -4.461 -1.05222 -1.26502
    23      1     23 0.13560000   -3.930 -0.03520 -2.61807
    24      1     24 0.13560000   -5.445  0.35178 -1.73135
    25      1     25 0.19210000   -0.819 -1.15317  1.61567

Bonds 

     1      1      2      1
     2      2      3      2
     3      3      4      3
     4      4      5      4
     5      5      6      5
     6      6      7      6
     7      7      8      6
     8      8      9      4
     9      9     10      9
    10     10     11     10
    11     11     12      3
    12     12     13     12
    13     13     14     13
    14     14     15      1
    15     15     16      1
    16     16     17      1
    17     17     18      2
    18     18     19      2
    19     19     20      3
    20     20     21      4
    21     21     22      7
    22     22     23      7
    23     23     24      7
    24     24     25     12
    25     25     12     10

Angles 

     1      1      1      2      3
     2      2      2      3      4
     3      3      3      4      5
     4      4      4      5      6
     5      5      5      6      7
     6      6      5      6      8
     7      7      3      4      9
     8      8      4      9     10
     9      9      9     10     11
    10     10      2      3     12
    11     11      3     12     13
    12     12     12     13     14
    13     13      2      1     15
    14     14      2      1     16
    15     15      2      1     17
    16     16      1      2     18
    17     17      1      2     19
    18     18      2      3     20
    19     19      3      4     21
    20     20      6      7     22
    21     21      6      7     23
    22     22      6      7     24
    23     23      3     12     25
    24     24     23      7     24
    25     25     18      2     19
    26     26     22      7     24
    27     27      3      2     18
    28     28     11     10     12
    29     29      5      4      9
    30     30      3     12     10
    31     31     22      7     23
    32     32     10     12     13
    33     33     10     12     25
    34     34      9     10     12
    35     35     12      3     20
    36     36      3      2     19
    37     37     15      1     16
    38     38      7      6      8
    39     39     15      1     17
    40     40     16      1     17
    41     41      4      3     12
    42     42     13     12     25
    43     43      9      4     21
    44     44      5      4     21
    45     45      4      3     20

Dihedrals

     1      1      4      3      2      1 
     2      2      5      4      3      2 
     3      3      6      5      4      3 
     4      4      7      6      5      4 
     5      5     10      9      4      3 
     6      6     11     10      9      4 
     7      7     14     13     12      3 
     8      8     15      1      2      3 
     9      9     22      7      6      5 
    10     10     20      3      4      5 
    11     11     10     12      3      4 
    12     12     21      4      9     10 
    13     13     10     12      3      2 
    14     14     23      7      6      8 
    15     15     13     12      3      2 
    16     16     18      2      1     17 
    17     17     21      4      3     20 
    18     18     19      2      3     12 
    19     19     18      2      1     16 
    20     20      9     10     12      3 
    21     21     20      3      4      9 
    22     22     11     10     12      3 
    23     23     21      4      3      2 
    24     24     25     12     10      9 
    25     25     19      2      3      4 
    26     26     25     12      3      2 
    27     27     20      3      2     19 
    28     28     12      3      4      5 
    29     29     20      3      2      1 
    30     30      8      6      5      4 
    31     31     21      4      3     12 
    32     32     20      3     12     10 
    33     33     12      3      2      1 
    34     34     20      3      2     18 
    35     35     13     12     10      9 
    36     36     25     12      3      4 
    37     37     21      4      5      6 
    38     38     23      7      6      5 
    39     39     19      2      1     16 
    40     40     18      2      3      4 
    41     41     19      2      1     17 
    42     42     20      3     12     13 
    43     43     18      2      1     15 
    44     44     18      2      3     12 
    45     45     25     12     13     14 
    46     46     22      7      6      8 
    47     47     13     12     10     11 
    48     48     10      9      4      5 
    49     49     25     12     10     11 
    50     50     14     13     12     10 
    51     51     16      1      2      3 
    52     52      9      4      3      2 
    53     53     25     12      3     20 
    54     54     12     10      9      4 
    55     55     12      3      4      9 
    56     56     24      7      6      5 
    57     57     13     12      3      4 
    58     58      9      4      5      6 
    59     59     17      1      2      3 
    60     60     24      7      6      8 
    61     61     19      2      1     15 

Impropers

     1      1      6      5      7      8 
     2      2      4      9      3      5 
     3      3      3      4      2     12 
     4      4     12     10      3     13 
     5      5      1      2     15     16 
     6      6      1     17     15      2 
     7      7      2      1     18      3 
     8      8      2      1     19      3 
     9      9      3      4      2     20 
    10     10      4      5      3     21 
    11     11      7     22     23      6 
    12     12      7     22      6     24 
    13     13     12     25     10      3 
    14     14     10      9     11     12 

