LAMMPS data file Created by LigParGen - (Written by Leela S. Dodda)

      56 atoms
      58 bonds
     120 angles
     198 dihedrals
      40 impropers
 
      56 atom types
      58 bond types
     120 angle types
     198 dihedral types
      40 improper types
 
   -4.295110    45.704890 xlo xhi
   -4.477810    45.522190 ylo yhi
   -1.029160    48.970840 zlo zhi

Masses

       1     12.011  
       2     12.011  
       3     12.011  
       4     12.011  
       5     12.011  
       6     12.011  
       7     12.011  
       8     12.011  
       9     12.011  
      10     12.011  
      11     12.011  
      12     12.011  
      13     12.011  
      14     12.011  
      15     12.011  
      16     18.998  
      17     12.011  
      18     12.011  
      19     12.011  
      20     12.011  
      21     12.011  
      22      1.008  
      23      1.008  
      24      1.008  
      25      1.008  
      26      1.008  
      27      1.008  
      28      1.008  
      29      1.008  
      30      1.008  
      31      1.008  
      32      1.008  
      33      1.008  
      34      1.008  
      35      1.008  
      36      1.008  
      37      1.008  
      38      1.008  
      39      1.008  
      40      1.008  
      41      1.008  
      42      1.008  
      43      1.008  
      44      1.008  
      45      1.008  
      46      1.008  
      47      1.008  
      48      1.008  
      49      1.008  
      50      1.008  
      51      1.008  
      52      1.008  
      53      1.008  
      54      1.008  
      55      1.008  
      56      1.008  

Pair Coeffs 

       1      0.066  3.5000000 
       2      0.066  3.5000000 
       3      0.066  3.5000000 
       4      0.066  3.5000000 
       5      0.066  3.5000000 
       6      0.066  3.5000000 
       7      0.066  3.5000000 
       8      0.066  3.5000000 
       9      0.066  3.5000000 
      10      0.066  3.5000000 
      11      0.066  3.5000000 
      12      0.066  3.5000000 
      13      0.066  3.5000000 
      14      0.066  3.5000000 
      15      0.066  3.5000000 
      16      0.060  2.9000000 
      17      0.066  3.5000000 
      18      0.066  3.5000000 
      19      0.066  3.5000000 
      20      0.066  3.5000000 
      21      0.066  3.5000000 
      22      0.030  2.5000000 
      23      0.030  2.5000000 
      24      0.030  2.5000000 
      25      0.030  2.5000000 
      26      0.030  2.5000000 
      27      0.030  2.5000000 
      28      0.030  2.5000000 
      29      0.030  2.5000000 
      30      0.030  2.5000000 
      31      0.030  2.5000000 
      32      0.030  2.5000000 
      33      0.030  2.5000000 
      34      0.030  2.5000000 
      35      0.030  2.5000000 
      36      0.030  2.5000000 
      37      0.030  2.5000000 
      38      0.030  2.5000000 
      39      0.030  2.5000000 
      40      0.030  2.5000000 
      41      0.030  2.5000000 
      42      0.030  2.5000000 
      43      0.030  2.5000000 
      44      0.030  2.5000000 
      45      0.030  2.5000000 
      46      0.030  2.5000000 
      47      0.030  2.5000000 
      48      0.030  2.5000000 
      49      0.030  2.5000000 
      50      0.030  2.5000000 
      51      0.030  2.5000000 
      52      0.030  2.5000000 
      53      0.030  2.5000000 
      54      0.030  2.5000000 
      55      0.030  2.5000000 
      56      0.030  2.5000000 

Bond Coeffs 

       1   268.0000     1.5290 
       2   268.0000     1.5290 
       3   268.0000     1.5290 
       4   268.0000     1.5290 
       5   268.0000     1.5290 
       6   268.0000     1.5290 
       7   268.0000     1.5290 
       8   268.0000     1.5290 
       9   268.0000     1.5290 
      10   268.0000     1.5290 
      11   268.0000     1.5290 
      12   268.0000     1.5290 
      13   268.0000     1.5290 
      14   268.0000     1.5290 
      15   367.0000     1.3600 
      16   268.0000     1.5290 
      17   268.0000     1.5290 
      18   268.0000     1.5290 
      19   268.0000     1.5290 
      20   268.0000     1.5290 
      21   340.0000     1.0900 
      22   340.0000     1.0900 
      23   340.0000     1.0900 
      24   340.0000     1.0900 
      25   340.0000     1.0900 
      26   340.0000     1.0900 
      27   340.0000     1.0900 
      28   340.0000     1.0900 
      29   340.0000     1.0900 
      30   340.0000     1.0900 
      31   340.0000     1.0900 
      32   340.0000     1.0900 
      33   340.0000     1.0900 
      34   340.0000     1.0900 
      35   340.0000     1.0900 
      36   340.0000     1.0900 
      37   340.0000     1.0900 
      38   340.0000     1.0900 
      39   340.0000     1.0900 
      40   340.0000     1.0900 
      41   340.0000     1.0900 
      42   340.0000     1.0900 
      43   340.0000     1.0900 
      44   340.0000     1.0900 
      45   340.0000     1.0900 
      46   340.0000     1.0900 
      47   340.0000     1.0900 
      48   340.0000     1.0900 
      49   340.0000     1.0900 
      50   340.0000     1.0900 
      51   340.0000     1.0900 
      52   340.0000     1.0900 
      53   340.0000     1.0900 
      54   340.0000     1.0900 
      55   340.0000     1.0900 
      56   268.0000     1.5290 
      57   268.0000     1.5290 
      58   268.0000     1.5290 

Angle Coeffs 

       1     58.350    112.700
       2     58.350    112.700
       3     58.350    112.700
       4     58.350    112.700
       5     58.350    112.700
       6     58.350    112.700
       7     58.350    112.700
       8     58.350    112.700
       9     58.350    112.700
      10     58.350    112.700
      11     58.350    112.700
      12     58.350    112.700
      13     58.350    112.700
      14     50.000    109.500
      15     58.350    112.700
      16     58.350    112.700
      17     58.350    112.700
      18     58.350    112.700
      19     58.350    112.700
      20     37.500    110.700
      21     37.500    110.700
      22     37.500    110.700
      23     37.500    110.700
      24     37.500    110.700
      25     37.500    110.700
      26     37.500    110.700
      27     37.500    110.700
      28     37.500    110.700
      29     37.500    110.700
      30     37.500    110.700
      31     37.500    110.700
      32     37.500    110.700
      33     37.500    110.700
      34     37.500    110.700
      35     37.500    110.700
      36     37.500    110.700
      37     37.500    110.700
      38     37.500    110.700
      39     37.500    110.700
      40     37.500    110.700
      41     37.500    110.700
      42     37.500    110.700
      43     37.500    110.700
      44     37.500    110.700
      45     37.500    110.700
      46     37.500    110.700
      47     37.500    110.700
      48     37.500    110.700
      49     37.500    110.700
      50     37.500    110.700
      51     37.500    110.700
      52     37.500    110.700
      53     37.500    110.700
      54     37.500    110.700
      55     58.350    112.700
      56     37.500    110.700
      57     33.000    107.800
      58     33.000    107.800
      59     50.000    109.500
      60     33.000    107.800
      61     37.500    110.700
      62     58.350    112.700
      63     37.500    110.700
      64     37.500    110.700
      65     33.000    107.800
      66     58.350    112.700
      67     37.500    110.700
      68     37.500    110.700
      69     37.500    110.700
      70     33.000    107.800
      71     37.500    110.700
      72     33.000    107.800
      73     58.350    112.700
      74     33.000    107.800
      75     58.350    112.700
      76     58.350    112.700
      77     37.500    110.700
      78     33.000    107.800
      79     37.500    110.700
      80     37.500    110.700
      81     37.500    110.700
      82     33.000    107.800
      83     37.500    110.700
      84     37.500    110.700
      85     33.000    107.800
      86     58.350    112.700
      87     37.500    110.700
      88     33.000    107.800
      89     58.350    112.700
      90     40.000    107.000
      91     37.500    110.700
      92     37.500    110.700
      93     33.000    107.800
      94     37.500    110.700
      95     37.500    110.700
      96     58.350    112.700
      97     37.500    110.700
      98     33.000    107.800
      99     37.500    110.700
     100     33.000    107.800
     101     33.000    107.800
     102     37.500    110.700
     103     37.500    110.700
     104     37.500    110.700
     105     37.500    110.700
     106     58.350    112.700
     107     37.500    110.700
     108     37.500    110.700
     109     33.000    107.800
     110     58.350    112.700
     111     37.500    110.700
     112     37.500    110.700
     113     37.500    110.700
     114     33.000    107.800
     115     58.350    112.700
     116     37.500    110.700
     117     33.000    107.800
     118     58.350    112.700
     119     37.500    110.700
     120     37.500    110.700

Dihedral Coeffs  

       1      1.300     -0.200      0.200      0.000 
       2      1.300     -0.200      0.200      0.000 
       3      1.300     -0.200      0.200      0.000 
       4      1.300     -0.200      0.200      0.000 
       5      1.300     -0.200      0.200      0.000 
       6      1.300     -0.200      0.200      0.000 
       7      1.300     -0.200      0.200      0.000 
       8      1.300     -0.200      0.200      0.000 
       9      1.300     -0.200      0.200      0.000 
      10      0.300     -0.400      0.400      0.000 
      11      0.000      0.000      0.300      0.000 
      12      0.000      0.000      0.300      0.000 
      13      0.000      0.000      0.300      0.000 
      14      0.000      0.000      0.300      0.000 
      15      0.000      0.000      0.300      0.000 
      16      1.300     -0.200      0.200      0.000 
      17      0.000      0.000      0.300      0.000 
      18      0.000      0.000      0.300      0.000 
      19      0.000      0.000      0.300      0.000 
      20      0.000      0.000      0.300      0.000 
      21      0.000      0.000      0.300      0.000 
      22      0.000      0.000      0.300      0.000 
      23      0.000      0.000      0.300      0.000 
      24      1.300     -0.200      0.200      0.000 
      25      1.300     -0.200      0.200      0.000 
      26      0.000      0.000      0.300      0.000 
      27      0.000      0.000      0.300      0.000 
      28      0.000      0.000      0.300      0.000 
      29      1.300     -0.200      0.200      0.000 
      30      1.300     -0.200      0.200      0.000 
      31      0.000      0.000      0.300      0.000 
      32      0.000      0.000      0.300      0.000 
      33      0.000      0.000      0.300      0.000 
      34      0.000      0.000      0.300      0.000 
      35      1.300     -0.200      0.200      0.000 
      36      0.000      0.000      0.300      0.000 
      37      0.000      0.000      0.300      0.000 
      38      0.000      0.000      0.300      0.000 
      39      0.000      0.000      0.300      0.000 
      40      0.000      0.000      0.300      0.000 
      41      1.300     -0.200      0.200      0.000 
      42      0.000      0.000      0.300      0.000 
      43      0.000      0.000      0.300      0.000 
      44      1.300     -0.200      0.200      0.000 
      45      0.000      0.000      0.300      0.000 
      46      1.300     -0.200      0.200      0.000 
      47      0.000      0.000      0.300      0.000 
      48      0.000      0.000      0.300      0.000 
      49      0.000      0.000      0.300      0.000 
      50      0.000      0.000      0.300      0.000 
      51      0.000      0.000      0.300      0.000 
      52      1.300     -0.200      0.200      0.000 
      53      0.000      0.000      0.300      0.000 
      54      0.000      0.000      0.300      0.000 
      55      0.000      0.000      0.300      0.000 
      56      0.000      0.000      0.300      0.000 
      57      0.000      0.000      0.300      0.000 
      58      0.000      0.000      0.300      0.000 
      59      0.000      0.000      0.300      0.000 
      60      0.000      0.000      0.300      0.000 
      61      0.000      0.000      0.300      0.000 
      62      0.000      0.000      0.300      0.000 
      63      0.000      0.000      0.300      0.000 
      64      1.300     -0.200      0.200      0.000 
      65      0.000      0.000      0.300      0.000 
      66      0.000      0.000      0.300      0.000 
      67      0.000      0.000      0.300      0.000 
      68      0.000      0.000      0.300      0.000 
      69      0.000      0.000      0.300      0.000 
      70      1.300     -0.200      0.200      0.000 
      71      0.000      0.000      0.300      0.000 
      72      1.300     -0.200      0.200      0.000 
      73      0.000      0.000      0.300      0.000 
      74      0.000      0.000      0.300      0.000 
      75      0.000      0.000      0.300      0.000 
      76      0.000      0.000      0.300      0.000 
      77      1.300     -0.200      0.200      0.000 
      78      0.000      0.000      0.300      0.000 
      79      0.000      0.000      0.300      0.000 
      80      0.000      0.000      0.300      0.000 
      81      0.000      0.000      0.300      0.000 
      82      0.000      0.000      0.300      0.000 
      83      1.300     -0.200      0.200      0.000 
      84      0.000      0.000      0.300      0.000 
      85      1.300     -0.200      0.200      0.000 
      86      0.000      0.000      0.300      0.000 
      87      0.000      0.000      0.300      0.000 
      88      0.000      0.000      0.300      0.000 
      89      0.000      0.000      0.300      0.000 
      90      0.000      0.000      0.300      0.000 
      91      1.300     -0.200      0.200      0.000 
      92      1.300     -0.200      0.200      0.000 
      93      0.000      0.000      0.300      0.000 
      94      0.000      0.000      0.300      0.000 
      95      0.000      0.000      0.300      0.000 
      96      0.000      0.000      0.300      0.000 
      97      0.000      0.000      0.300      0.000 
      98      1.300     -0.200      0.200      0.000 
      99      0.000      0.000      0.300      0.000 
     100      0.000      0.000      0.300      0.000 
     101      0.000      0.000      0.300      0.000 
     102      0.000      0.000      0.400      0.000 
     103      1.300     -0.200      0.200      0.000 
     104      0.000      0.000      0.300      0.000 
     105      1.300     -0.200      0.200      0.000 
     106      1.300     -0.200      0.200      0.000 
     107      0.000      0.000      0.300      0.000 
     108      0.000      0.000      0.300      0.000 
     109      0.000      0.000      0.400      0.000 
     110      0.000      0.000      0.300      0.000 
     111      0.000      0.000      0.300      0.000 
     112      0.000      0.000      0.300      0.000 
     113      0.000      0.000      0.300      0.000 
     114      0.000      0.000      0.300      0.000 
     115      0.000      0.000      0.300      0.000 
     116      0.000      0.000      0.300      0.000 
     117      0.000      0.000      0.300      0.000 
     118      0.000      0.000      0.300      0.000 
     119      0.000      0.000      0.300      0.000 
     120      0.000      0.000      0.300      0.000 
     121      0.000      0.000      0.300      0.000 
     122      1.300     -0.200      0.200      0.000 
     123      0.000      0.000      0.300      0.000 
     124      0.000      0.000      0.300      0.000 
     125      0.000      0.000      0.300      0.000 
     126      0.000      0.000      0.300      0.000 
     127      0.000      0.000      0.300      0.000 
     128      0.000      0.000      0.300      0.000 
     129      0.000      0.000      0.300      0.000 
     130      0.000      0.000      0.300      0.000 
     131      0.000      0.000      0.300      0.000 
     132      0.000      0.000      0.300      0.000 
     133      0.000      0.000      0.300      0.000 
     134      0.000      0.000      0.300      0.000 
     135      0.000      0.000      0.300      0.000 
     136      0.000      0.000      0.300      0.000 
     137      0.000      0.000      0.300      0.000 
     138      0.000      0.000      0.300      0.000 
     139      0.000      0.000      0.300      0.000 
     140      1.300     -0.200      0.200      0.000 
     141      0.000      0.000      0.300      0.000 
     142      0.000      0.000      0.300      0.000 
     143      0.000      0.000      0.300      0.000 
     144      0.000      0.000      0.300      0.000 
     145      0.000      0.000      0.300      0.000 
     146      1.300     -0.200      0.200      0.000 
     147      0.000      0.000      0.300      0.000 
     148      0.000      0.000      0.300      0.000 
     149      0.000      0.000      0.300      0.000 
     150      0.000      0.000      0.300      0.000 
     151      0.000      0.000      0.300      0.000 
     152      0.000      0.000      0.400      0.000 
     153      0.000      0.000      0.300      0.000 
     154      0.000      0.000      0.300      0.000 
     155      0.000      0.000      0.300      0.000 
     156      0.000      0.000      0.300      0.000 
     157      0.000      0.000      0.300      0.000 
     158      0.000      0.000      0.300      0.000 
     159      0.000      0.000      0.300      0.000 
     160      0.000      0.000      0.300      0.000 
     161      1.300     -0.200      0.200      0.000 
     162      0.000      0.000      0.300      0.000 
     163      0.300     -0.400      0.400      0.000 
     164      0.000      0.000      0.300      0.000 
     165      1.300     -0.200      0.200      0.000 
     166      0.000      0.000      0.300      0.000 
     167      0.000      0.000      0.300      0.000 
     168      0.000      0.000      0.300      0.000 
     169      0.000      0.000      0.300      0.000 
     170      0.000      0.000      0.300      0.000 
     171      1.300     -0.200      0.200      0.000 
     172      1.300     -0.200      0.200      0.000 
     173      0.000      0.000      0.300      0.000 
     174      0.000      0.000      0.300      0.000 
     175      0.000      0.000      0.300      0.000 
     176      1.300     -0.200      0.200      0.000 
     177      0.000      0.000      0.300      0.000 
     178      0.000      0.000      0.300      0.000 
     179      1.300     -0.200      0.200      0.000 
     180      0.000      0.000      0.300      0.000 
     181      0.000      0.000      0.300      0.000 
     182      0.000      0.000      0.300      0.000 
     183      1.300     -0.200      0.200      0.000 
     184      0.000      0.000      0.300      0.000 
     185      0.000      0.000      0.300      0.000 
     186      0.000      0.000      0.300      0.000 
     187      0.000      0.000      0.300      0.000 
     188      0.000      0.000      0.300      0.000 
     189      0.000      0.000      0.300      0.000 
     190      0.000      0.000      0.300      0.000 
     191      1.300     -0.200      0.200      0.000 
     192      0.000      0.000      0.300      0.000 
     193      0.000      0.000      0.400      0.000 
     194      0.000      0.000      0.300      0.000 
     195      0.000      0.000      0.300      0.000 
     196      0.000      0.000      0.300      0.000 
     197      0.000      0.000      0.300      0.000 
     198      1.300     -0.200      0.200      0.000 

Improper Coeffs 

       1      0.000      -1       2 
       2      0.000      -1       2 
       3      0.000      -1       2 
       4      0.000      -1       2 
       5      0.000      -1       2 
       6      0.000      -1       2 
       7      0.000      -1       2 
       8      0.000      -1       2 
       9      0.000      -1       2 
      10      0.000      -1       2 
      11      0.000      -1       2 
      12      0.000      -1       2 
      13      0.000      -1       2 
      14      0.000      -1       2 
      15      0.000      -1       2 
      16      0.000      -1       2 
      17      0.000      -1       2 
      18      0.000      -1       2 
      19      0.000      -1       2 
      20      0.000      -1       2 
      21      0.000      -1       2 
      22      0.000      -1       2 
      23      0.000      -1       2 
      24      0.000      -1       2 
      25      0.000      -1       2 
      26      0.000      -1       2 
      27      0.000      -1       2 
      28      0.000      -1       2 
      29      0.000      -1       2 
      30      0.000      -1       2 
      31      0.000      -1       2 
      32      0.000      -1       2 
      33      0.000      -1       2 
      34      0.000      -1       2 
      35      0.000      -1       2 
      36      0.000      -1       2 
      37      0.000      -1       2 
      38      0.000      -1       2 
      39      0.000      -1       2 
      40      0.000      -1       2 

Atoms 

     1      1      1 -0.23810000    1.000  1.00000  0.00000
     2      1      2 -0.17270000   -0.517  1.00000  0.00000
     3      1      3 -0.11310000   -1.172  1.00000  1.39324
     4      1      4 -0.18420000   -2.696  1.06711  1.20733
     5      1      5 -0.18430000   -3.246  0.53850  2.51168
     6      1      6 -0.17970000   -2.342 -0.64170  2.81983
     7      1      7 -0.10650000   -0.949 -0.28266  2.25361
     8      1      8 -0.09390000    0.153 -0.20259  3.37007
     9      1      9 -0.23520000   -0.180  0.87870  4.41749
    10      1     10 -0.09740000    0.406 -1.61648  4.05500
    11      1     11 -0.16730000    0.881 -2.68987  3.04348
    12      1     12 -0.11170000    2.304 -2.41985  2.54133
    13      1     13 -0.17380000    2.756 -3.49316  1.54360
    14      1     14 -0.21320000    4.150 -3.17699  1.00242
    15      1     15 0.07020000    5.167 -2.96996  2.12152
    16      1     16 -0.18620000    5.366 -4.16919  2.74207
    17      1     17 -0.20980000    4.697 -1.95970  3.16363
    18      1     18 -0.10770000    3.305 -2.32948  3.70897
    19      1     19 -0.16290000    2.837 -1.33770  4.78371
    20      1     20 -0.10750000    1.405 -1.58651  5.25291
    21      1     21 -0.23730000    1.319 -2.86954  6.10106
    22      1     22 0.08080000    1.367  1.09360 -1.02916
    23      1     23 0.08080000    1.398  0.06783  0.40670
    24      1     24 0.08080000    1.397  1.84180  0.57407
    25      1     25 0.08670000   -0.868  0.13842 -0.58127
    26      1     26 0.08670000   -0.853  1.89497 -0.54093
    27      1     27 0.10480000   -0.844  1.89665  1.92829
    28      1     28 0.09260000   -3.019  0.41992  0.38228
    29      1     29 0.09260000   -3.039  2.08396  0.99512
    30      1     30 0.09250000   -4.295  0.24045  2.42908
    31      1     31 0.09250000   -3.164  1.29973  3.29567
    32      1     32 0.09060000   -2.713 -1.53739  2.30656
    33      1     33 0.09060000   -2.356 -0.86293  3.88989
    34      1     34 0.09910000   -0.666 -1.07349  1.55185
    35      1     35 0.09750000    1.080  0.12123  2.88534
    36      1     36 0.08050000   -1.050  0.60654  5.02311
    37      1     37 0.08050000   -0.382  1.84834  3.95602
    38      1     38 0.08050000    0.660  1.04973  5.09632
    39      1     39 0.09590000   -0.558 -1.95604  4.45505
    40      1     40 0.09020000    0.192 -2.77092  2.19823
    41      1     41 0.09020000    0.844 -3.67815  3.51846
    42      1     42 0.09740000    2.303 -1.46245  2.00628
    43      1     43 0.09690000    2.048 -3.55231  0.70843
    44      1     44 0.09690000    2.763 -4.47781  2.02835
    45      1     45 0.10160000    4.102 -2.27179  0.38194
    46      1     46 0.10160000    4.475 -4.00321  0.35995
    47      1     47 0.09470000    6.131 -2.66315  1.70147
    48      1     48 0.10270000    4.675 -0.95784  2.71871
    49      1     49 0.10270000    5.418 -1.94191  3.99269
    50      1     50 0.11280000    3.385 -3.32152  4.17476
    51      1     51 0.08770000    2.910 -0.31412  4.39626
    52      1     52 0.08770000    3.514 -1.38790  5.64599
    53      1     53 0.09760000    1.130 -0.78153  5.94167
    54      1     54 0.08190000    1.639 -3.76532  5.56136
    55      1     55 0.08190000    0.292 -3.03709  6.44295
    56      1     56 0.08190000    1.955 -2.78160  6.98919

Bonds 

     1      1      2      1
     2      2      3      2
     3      3      4      3
     4      4      5      4
     5      5      6      5
     6      6      7      3
     7      7      8      7
     8      8      9      8
     9      9     10      8
    10     10     11     10
    11     11     12     11
    12     12     13     12
    13     13     14     13
    14     14     15     14
    15     15     16     15
    16     16     17     15
    17     17     18     12
    18     18     19     18
    19     19     20     10
    20     20     21     20
    21     21     22      1
    22     22     23      1
    23     23     24      1
    24     24     25      2
    25     25     26      2
    26     26     27      3
    27     27     28      4
    28     28     29      4
    29     29     30      5
    30     30     31      5
    31     31     32      6
    32     32     33      6
    33     33     34      7
    34     34     35      8
    35     35     36      9
    36     36     37      9
    37     37     38      9
    38     38     39     10
    39     39     40     11
    40     40     41     11
    41     41     42     12
    42     42     43     13
    43     43     44     13
    44     44     45     14
    45     45     46     14
    46     46     47     15
    47     47     48     17
    48     48     49     17
    49     49     50     18
    50     50     51     19
    51     51     52     19
    52     52     53     20
    53     53     54     21
    54     54     55     21
    55     55     56     21
    56     56      7      6
    57     57     18     17
    58     58     20     19

Angles 

     1      1      1      2      3
     2      2      2      3      4
     3      3      3      4      5
     4      4      4      5      6
     5      5      2      3      7
     6      6      3      7      8
     7      7      7      8      9
     8      8      7      8     10
     9      9      8     10     11
    10     10     10     11     12
    11     11     11     12     13
    12     12     12     13     14
    13     13     13     14     15
    14     14     14     15     16
    15     15     14     15     17
    16     16     11     12     18
    17     17     12     18     19
    18     18      8     10     20
    19     19     10     20     21
    20     20      2      1     22
    21     21      2      1     23
    22     22      2      1     24
    23     23      1      2     25
    24     24      1      2     26
    25     25      2      3     27
    26     26      3      4     28
    27     27      3      4     29
    28     28      4      5     30
    29     29      4      5     31
    30     30      5      6     32
    31     31      5      6     33
    32     32      3      7     34
    33     33      7      8     35
    34     34      8      9     36
    35     35      8      9     37
    36     36      8      9     38
    37     37      8     10     39
    38     38     10     11     40
    39     39     10     11     41
    40     40     11     12     42
    41     41     12     13     43
    42     42     12     13     44
    43     43     13     14     45
    44     44     13     14     46
    45     45     14     15     47
    46     46     15     17     48
    47     47     15     17     49
    48     48     12     18     50
    49     49     18     19     51
    50     50     18     19     52
    51     51     10     20     53
    52     52     20     21     54
    53     53     20     21     55
    54     54     20     21     56
    55     55      9      8     10
    56     56      3      2     26
    57     57     54     21     55
    58     58     22      1     24
    59     59     16     15     17
    60     60     48     17     49
    61     61     18     17     48
    62     62     19     20     21
    63     63      7      6     32
    64     64      7      3     27
    65     65     54     21     56
    66     66     18     19     20
    67     67      6      5     30
    68     68     20     19     51
    69     69      3      2     25
    70     70     37      9     38
    71     71      5      4     28
    72     72     23      1     24
    73     73     10     20     19
    74     74     36      9     38
    75     75      3      7      6
    76     76      6      7      8
    77     77     18     12     42
    78     78     28      4     29
    79     79     19     20     53
    80     80     15     14     46
    81     81     17     18     50
    82     82     55     21     56
    83     83     13     12     42
    84     84     18     17     49
    85     85     25      2     26
    86     86     12     18     17
    87     87     21     20     53
    88     88     32      6     33
    89     89      5      6      7
    90     90     16     15     47
    91     91     17     15     47
    92     92      4      3     27
    93     93     43     13     44
    94     94     10      8     35
    95     95      6      7     34
    96     96     17     18     19
    97     97     20     19     52
    98     98     51     19     52
    99     99      6      5     31
   100    100     45     14     46
   101    101     36      9     37
   102    102     15     14     45
   103    103      8      7     34
   104    104      5      4     29
   105    105     19     18     50
   106    106     11     10     20
   107    107     14     13     43
   108    108     11     10     39
   109    109     22      1     23
   110    110      4      3      7
   111    111      9      8     35
   112    112     12     11     40
   113    113     20     10     39
   114    114     40     11     41
   115    115     15     17     18
   116    116      7      6     33
   117    117     30      5     31
   118    118     13     12     18
   119    119     12     11     41
   120    120     14     13     44

Dihedrals

     1      1      4      3      2      1 
     2      2      5      4      3      2 
     3      3      6      5      4      3 
     4      4      9      8      7      3 
     5      5     11     10      8      7 
     6      6     12     11     10      8 
     7      7     13     12     11     10 
     8      8     14     13     12     11 
     9      9     15     14     13     12 
    10     10     16     15     14     13 
    11     11     22      1      2      3 
    12     12     36      9      8      7 
    13     13     54     21     20     10 
    14     14     27      3      4      5 
    15     15     51     19     18     12 
    16     16     20     10      8      9 
    17     17     53     20     10     39 
    18     18     33      6      7      3 
    19     19     28      4      3      2 
    20     20     49     17     18     12 
    21     21     43     13     12     18 
    22     22     34      7      8     10 
    23     23     52     19     20     10 
    24     24      8      7      3      2 
    25     25      6      7      3      4 
    26     26     47     15     14     13 
    27     27     56     21     20     10 
    28     28     53     20     19     52 
    29     29     18     17     15     14 
    30     30      7      3      2      1 
    31     31     28      4      3     27 
    32     32     38      9      8      7 
    33     33     26      2      3      7 
    34     34     25      2      1     24 
    35     35     20     19     18     17 
    36     36     23      1      2      3 
    37     37     31      5      6      7 
    38     38     54     21     20     19 
    39     39     45     14     13     12 
    40     40     39     10     11     12 
    41     41      9      8      7      6 
    42     42     34      7      3     27 
    43     43     32      6      7      3 
    44     44     19     20     10     11 
    45     45     49     17     15     14 
    46     46     19     18     17     15 
    47     47     32      6      7      8 
    48     48     50     18     12     13 
    49     49     51     19     18     17 
    50     50     32      6      5     30 
    51     51     39     10      8      7 
    52     52     17     15     14     13 
    53     53     42     12     11     41 
    54     54     31      5      4     29 
    55     55     26      2      1     24 
    56     56     43     13     12     42 
    57     57     50     18     12     42 
    58     58     49     17     18     19 
    59     59     41     11     10      8 
    60     60     30      5      4     29 
    61     61     31      5      4     28 
    62     62     25      2      3      7 
    63     63     38      9      8     10 
    64     64     21     20     19     18 
    65     65     28      4      3      7 
    66     66     26      2      3      4 
    67     67     33      6      7      8 
    68     68     53     20     10      8 
    69     69     50     18     12     11 
    70     70     18     12     11     10 
    71     71     42     12     18     17 
    72     72      6      7      3      2 
    73     73     36      9      8     10 
    74     74     27      3      2     26 
    75     75     27      3      7      6 
    76     76     30      5      4      3 
    77     77     20     19     18     12 
    78     78     34      7      8      9 
    79     79     55     21     20     10 
    80     80     50     18     17     48 
    81     81     40     11     12     13 
    82     82     33      6      5     31 
    83     83     20     10      8      7 
    84     84     40     11     10     39 
    85     85     10      8      7      3 
    86     86     56     21     20     19 
    87     87     29      4      3      2 
    88     88     44     13     14     15 
    89     89     29      4      5      6 
    90     90     48     17     15     47 
    91     91     21     20     10     11 
    92     92     19     20     10      8 
    93     93     41     11     10     20 
    94     94     48     17     15     14 
    95     95     54     21     20     53 
    96     96     35      8      7     34 
    97     97     41     11     12     18 
    98     98      8      7      6      5 
    99     99     24      1      2      3 
   100    100     40     11     10      8 
   101    101     35      8     10     20 
   102    102     48     17     15     16 
   103    103     17     18     12     13 
   104    104     35      8      7      3 
   105    105     19     18     12     11 
   106    106     21     20     10      8 
   107    107     42     12     11     40 
   108    108     27      3      2      1 
   109    109     45     14     15     16 
   110    110     32      6      5     31 
   111    111     31      5      4      3 
   112    112     26      2      1     23 
   113    113     53     20     19     51 
   114    114     52     19     20     21 
   115    115     28      4      5      6 
   116    116     33      6      5      4 
   117    117     52     19     18     17 
   118    118     30      5      6      7 
   119    119     27      3      2     25 
   120    120     25      2      1     22 
   121    121     45     14     13     43 
   122    122     18     19     20     10 
   123    123     42     12     13     14 
   124    124     50     18     19     20 
   125    125     34      7      6      5 
   126    126     34      7      3      2 
   127    127     32      6      5      4 
   128    128     26      2      1     22 
   129    129     42     12     18     19 
   130    130     39     10      8      9 
   131    131     25      2      1     23 
   132    132     45     14     13     44 
   133    133     49     17     15     47 
   134    134     37      9      8      7 
   135    135     35      8      7      6 
   136    136     56     21     20     53 
   137    137     53     20     19     18 
   138    138     42     12     11     10 
   139    139     43     13     12     11 
   140    140     18     12     13     14 
   141    141     34      7      3      4 
   142    142     51     19     18     50 
   143    143     46     14     13     43 
   144    144     29      4      3      7 
   145    145     38      9      8     35 
   146    146      7      3      4      5 
   147    147     47     15     14     46 
   148    148     55     21     20     19 
   149    149     40     11     12     18 
   150    150     50     18     17     49 
   151    151     51     19     20     10 
   152    152     49     17     15     16 
   153    153     39     10     20     19 
   154    154     50     18     17     15 
   155    155     47     15     17     18 
   156    156     53     20     10     11 
   157    157     39     10     20     21 
   158    158     34      7      6     33 
   159    159     34      7      6     32 
   160    160     29      4      3     27 
   161    161      5      6      7      3 
   162    162     51     19     20     21 
   163    163     18     17     15     16 
   164    164     44     13     12     42 
   165    165     15     17     18     12 
   166    166     33      6      5     30 
   167    167     46     14     13     44 
   168    168     30      5      4     28 
   169    169     35      8     10     11 
   170    170     44     13     12     18 
   171    171     10      8      7      6 
   172    172     11     10      8      9 
   173    173     25      2      3      4 
   174    174     47     15     14     45 
   175    175     37      9      8     35 
   176    176     20     10     11     12 
   177    177     52     19     18     50 
   178    178     46     14     15     17 
   179    179      7      6      5      4 
   180    180     44     13     12     11 
   181    181     40     11     10     20 
   182    182     52     19     18     12 
   183    183     19     18     12     13 
   184    184     48     17     18     19 
   185    185     39     10      8     35 
   186    186     48     17     18     12 
   187    187     55     21     20     53 
   188    188     41     11     10     39 
   189    189     37      9      8     10 
   190    190     43     13     14     15 
   191    191     17     18     12     11 
   192    192     46     14     13     12 
   193    193     46     14     15     16 
   194    194     45     14     15     17 
   195    195     27      3      7      8 
   196    196     36      9      8     35 
   197    197     41     11     12     13 
   198    198      8      7      3      4 

Impropers

     1      1      3      2      4      7 
     2      2      7      3      6      8 
     3      3      8      9     10      7 
     4      4     15     17     14     16 
     5      5     12     18     11     13 
     6      6     18     17     19     12 
     7      7     10     11     20      8 
     8      8     20     10     19     21 
     9      9      1      2     22     23 
    10     10      1      2     22     24 
    11     11      2     25      3      1 
    12     12      2      1     26      3 
    13     13      3      2     27      4 
    14     14      4      3     28      5 
    15     15      4      5      3     29 
    16     16      5      4     30      6 
    17     17      5      4      6     31 
    18     18      6      5      7     32 
    19     19      6     33      5      7 
    20     20      7     34      3      6 
    21     21      8      9     35      7 
    22     22      9     36     37      8 
    23     23      9     36     38      8 
    24     24     10     11     39      8 
    25     25     11     10     12     40 
    26     26     11     41     10     12 
    27     27     12     42     11     13 
    28     28     13     43     12     14 
    29     29     13     12     44     14 
    30     30     14     13     45     15 
    31     31     14     13     46     15 
    32     32     15     16     47     14 
    33     33     17     18     15     48 
    34     34     17     49     15     18 
    35     35     18     17     50     12 
    36     36     19     18     51     20 
    37     37     19     20     18     52 
    38     38     20     10     19     53 
    39     39     21     20     54     55 
    40     40     21     20     54     56 

