LAMMPS data file Created by LigParGen - (Written by Leela S. Dodda)

      61 atoms
      60 bonds
     117 angles
     162 dihedrals
      39 impropers
 
      61 atom types
      60 bond types
     117 angle types
     162 dihedral types
      39 improper types
 
   -9.915090    40.084910 xlo xhi
    0.056020    50.056020 ylo yhi
   -5.831990    44.168010 zlo zhi

Masses

       1     12.011  
       2     12.011  
       3     12.011  
       4     12.011  
       5     12.011  
       6     12.011  
       7     12.011  
       8     12.011  
       9     12.011  
      10     12.011  
      11     12.011  
      12     12.011  
      13     12.011  
      14     12.011  
      15     14.007  
      16     12.011  
      17     12.011  
      18     12.011  
      19     12.011  
      20     12.011  
      21      1.008  
      22      1.008  
      23      1.008  
      24      1.008  
      25      1.008  
      26      1.008  
      27      1.008  
      28      1.008  
      29      1.008  
      30      1.008  
      31      1.008  
      32      1.008  
      33      1.008  
      34      1.008  
      35      1.008  
      36      1.008  
      37      1.008  
      38      1.008  
      39      1.008  
      40      1.008  
      41      1.008  
      42      1.008  
      43      1.008  
      44      1.008  
      45      1.008  
      46      1.008  
      47      1.008  
      48      1.008  
      49      1.008  
      50      1.008  
      51      1.008  
      52      1.008  
      53      1.008  
      54      1.008  
      55      1.008  
      56      1.008  
      57      1.008  
      58      1.008  
      59      1.008  
      60      1.008  
      61      1.008  

Pair Coeffs 

       1      0.066  3.5000000 
       2      0.066  3.5000000 
       3      0.066  3.5000000 
       4      0.066  3.5000000 
       5      0.066  3.5000000 
       6      0.066  3.5000000 
       7      0.066  3.5000000 
       8      0.066  3.5000000 
       9      0.066  3.5000000 
      10      0.066  3.5000000 
      11      0.066  3.5000000 
      12      0.066  3.5000000 
      13      0.066  3.5000000 
      14      0.066  3.5000000 
      15      0.170  3.3000000 
      16      0.066  3.5000000 
      17      0.066  3.5000000 
      18      0.066  3.5000000 
      19      0.066  3.5000000 
      20      0.066  3.5000000 
      21      0.030  2.5000000 
      22      0.030  2.5000000 
      23      0.030  2.5000000 
      24      0.030  2.5000000 
      25      0.030  2.5000000 
      26      0.030  2.5000000 
      27      0.030  2.5000000 
      28      0.030  2.5000000 
      29      0.030  2.5000000 
      30      0.030  2.5000000 
      31      0.030  2.5000000 
      32      0.030  2.5000000 
      33      0.030  2.5000000 
      34      0.030  2.5000000 
      35      0.030  2.5000000 
      36      0.030  2.5000000 
      37      0.030  2.5000000 
      38      0.030  2.5000000 
      39      0.030  2.5000000 
      40      0.030  2.5000000 
      41      0.030  2.5000000 
      42      0.030  2.5000000 
      43      0.030  2.5000000 
      44      0.030  2.5000000 
      45      0.030  2.5000000 
      46      0.030  2.5000000 
      47      0.030  2.5000000 
      48      0.030  2.5000000 
      49      0.030  2.5000000 
      50      0.030  2.5000000 
      51      0.030  2.5000000 
      52      0.030  2.5000000 
      53      0.030  2.5000000 
      54      0.030  2.5000000 
      55      0.030  2.5000000 
      56      0.030  2.5000000 
      57      0.030  2.5000000 
      58      0.030  2.5000000 
      59      0.030  2.5000000 
      60      0.030  2.5000000 
      61      0.030  2.5000000 

Bond Coeffs 

       1   268.0000     1.5290 
       2   268.0000     1.5290 
       3   268.0000     1.5290 
       4   268.0000     1.5290 
       5   268.0000     1.5290 
       6   268.0000     1.5290 
       7   268.0000     1.5290 
       8   268.0000     1.5290 
       9   268.0000     1.5290 
      10   268.0000     1.5290 
      11   268.0000     1.5290 
      12   268.0000     1.5290 
      13   268.0000     1.5290 
      14   382.0000     1.4480 
      15   382.0000     1.4480 
      16   382.0000     1.4480 
      17   268.0000     1.5290 
      18   268.0000     1.5290 
      19   268.0000     1.5290 
      20   340.0000     1.0900 
      21   340.0000     1.0900 
      22   340.0000     1.0900 
      23   340.0000     1.0900 
      24   340.0000     1.0900 
      25   340.0000     1.0900 
      26   340.0000     1.0900 
      27   340.0000     1.0900 
      28   340.0000     1.0900 
      29   340.0000     1.0900 
      30   340.0000     1.0900 
      31   340.0000     1.0900 
      32   340.0000     1.0900 
      33   340.0000     1.0900 
      34   340.0000     1.0900 
      35   340.0000     1.0900 
      36   340.0000     1.0900 
      37   340.0000     1.0900 
      38   340.0000     1.0900 
      39   340.0000     1.0900 
      40   340.0000     1.0900 
      41   340.0000     1.0900 
      42   340.0000     1.0900 
      43   340.0000     1.0900 
      44   340.0000     1.0900 
      45   340.0000     1.0900 
      46   340.0000     1.0900 
      47   340.0000     1.0900 
      48   340.0000     1.0900 
      49   340.0000     1.0900 
      50   340.0000     1.0900 
      51   340.0000     1.0900 
      52   340.0000     1.0900 
      53   340.0000     1.0900 
      54   340.0000     1.0900 
      55   340.0000     1.0900 
      56   340.0000     1.0900 
      57   340.0000     1.0900 
      58   340.0000     1.0900 
      59   340.0000     1.0900 
      60   340.0000     1.0900 

Angle Coeffs 

       1     58.350    112.700
       2     58.350    112.700
       3     58.350    112.700
       4     58.350    112.700
       5     58.350    112.700
       6     58.350    112.700
       7     58.350    112.700
       8     58.350    112.700
       9     58.350    112.700
      10     58.350    112.700
      11     58.350    112.700
      12     58.350    112.700
      13     56.200    109.470
      14     51.800    107.200
      15     51.800    107.200
      16     56.200    109.470
      17     56.200    109.470
      18     56.200    109.470
      19     37.500    110.700
      20     37.500    110.700
      21     37.500    110.700
      22     37.500    110.700
      23     37.500    110.700
      24     37.500    110.700
      25     37.500    110.700
      26     37.500    110.700
      27     37.500    110.700
      28     37.500    110.700
      29     37.500    110.700
      30     37.500    110.700
      31     37.500    110.700
      32     37.500    110.700
      33     37.500    110.700
      34     37.500    110.700
      35     37.500    110.700
      36     37.500    110.700
      37     37.500    110.700
      38     37.500    110.700
      39     37.500    110.700
      40     37.500    110.700
      41     37.500    110.700
      42     37.500    110.700
      43     37.500    110.700
      44     37.500    110.700
      45     37.500    110.700
      46     37.500    110.700
      47     37.500    110.700
      48     35.000    109.500
      49     35.000    109.500
      50     35.000    109.500
      51     37.500    110.700
      52     37.500    110.700
      53     37.500    110.700
      54     37.500    110.700
      55     37.500    110.700
      56     37.500    110.700
      57     37.500    110.700
      58     37.500    110.700
      59     37.500    110.700
      60     33.000    107.800
      61     58.350    112.700
      62     56.200    109.470
      63     33.000    107.800
      64     33.000    107.800
      65     33.000    107.800
      66     33.000    107.800
      67     51.800    107.200
      68     33.000    107.800
      69     33.000    107.800
      70     37.500    110.700
      71     33.000    107.800
      72     37.500    110.700
      73     33.000    107.800
      74     58.350    112.700
      75     58.350    112.700
      76     33.000    107.800
      77     37.500    110.700
      78     35.000    109.500
      79     58.350    112.700
      80     33.000    107.800
      81     37.500    110.700
      82     33.000    107.800
      83     33.000    107.800
      84     33.000    107.800
      85     33.000    107.800
      86     58.350    112.700
      87     33.000    107.800
      88     33.000    107.800
      89     37.500    110.700
      90     33.000    107.800
      91     33.000    107.800
      92     58.350    112.700
      93     37.500    110.700
      94     33.000    107.800
      95     33.000    107.800
      96     33.000    107.800
      97     37.500    110.700
      98     33.000    107.800
      99     33.000    107.800
     100     33.000    107.800
     101     37.500    110.700
     102     37.500    110.700
     103     33.000    107.800
     104     33.000    107.800
     105     58.350    112.700
     106     33.000    107.800
     107     33.000    107.800
     108     33.000    107.800
     109     33.000    107.800
     110     58.350    112.700
     111     58.350    112.700
     112     33.000    107.800
     113     37.500    110.700
     114     37.500    110.700
     115     33.000    107.800
     116     33.000    107.800
     117     33.000    107.800

Dihedral Coeffs  

       1      1.300     -0.200      0.200      0.000 
       2      1.300     -0.200      0.200      0.000 
       3      1.300     -0.200      0.200      0.000 
       4      1.300     -0.200      0.200      0.000 
       5      1.300     -0.200      0.200      0.000 
       6      1.300     -0.200      0.200      0.000 
       7      0.416     -0.128      0.695      0.000 
       8      0.416     -0.128      0.695      0.000 
       9      0.000      0.000      0.300      0.000 
      10      0.000      0.000      0.300      0.000 
      11      0.000      0.000      0.300      0.000 
      12      0.000      0.000      0.300      0.000 
      13      0.000      0.000      0.300      0.000 
      14      0.000      0.000      0.300      0.000 
      15      0.000      0.000      0.300      0.000 
      16      0.000      0.000      0.560      0.000 
      17     -1.013     -0.709      0.473      0.000 
      18     -1.013     -0.709      0.473      0.000 
      19     -1.013     -0.709      0.473      0.000 
      20      0.000      0.000      0.300      0.000 
      21      0.000      0.000      0.300      0.000 
      22      0.000      0.000      0.300      0.000 
      23      0.000      0.000      0.300      0.000 
      24      0.000      0.000      0.300      0.000 
      25      0.000      0.000      0.300      0.000 
      26      0.000      0.000      0.300      0.000 
      27      0.000      0.000      0.300      0.000 
      28      0.000      0.000      0.300      0.000 
      29      0.000      0.000      0.300      0.000 
      30      0.000      0.000      0.300      0.000 
      31      0.000      0.000      0.300      0.000 
      32      1.300     -0.200      0.200      0.000 
      33      0.000      0.000      0.300      0.000 
      34      2.392     -0.674      0.550      0.000 
      35      0.000      0.000      0.300      0.000 
      36      0.000      0.000      0.300      0.000 
      37      0.000      0.000      0.300      0.000 
      38      1.300     -0.200      0.200      0.000 
      39     -1.013     -0.709      0.473      0.000 
      40      0.000      0.000      0.300      0.000 
      41      0.000      0.000      0.300      0.000 
      42      0.000      0.000      0.300      0.000 
      43      0.000      0.000      0.300      0.000 
      44      0.000      0.000      0.300      0.000 
      45      0.000      0.000      0.300      0.000 
      46      0.000      0.000      0.300      0.000 
      47     -1.013     -0.709      0.473      0.000 
      48      0.000      0.000      0.300      0.000 
      49      0.000      0.000      0.300      0.000 
      50      0.000      0.000      0.300      0.000 
      51      0.000      0.000      0.300      0.000 
      52      0.000      0.000      0.300      0.000 
      53      0.000      0.000      0.300      0.000 
      54      0.000      0.000      0.300      0.000 
      55      2.392     -0.674      0.550      0.000 
      56      0.000      0.000      0.300      0.000 
      57      0.000      0.000      0.300      0.000 
      58      0.000      0.000      0.300      0.000 
      59      0.416     -0.128      0.695      0.000 
      60      0.000      0.000      0.560      0.000 
      61      1.300     -0.200      0.200      0.000 
      62      0.000      0.000      0.300      0.000 
      63     -1.013     -0.709      0.473      0.000 
      64      0.000      0.000      0.300      0.000 
      65      0.000      0.000      0.300      0.000 
      66      0.000      0.000      0.300      0.000 
      67      0.000      0.000      0.300      0.000 
      68      0.000      0.000      0.300      0.000 
      69      0.000      0.000      0.300      0.000 
      70      1.300     -0.200      0.200      0.000 
      71      0.000      0.000      0.300      0.000 
      72      0.000      0.000      0.560      0.000 
      73      0.416     -0.128      0.695      0.000 
      74      1.300     -0.200      0.200      0.000 
      75      0.000      0.000      0.300      0.000 
      76      0.000      0.000      0.300      0.000 
      77      0.000      0.000      0.300      0.000 
      78      1.300     -0.200      0.200      0.000 
      79      0.000      0.000      0.300      0.000 
      80      0.000      0.000      0.300      0.000 
      81      0.416     -0.128      0.695      0.000 
      82      0.000      0.000      0.300      0.000 
      83      2.392     -0.674      0.550      0.000 
      84      0.000      0.000      0.300      0.000 
      85      0.000      0.000      0.300      0.000 
      86      0.000      0.000      0.300      0.000 
      87      0.000      0.000      0.300      0.000 
      88      0.000      0.000      0.300      0.000 
      89      0.000      0.000      0.300      0.000 
      90      0.000      0.000      0.300      0.000 
      91      0.000      0.000      0.300      0.000 
      92      0.000      0.000      0.300      0.000 
      93      0.000      0.000      0.560      0.000 
      94      0.000      0.000      0.300      0.000 
      95      0.000      0.000      0.300      0.000 
      96      2.392     -0.674      0.550      0.000 
      97      0.000      0.000      0.300      0.000 
      98      0.000      0.000      0.300      0.000 
      99      0.000      0.000      0.300      0.000 
     100      0.000      0.000      0.560      0.000 
     101      0.000      0.000      0.300      0.000 
     102      0.000      0.000      0.300      0.000 
     103     -1.013     -0.709      0.473      0.000 
     104      0.000      0.000      0.300      0.000 
     105      0.000      0.000      0.300      0.000 
     106      0.000      0.000      0.300      0.000 
     107      0.000      0.000      0.300      0.000 
     108      0.000      0.000      0.300      0.000 
     109      0.000      0.000      0.560      0.000 
     110      0.000      0.000      0.300      0.000 
     111      0.000      0.000      0.300      0.000 
     112      0.000      0.000      0.560      0.000 
     113      0.000      0.000      0.300      0.000 
     114      0.000      0.000      0.300      0.000 
     115      1.300     -0.200      0.200      0.000 
     116     -1.013     -0.709      0.473      0.000 
     117      0.000      0.000      0.300      0.000 
     118      0.000      0.000      0.300      0.000 
     119      0.000      0.000      0.300      0.000 
     120      0.000      0.000      0.300      0.000 
     121      0.000      0.000      0.300      0.000 
     122      0.000      0.000      0.300      0.000 
     123      0.000      0.000      0.300      0.000 
     124      0.000      0.000      0.300      0.000 
     125      0.416     -0.128      0.695      0.000 
     126      0.000      0.000      0.300      0.000 
     127      0.000      0.000      0.300      0.000 
     128      0.000      0.000      0.300      0.000 
     129      0.416     -0.128      0.695      0.000 
     130      0.000      0.000      0.300      0.000 
     131     -1.013     -0.709      0.473      0.000 
     132      0.000      0.000      0.300      0.000 
     133      0.000      0.000      0.300      0.000 
     134      0.000      0.000      0.300      0.000 
     135      0.000      0.000      0.300      0.000 
     136      0.000      0.000      0.300      0.000 
     137      0.000      0.000      0.300      0.000 
     138      0.000      0.000      0.300      0.000 
     139      0.000      0.000      0.300      0.000 
     140      0.000      0.000      0.300      0.000 
     141      0.000      0.000      0.300      0.000 
     142      0.000      0.000      0.560      0.000 
     143      0.416     -0.128      0.695      0.000 
     144      0.000      0.000      0.300      0.000 
     145      0.000      0.000      0.300      0.000 
     146      1.300     -0.200      0.200      0.000 
     147      0.000      0.000      0.300      0.000 
     148     -1.013     -0.709      0.473      0.000 
     149      0.000      0.000      0.300      0.000 
     150      0.000      0.000      0.300      0.000 
     151      2.392     -0.674      0.550      0.000 
     152      0.000      0.000      0.300      0.000 
     153      0.000      0.000      0.300      0.000 
     154      0.000      0.000      0.300      0.000 
     155      0.000      0.000      0.300      0.000 
     156      0.000      0.000      0.300      0.000 
     157      0.000      0.000      0.300      0.000 
     158      0.416     -0.128      0.695      0.000 
     159      0.000      0.000      0.300      0.000 
     160      0.416     -0.128      0.695      0.000 
     161      1.300     -0.200      0.200      0.000 
     162      0.000      0.000      0.300      0.000 

Improper Coeffs 

       1      0.000      -1       2 
       2      0.000      -1       2 
       3      0.000      -1       2 
       4      0.000      -1       2 
       5      0.000      -1       2 
       6      0.000      -1       2 
       7      0.000      -1       2 
       8      0.000      -1       2 
       9      0.000      -1       2 
      10      0.000      -1       2 
      11      0.000      -1       2 
      12      0.000      -1       2 
      13      0.000      -1       2 
      14      0.000      -1       2 
      15      0.000      -1       2 
      16      0.000      -1       2 
      17      0.000      -1       2 
      18      0.000      -1       2 
      19      0.000      -1       2 
      20      0.000      -1       2 
      21      0.000      -1       2 
      22      0.000      -1       2 
      23      0.000      -1       2 
      24      0.000      -1       2 
      25      0.000      -1       2 
      26      0.000      -1       2 
      27      0.000      -1       2 
      28      0.000      -1       2 
      29      0.000      -1       2 
      30      0.000      -1       2 
      31      0.000      -1       2 
      32      0.000      -1       2 
      33      0.000      -1       2 
      34      0.000      -1       2 
      35      0.000      -1       2 
      36      0.000      -1       2 
      37      0.000      -1       2 
      38      0.000      -1       2 
      39      0.000      -1       2 

Atoms 

     1      1      1 -0.23510000    1.000  1.00000  0.00000
     2      1      2 -0.11250000   -0.533  1.00000  0.00000
     3      1      3 -0.23620000   -1.014  1.00000  1.46098
     4      1      4 -0.10490000   -1.126  2.18414 -0.83066
     5      1      5 -0.23580000   -0.698  2.10805 -2.30396
     6      1      6 -0.17520000   -2.666  2.23066 -0.67981
     7      1      7 -0.17690000   -3.386  3.27861 -1.55044
     8      1      8 -0.01940000   -4.950  3.37629 -1.44116
     9      1      9 -0.23100000   -5.581  2.03780 -1.86543
    10      1     10 -0.23980000   -5.253  3.50625  0.07833
    11      1     11 0.15330000   -5.524  4.64647 -2.37969
    12      1     12 -0.10560000   -5.063  4.57723 -3.92836
    13      1     13 -0.23660000   -3.556  4.72200 -4.23240
    14      1     14 -0.23000000   -5.587  3.42638 -4.79273
    15      1     15 -0.64000000   -7.015  4.99648 -2.15097
    16      1     16 -0.03890000   -7.213  5.40170 -0.73905
    17      1     17 0.17460000   -7.769  5.97981 -3.03720
    18      1     18 -0.23060000   -8.051  5.46770 -4.46065
    19      1     19 -0.23940000   -9.236  6.20848 -2.48674
    20      1     20 -0.26560000   -7.100  7.37065 -3.09280
    21      1     21 0.08100000    1.388  0.21041  0.65122
    22      1     22 0.08100000    1.392  1.95789  0.35752
    23      1     23 0.08100000    1.402  0.80940 -0.99808
    24      1     24 0.09560000   -0.865  0.05602 -0.45252
    25      1     25 0.08110000   -0.836  1.97056  1.93458
    26      1     26 0.08110000   -0.489  0.23554  2.04567
    27      1     27 0.08110000   -2.078  0.76924  1.52953
    28      1     28 0.09370000   -0.724  3.12058 -0.42398
    29      1     29 0.08130000   -1.123  1.22714 -2.79177
    30      1     30 0.08130000    0.388  2.07151 -2.41107
    31      1     31 0.08130000   -1.020  2.99799 -2.85640
    32      1     32 0.08990000   -2.852  2.45479  0.37043
    33      1     33 0.08990000   -3.080  1.23758 -0.89369
    34      1     34 0.09080000   -3.156  2.98706 -2.56834
    35      1     35 0.09080000   -2.947  4.25925 -1.34898
    36      1     36 0.08390000   -5.471  1.27888 -1.08160
    37      1     37 0.08390000   -5.093  1.61202 -2.74189
    38      1     38 0.08390000   -6.652  2.14532 -2.06517
    39      1     39 0.08120000   -4.720  2.77576  0.68978
    40      1     40 0.08120000   -6.287  3.24505  0.31136
    41      1     41 0.08120000   -4.986  4.48928  0.47123
    42      1     42 0.05930000   -4.978  5.52404 -2.00504
    43      1     43 0.08830000   -5.433  5.50223 -4.36352
    44      1     44 0.08120000   -3.030  3.76225 -4.30928
    45      1     45 0.08120000   -3.048  5.37115 -3.51397
    46      1     46 0.08120000   -3.425  5.16718 -5.22523
    47      1     47 0.08250000   -5.202  2.45553 -4.49285
    48      1     48 0.08250000   -5.251  3.56110 -5.83199
    49      1     49 0.08250000   -6.671  3.35622 -4.82077
    50      1     50 0.07970000   -7.526  4.53827 -0.15426
    51      1     51 0.07970000   -8.025  6.09657 -0.53110
    52      1     52 0.07970000   -6.341  5.90751 -0.31879
    53      1     53 0.08690000   -8.425  4.43812 -4.43207
    54      1     54 0.08690000   -7.205  5.54007 -5.13791
    55      1     55 0.08690000   -8.832  6.05883 -4.95633
    56      1     56 0.08540000   -9.670  5.26821 -2.11673
    57      1     57 0.08540000   -9.915  6.57979 -3.26237
    58      1     58 0.08540000   -9.290  6.96060 -1.69052
    59      1     59 0.08500000   -6.129  7.34731 -3.59076
    60      1     60 0.08500000   -6.949  7.79262 -2.09201
    61      1     61 0.08500000   -7.732  8.07667 -3.64763

Bonds 

     1      1      2      1
     2      2      3      2
     3      3      4      2
     4      4      5      4
     5      5      6      4
     6      6      7      6
     7      7      8      7
     8      8      9      8
     9      9     10      8
    10     10     11      8
    11     11     12     11
    12     12     13     12
    13     13     14     12
    14     14     15     11
    15     15     16     15
    16     16     17     15
    17     17     18     17
    18     18     19     17
    19     19     20     17
    20     20     21      1
    21     21     22      1
    22     22     23      1
    23     23     24      2
    24     24     25      3
    25     25     26      3
    26     26     27      3
    27     27     28      4
    28     28     29      5
    29     29     30      5
    30     30     31      5
    31     31     32      6
    32     32     33      6
    33     33     34      7
    34     34     35      7
    35     35     36      9
    36     36     37      9
    37     37     38      9
    38     38     39     10
    39     39     40     10
    40     40     41     10
    41     41     42     11
    42     42     43     12
    43     43     44     13
    44     44     45     13
    45     45     46     13
    46     46     47     14
    47     47     48     14
    48     48     49     14
    49     49     50     16
    50     50     51     16
    51     51     52     16
    52     52     53     18
    53     53     54     18
    54     54     55     18
    55     55     56     19
    56     56     57     19
    57     57     58     19
    58     58     59     20
    59     59     60     20
    60     60     61     20

Angles 

     1      1      1      2      3
     2      2      1      2      4
     3      3      2      4      5
     4      4      2      4      6
     5      5      4      6      7
     6      6      6      7      8
     7      7      7      8      9
     8      8      7      8     10
     9      9      7      8     11
    10     10      8     11     12
    11     11     11     12     13
    12     12     11     12     14
    13     13      8     11     15
    14     14     11     15     16
    15     15     11     15     17
    16     16     15     17     18
    17     17     15     17     19
    18     18     15     17     20
    19     19      2      1     21
    20     20      2      1     22
    21     21      2      1     23
    22     22      1      2     24
    23     23      2      3     25
    24     24      2      3     26
    25     25      2      3     27
    26     26      2      4     28
    27     27      4      5     29
    28     28      4      5     30
    29     29      4      5     31
    30     30      4      6     32
    31     31      4      6     33
    32     32      6      7     34
    33     33      6      7     35
    34     34      8      9     36
    35     35      8      9     37
    36     36      8      9     38
    37     37      8     10     39
    38     38      8     10     40
    39     39      8     10     41
    40     40      8     11     42
    41     41     11     12     43
    42     42     12     13     44
    43     43     12     13     45
    44     44     12     13     46
    45     45     12     14     47
    46     46     12     14     48
    47     47     12     14     49
    48     48     15     16     50
    49     49     15     16     51
    50     50     15     16     52
    51     51     17     18     53
    52     52     17     18     54
    53     53     17     18     55
    54     54     17     19     56
    55     55     17     19     57
    56     56     17     19     58
    57     57     17     20     59
    58     58     17     20     60
    59     59     17     20     61
    60     60     59     20     61
    61     61     13     12     14
    62     62     12     11     15
    63     63     56     19     57
    64     64     50     16     51
    65     65     51     16     52
    66     66     59     20     60
    67     67     16     15     17
    68     68     39     10     41
    69     69     45     13     46
    70     70     12     11     42
    71     71     32      6     33
    72     72      7      6     32
    73     73     53     18     55
    74     74      5      4      6
    75     75     10      8     11
    76     76     48     14     49
    77     77      5      4     28
    78     78     15     11     42
    79     79     18     17     20
    80     80     36      9     38
    81     81      4      2     24
    82     82     47     14     49
    83     83     37      9     38
    84     84     56     19     58
    85     85     40     10     41
    86     86      9      8     11
    87     87     39     10     40
    88     88     54     18     55
    89     89      6      4     28
    90     90     29      5     30
    91     91     44     13     45
    92     92      9      8     10
    93     93      8      7     35
    94     94     21      1     23
    95     95     57     19     58
    96     96     21      1     22
    97     97     13     12     43
    98     98     25      3     26
    99     99     60     20     61
   100    100     36      9     37
   101    101      8      7     34
   102    102     14     12     43
   103    103     34      7     35
   104    104     50     16     52
   105    105     19     17     20
   106    106     29      5     31
   107    107     25      3     27
   108    108     26      3     27
   109    109     22      1     23
   110    110     18     17     19
   111    111      3      2      4
   112    112     44     13     46
   113    113      3      2     24
   114    114      7      6     33
   115    115     47     14     48
   116    116     53     18     54
   117    117     30      5     31

Dihedrals

     1      1      5      4      2      1 
     2      2      7      6      4      2 
     3      3      8      7      6      4 
     4      4      9      8      7      6 
     5      5     12     11      8      7 
     6      6     13     12     11      8 
     7      7     16     15     11      8 
     8      8     18     17     15     11 
     9      9     21      1      2      3 
    10     10     25      3      2      1 
    11     11     29      5      4      2 
    12     12     36      9      8      7 
    13     13     39     10      8      7 
    14     14     44     13     12     11 
    15     15     47     14     12     11 
    16     16     50     16     15     11 
    17     17     53     18     17     15 
    18     18     56     19     17     15 
    19     19     59     20     17     15 
    20     20     54     18     17     20 
    21     21     33      6      4      2 
    22     22     42     11     12     13 
    23     23     35      7      8      9 
    24     24     34      7      8     10 
    25     25     55     18     17     20 
    26     26     49     14     12     11 
    27     27     49     14     12     43 
    28     28     60     20     17     19 
    29     29     61     20     17     18 
    30     30     38      9      8      7 
    31     31     47     14     12     13 
    32     32     12     11      8     10 
    33     33     23      1      2      3 
    34     34     15     11      8      7 
    35     35     22      1      2      4 
    36     36     41     10      8      9 
    37     37     38      9      8     11 
    38     38      6      4      2      1 
    39     39     55     18     17     15 
    40     40     26      3      2      1 
    41     41     49     14     12     13 
    42     42     44     13     12     43 
    43     43     32      6      7      8 
    44     44     29      5      4     28 
    45     45     60     20     17     18 
    46     46     59     20     17     19 
    47     47     60     20     17     15 
    48     48     33      6      4      5 
    49     49     42     11      8      7 
    50     50     41     10      8     11 
    51     51     26      3      2     24 
    52     52     45     13     12     11 
    53     53     55     18     17     19 
    54     54     31      5      4     28 
    55     55     15     11     12     13 
    56     56     38      9      8     10 
    57     57     26      3      2      4 
    58     58     37      9      8     11 
    59     59     19     17     15     11 
    60     60     52     16     15     11 
    61     61      5      4      2      3 
    62     62     36      9      8     10 
    63     63     57     19     17     15 
    64     64     43     12     11     42 
    65     65     31      5      4      2 
    66     66     27      3      2     24 
    67     67     34      7      8      9 
    68     68     34      7      6      4 
    69     69     32      6      4     28 
    70     70     12     11      8      9 
    71     71     24      2      1     22 
    72     72     52     16     15     17 
    73     73     16     15     11     12 
    74     74     14     12     11      8 
    75     75     57     19     17     20 
    76     76     45     13     12     43 
    77     77     29      5      4      6 
    78     78      6      4      2      3 
    79     79     46     13     12     43 
    80     80     35      7      8     10 
    81     81     19     17     15     16 
    82     82     56     19     17     20 
    83     83     15     11      8      9 
    84     84     23      1      2      4 
    85     85     28      4      2      3 
    86     86     35      7      8     11 
    87     87     43     12     11      8 
    88     88     40     10      8      9 
    89     89     40     10      8     11 
    90     90     42     11     12     14 
    91     91     32      6      4      5 
    92     92     34      7      8     11 
    93     93     51     16     15     11 
    94     94     46     13     12     14 
    95     95     61     20     17     19 
    96     96     15     11     12     14 
    97     97     27      3      2      1 
    98     98     28      4      2     24 
    99     99     48     14     12     13 
   100    100     51     16     15     17 
   101    101     59     20     17     18 
   102    102     24      2      4      5 
   103    103     58     19     17     15 
   104    104     24      2      1     21 
   105    105     28      4      6      7 
   106    106     35      7      6      4 
   107    107     34      7      6     32 
   108    108     54     18     17     19 
   109    109     50     16     15     17 
   110    110     41     10      8      7 
   111    111     39     10      8      9 
   112    112     42     11     15     16 
   113    113     31      5      4      6 
   114    114     27      3      2      4 
   115    115     11      8      7      6 
   116    116     54     18     17     15 
   117    117     37      9      8      7 
   118    118     42     11      8     10 
   119    119     58     19     17     20 
   120    120     33      6      7      8 
   121    121     28      4      2      1 
   122    122     22      1      2      3 
   123    123     21      1      2      4 
   124    124     32      6      4      2 
   125    125     20     17     15     11 
   126    126     56     19     17     18 
   127    127     57     19     17     18 
   128    128     24      2      1     23 
   129    129     17     15     11     12 
   130    130     33      6      4     28 
   131    131     43     12     11     15 
   132    132     24      2      4      6 
   133    133     45     13     12     14 
   134    134     48     14     12     11 
   135    135     44     13     12     14 
   136    136     35      7      6     32 
   137    137     34      7      6     33 
   138    138     46     13     12     11 
   139    139     30      5      4     28 
   140    140     30      5      4      2 
   141    141     25      3      2     24 
   142    142     42     11     15     17 
   143    143     18     17     15     16 
   144    144     53     18     17     20 
   145    145     39     10      8     11 
   146    146     10      8      7      6 
   147    147     30      5      4      6 
   148    148     61     20     17     15 
   149    149     25      3      2      4 
   150    150     58     19     17     18 
   151    151     15     11      8     10 
   152    152     40     10      8      7 
   153    153     47     14     12     43 
   154    154     36      9      8     11 
   155    155     37      9      8     10 
   156    156     48     14     12     43 
   157    157     35      7      6     33 
   158    158     20     17     15     16 
   159    159     53     18     17     19 
   160    160     17     15     11      8 
   161    161      7      6      4      5 
   162    162     42     11      8      9 

Impropers

     1      1      2      1      3      4 
     2      2      4      2      5      6 
     3      3      8      9     10      7 
     4      4      8      9     11      7 
     5      5     12     11     13     14 
     6      6     11     12     15      8 
     7      7     15     17     11     16 
     8      8     17     18     19     15 
     9      9     17     18     20     15 
    10     10      1      2     21     22 
    11     11      1      2     21     23 
    12     12      2      1      3     24 
    13     13      3     25     26      2 
    14     14      3     25      2     27 
    15     15      4      2     28      5 
    16     16      5     29      4     30 
    17     17      5     29      4     31 
    18     18      6      4      7     32 
    19     19      6     33      4      7 
    20     20      7     34      6      8 
    21     21      7     35      6      8 
    22     22      9     36     37      8 
    23     23      9     36     38      8 
    24     24     10      8     39     40 
    25     25     10     41     39      8 
    26     26     11     42     12      8 
    27     27     12     43     13     11 
    28     28     13     12     45     44 
    29     29     13     44     12     46 
    30     30     14     12     47     48 
    31     31     14     49     12     47 
    32     32     16     50     51     15 
    33     33     16     50     52     15 
    34     34     18     17     53     54 
    35     35     18     17     53     55 
    36     36     19     57     17     56 
    37     37     19     17     58     56 
    38     38     20     17     59     60 
    39     39     20     17     59     61 

