LAMMPS data file Created by LigParGen - (Written by Leela S. Dodda)

      36 atoms
      36 bonds
      69 angles
      94 dihedrals
      22 impropers
 
      36 atom types
      36 bond types
      69 angle types
      94 dihedral types
      22 improper types
 
   -6.984580    43.015420 xlo xhi
   -1.578310    48.421690 ylo yhi
   -1.023110    48.976890 zlo zhi

Masses

       1     12.011  
       2     12.011  
       3     12.011  
       4     12.011  
       5     12.011  
       6     12.011  
       7     12.011  
       8     12.011  
       9     12.011  
      10     12.011  
      11     15.999  
      12     12.011  
      13     15.999  
      14     15.999  
      15      1.008  
      16      1.008  
      17      1.008  
      18      1.008  
      19      1.008  
      20      1.008  
      21      1.008  
      22      1.008  
      23      1.008  
      24      1.008  
      25      1.008  
      26      1.008  
      27      1.008  
      28      1.008  
      29      1.008  
      30      1.008  
      31      1.008  
      32      1.008  
      33      1.008  
      34      1.008  
      35      1.008  
      36      1.008  

Pair Coeffs 

       1      0.066  3.5000000 
       2      0.066  3.5000000 
       3      0.066  3.5000000 
       4      0.066  3.5000000 
       5      0.066  3.5000000 
       6      0.066  3.5000000 
       7      0.066  3.5000000 
       8      0.066  3.5000000 
       9      0.066  3.5000000 
      10      0.066  3.5000000 
      11      0.140  2.9000000 
      12      0.066  3.5000000 
      13      0.140  2.9000000 
      14      0.140  2.9000000 
      15      0.030  2.5000000 
      16      0.030  2.5000000 
      17      0.030  2.5000000 
      18      0.030  2.5000000 
      19      0.030  2.5000000 
      20      0.030  2.5000000 
      21      0.030  2.5000000 
      22      0.030  2.5000000 
      23      0.030  2.5000000 
      24      0.030  2.5000000 
      25      0.030  2.5000000 
      26      0.030  2.5000000 
      27      0.030  2.5000000 
      28      0.030  2.5000000 
      29      0.030  2.5000000 
      30      0.030  2.5000000 
      31      0.030  2.5000000 
      32      0.030  2.5000000 
      33      0.030  2.5000000 
      34      0.030  2.5000000 
      35      0.030  2.5000000 
      36      0.030  2.5000000 

Bond Coeffs 

       1   268.0000     1.5290 
       2   268.0000     1.5290 
       3   268.0000     1.5290 
       4   268.0000     1.5290 
       5   268.0000     1.5290 
       6   268.0000     1.5290 
       7   268.0000     1.5290 
       8   268.0000     1.5290 
       9   268.0000     1.5290 
      10   320.0000     1.4100 
      11   320.0000     1.4100 
      12   320.0000     1.4100 
      13   320.0000     1.4100 
      14   340.0000     1.0900 
      15   340.0000     1.0900 
      16   340.0000     1.0900 
      17   340.0000     1.0900 
      18   340.0000     1.0900 
      19   340.0000     1.0900 
      20   340.0000     1.0900 
      21   340.0000     1.0900 
      22   340.0000     1.0900 
      23   340.0000     1.0900 
      24   340.0000     1.0900 
      25   340.0000     1.0900 
      26   340.0000     1.0900 
      27   340.0000     1.0900 
      28   340.0000     1.0900 
      29   340.0000     1.0900 
      30   340.0000     1.0900 
      31   340.0000     1.0900 
      32   340.0000     1.0900 
      33   340.0000     1.0900 
      34   340.0000     1.0900 
      35   340.0000     1.0900 
      36   250.0000     1.4700 

Angle Coeffs 

       1     58.350    112.700
       2     58.350    112.700
       3     58.350    112.700
       4     58.350    112.700
       5     58.350    112.700
       6     58.350    112.700
       7     58.350    112.700
       8     58.350    112.700
       9     50.000    109.500
      10     60.000    109.500
      11     50.000    109.500
      12     50.000    109.500
      13     37.500    110.700
      14     37.500    110.700
      15     37.500    110.700
      16     37.500    110.700
      17     37.500    110.700
      18     37.500    110.700
      19     37.500    110.700
      20     37.500    110.700
      21     37.500    110.700
      22     37.500    110.700
      23     37.500    110.700
      24     37.500    110.700
      25     37.500    110.700
      26     37.500    110.700
      27     37.500    110.700
      28     37.500    110.700
      29     37.500    110.700
      30     37.500    110.700
      31     37.500    110.700
      32     35.000    109.500
      33     35.000    109.500
      34     35.000    109.500
      35     33.000    107.800
      36     33.000    107.800
      37     33.000    107.800
      38     35.000    109.500
      39     37.500    110.700
      40     33.000    107.800
      41     33.000    107.800
      42     33.000    107.800
      43     50.000    109.500
      44     50.000    109.500
      45     58.350    112.700
      46     37.500    110.700
      47     35.000    109.500
      48     37.500    110.700
      49     33.000    107.800
      50     37.500    110.700
      51     37.500    110.700
      52     37.500    110.700
      53     33.000    107.800
      54     69.510    114.540
      55     50.000    109.500
      56     33.000    107.800
      57     37.500    110.700
      58     33.000    107.800
      59     33.000    107.800
      60     33.000    107.800
      61     33.000    107.800
      62     33.000    107.800
      63     50.000    109.500
      64     33.000    107.800
      65     37.500    110.700
      66     33.000    107.800
      67     69.510    114.540
      68     58.350    112.700
      69     33.000    107.800

Dihedral Coeffs  

       1      1.300     -0.200      0.200      0.000 
       2      1.300     -0.200      0.200      0.000 
       3      1.300     -0.200      0.200      0.000 
       4      1.300     -0.200      0.200      0.000 
       5      1.300     -0.200      0.200      0.000 
       6      1.711     -0.500      0.663      0.000 
       7      0.650     -0.250      0.670      0.000 
       8      0.000      0.000      0.300      0.000 
       9      0.000      0.000      0.300      0.000 
      10      0.000      0.000      0.300      0.000 
      11      0.000      0.000      0.760      0.000 
      12      0.000      0.000      0.300      0.000 
      13      1.300     -0.200      0.200      0.000 
      14      0.650     -0.250      0.670      0.000 
      15      0.000      0.000      0.468      0.000 
      16      0.000      0.000      0.300      0.000 
      17      0.000      0.000      0.300      0.000 
      18      0.000      0.000      0.300      0.000 
      19      0.000      0.000      0.300      0.000 
      20      0.000      0.000      0.300      0.000 
      21      0.000      0.000      0.300      0.000 
      22      0.650     -0.250      0.670      0.000 
      23      0.000      0.000      0.760      0.000 
      24      0.000      0.000      0.468      0.000 
      25      0.000      0.000      0.300      0.000 
      26      0.000      0.000      0.300      0.000 
      27      0.000      0.000      0.468      0.000 
      28      0.000      0.000      0.300      0.000 
      29      1.711     -0.500      0.663      0.000 
      30      0.000      0.000      0.300      0.000 
      31      0.000      0.000      0.300      0.000 
      32      0.000      0.000      0.760      0.000 
      33      0.000      0.000      0.468      0.000 
      34      1.711     -0.500      0.663      0.000 
      35      0.000      0.000      0.300      0.000 
      36      0.000      0.000      0.468      0.000 
      37      0.000      0.000      0.300      0.000 
      38      0.000      0.000      0.300      0.000 
      39      0.000      0.000      0.300      0.000 
      40      0.000      0.000      0.300      0.000 
      41      0.000      0.000      0.300      0.000 
      42      1.711     -0.500      0.663      0.000 
      43      0.000      0.000      0.468      0.000 
      44      0.000      0.000      0.300      0.000 
      45      0.000      0.000      0.300      0.000 
      46      0.000      0.000      0.300      0.000 
      47      0.000      0.000      0.300      0.000 
      48     -0.550      0.000      0.000      0.000 
      49      0.000      0.000      0.300      0.000 
      50      0.000      0.000      0.300      0.000 
      51      0.000      0.000      0.300      0.000 
      52      0.000      0.000      0.300      0.000 
      53      0.000      0.000      0.300      0.000 
      54      0.000      0.000      0.468      0.000 
      55      0.000      0.000      0.300      0.000 
      56      0.000      0.000      0.300      0.000 
      57      0.000      0.000      0.300      0.000 
      58      0.650     -0.250      0.670      0.000 
      59      0.000      0.000      0.300      0.000 
      60      0.000      0.000      0.468      0.000 
      61      0.000      0.000      0.300      0.000 
      62      0.000      0.000      0.300      0.000 
      63      0.650     -0.250      0.670      0.000 
      64      0.000      0.000      0.300      0.000 
      65      1.711     -0.500      0.663      0.000 
      66      0.000      0.000      0.300      0.000 
      67      0.000      0.000      0.300      0.000 
      68      0.000      0.000      0.760      0.000 
      69      0.000      0.000      0.468      0.000 
      70      0.000      0.000      0.468      0.000 
      71      0.000      0.000      0.300      0.000 
      72      0.000      0.000      0.468      0.000 
      73      1.300     -0.200      0.200      0.000 
      74      0.000      0.000      0.468      0.000 
      75      1.300     -0.200      0.200      0.000 
      76      0.650     -0.250      0.670      0.000 
      77      0.000      0.000      0.300      0.000 
      78      0.000      0.000      0.300      0.000 
      79      0.000      0.000      0.468      0.000 
      80      0.000      0.000      0.300      0.000 
      81      0.000      0.000      0.300      0.000 
      82      0.000      0.000      0.300      0.000 
      83      0.000      0.000      0.300      0.000 
      84      0.000      0.000      0.300      0.000 
      85      0.000      0.000      0.760      0.000 
      86      0.000      0.000      0.300      0.000 
      87      0.650     -0.250      0.670      0.000 
      88      0.000      0.000      0.300      0.000 
      89      0.000      0.000      0.468      0.000 
      90      0.650     -0.250      0.670      0.000 
      91      0.000      0.000      0.300      0.000 
      92      0.000      0.000      0.300      0.000 
      93      0.000      0.000      0.300      0.000 
      94      0.000      0.000      0.300      0.000 

Improper Coeffs 

       1      0.000      -1       2 
       2      0.000      -1       2 
       3      0.000      -1       2 
       4      0.000      -1       2 
       5      0.000      -1       2 
       6      0.000      -1       2 
       7      0.000      -1       2 
       8      0.000      -1       2 
       9      0.000      -1       2 
      10      0.000      -1       2 
      11      0.000      -1       2 
      12      0.000      -1       2 
      13      0.000      -1       2 
      14      0.000      -1       2 
      15      0.000      -1       2 
      16      0.000      -1       2 
      17      0.000      -1       2 
      18      0.000      -1       2 
      19      0.000      -1       2 
      20      0.000      -1       2 
      21      0.000      -1       2 
      22      0.000      -1       2 

Atoms 

     1      1      1 -0.23910000    1.000  1.00000  0.00000
     2      1      2 -0.17910000   -0.523  1.00000  0.00000
     3      1      3 -0.18120000   -1.051  1.00000  1.43199
     4      1      4 -0.16180000   -2.587  1.06521  1.50032
     5      1      5 0.08840000   -3.144  1.06800  2.94451
     6      1      6 -0.26390000   -2.658  2.29627  3.72887
     7      1      7 -0.21370000   -4.658  0.92530  2.95525
     8      1      8 0.09190000   -4.951  0.26327  4.29688
     9      1      9 -0.24450000   -6.015 -0.82997  4.17259
    10      1     10 -0.00050000   -5.376  1.29622  5.36613
    11      1     11 -0.36990000   -5.651  0.66880  6.62322
    12      1     12 -0.05170000   -5.867  1.63205  7.64645
    13      1     13 -0.17290000   -3.705 -0.34047  4.70057
    14      1     14 -0.18800000   -2.735 -0.12948  3.61039
    15      1     15 0.08260000    1.385  1.00129 -1.02311
    16      1     16 0.08260000    1.390  0.11337  0.51214
    17      1     17 0.08260000    1.391  1.88838  0.51067
    18      1     18 0.08810000   -0.890  0.12067 -0.53995
    19      1     19 0.08810000   -0.880  1.89048 -0.52975
    20      1     20 0.10070000   -0.610  1.85559  1.94400
    21      1     21 0.10070000   -0.702  0.09616  1.94737
    22      1     22 0.10240000   -2.976  0.18818  0.96497
    23      1     23 0.10240000   -2.944  1.95528  0.96818
    24      1     24 0.09750000   -3.239  3.18706  3.46863
    25      1     25 0.09750000   -1.608  2.52798  3.54534
    26      1     26 0.09750000   -2.698  2.13660  4.80890
    27      1     27 0.12010000   -4.964  0.24780  2.14600
    28      1     28 0.12010000   -5.194  1.86593  2.79542
    29      1     29 0.10170000   -6.985 -0.40640  3.88589
    30      1     30 0.10170000   -6.140 -1.37458  5.11522
    31      1     31 0.10170000   -5.730 -1.57831  3.42540
    32      1     32 0.08500000   -6.277  1.82516  5.03764
    33      1     33 0.08500000   -4.588  2.03313  5.53058
    34      1     34 0.08250000   -6.071  1.10465  8.58160
    35      1     35 0.08250000   -6.729  2.25883  7.39891
    36      1     36 0.08250000   -4.977  2.25317  7.78625

Bonds 

     1      1      2      1
     2      2      3      2
     3      3      4      3
     4      4      5      4
     5      5      6      5
     6      6      7      5
     7      7      8      7
     8      8      9      8
     9      9     10      8
    10     10     11     10
    11     11     12     11
    12     12     13      8
    13     13     14      5
    14     14     15      1
    15     15     16      1
    16     16     17      1
    17     17     18      2
    18     18     19      2
    19     19     20      3
    20     20     21      3
    21     21     22      4
    22     22     23      4
    23     23     24      6
    24     24     25      6
    25     25     26      6
    26     26     27      7
    27     27     28      7
    28     28     29      9
    29     29     30      9
    30     30     31      9
    31     31     32     10
    32     32     33     10
    33     33     34     12
    34     34     35     12
    35     35     36     12
    36     36     14     13

Angles 

     1      1      1      2      3
     2      2      2      3      4
     3      3      3      4      5
     4      4      4      5      6
     5      5      4      5      7
     6      6      5      7      8
     7      7      7      8      9
     8      8      7      8     10
     9      9      8     10     11
    10     10     10     11     12
    11     11      7      8     13
    12     12      4      5     14
    13     13      2      1     15
    14     14      2      1     16
    15     15      2      1     17
    16     16      1      2     18
    17     17      1      2     19
    18     18      2      3     20
    19     19      2      3     21
    20     20      3      4     22
    21     21      3      4     23
    22     22      5      6     24
    23     23      5      6     25
    24     24      5      6     26
    25     25      5      7     27
    26     26      5      7     28
    27     27      8      9     29
    28     28      8      9     30
    29     29      8      9     31
    30     30      8     10     32
    31     31      8     10     33
    32     32     11     12     34
    33     33     11     12     35
    34     34     11     12     36
    35     35     25      6     26
    36     36     18      2     19
    37     37     29      9     30
    38     38     11     10     33
    39     39      3      2     18
    40     40     27      7     28
    41     41     30      9     31
    42     42     29      9     31
    43     43      6      5     14
    44     44      9      8     13
    45     45      9      8     10
    46     46      8      7     27
    47     47     11     10     32
    48     48      5      4     23
    49     49     35     12     36
    50     50      8      7     28
    51     51      5      4     22
    52     52      3      2     19
    53     53     15      1     16
    54     54      8     13     14
    55     55      7      5     14
    56     56     34     12     35
    57     57      4      3     21
    58     58     15      1     17
    59     59     16      1     17
    60     60     34     12     36
    61     61     24      6     25
    62     62     22      4     23
    63     63     10      8     13
    64     64     24      6     26
    65     65      4      3     20
    66     66     32     10     33
    67     67      5     14     13
    68     68      6      5      7
    69     69     20      3     21

Dihedrals

     1      1      4      3      2      1 
     2      2      5      4      3      2 
     3      3      6      5      4      3 
     4      4      8      7      5      4 
     5      5      9      8      7      5 
     6      6     11     10      8      7 
     7      7     12     11     10      8 
     8      8     15      1      2      3 
     9      9     24      6      5      4 
    10     10     29      9      8      7 
    11     11     34     12     11     10 
    12     12     23      4      3     21 
    13     13     10      8      7      5 
    14     14     13     14      5      4 
    15     15     28      7      5     14 
    16     16     28      7      8      9 
    17     17     27      7      8     10 
    18     18     27      7      5      4 
    19     19     20      3      2     19 
    20     20     21      3      2     18 
    21     21     25      6      5      7 
    22     22     14     13      8      9 
    23     23     35     12     11     10 
    24     24     27      7      5     14 
    25     25     30      9      8     10 
    26     26     28      7      5      4 
    27     27     24      6      5     14 
    28     28     18      2      1     15 
    29     29     11     10      8      9 
    30     30     32     10      8      9 
    31     31     27      7      8      9 
    32     32     32     10     11     12 
    33     33     32     10      8     13 
    34     34     14      5      7      8 
    35     35     26      6      5      4 
    36     36     25      6      5     14 
    37     37     23      4      5      6 
    38     38     22      4      5      7 
    39     39     20      3      2      1 
    40     40     20      3      2     18 
    41     41     22      4      3     20 
    42     42     13      8      7      5 
    43     43     29      9      8     13 
    44     44     30      9      8      7 
    45     45     32     10      8      7 
    46     46     22      4      3      2 
    47     47     20      3      4      5 
    48     48     13      8     10     11 
    49     49     24      6      5      7 
    50     50     23      4      3      2 
    51     51     18      2      1     17 
    52     52     19      2      1     16 
    53     53     29      9      8     10 
    54     54     28      7      8     13 
    55     55     21      3      4      5 
    56     56     28      7      8     10 
    57     57     31      9      8     10 
    58     58      8     13     14      5 
    59     59     21      3      2     19 
    60     60     31      9      8     13 
    61     61     23      4      5      7 
    62     62     33     10      8      9 
    63     63     13     14      5      6 
    64     64     17      1      2      3 
    65     65     14      5      4      3 
    66     66     25      6      5      4 
    67     67     27      7      5      6 
    68     68     33     10     11     12 
    69     69     22      4      5     14 
    70     70     23      4      5     14 
    71     71     19      2      3      4 
    72     72     26      6      5     14 
    73     73      8      7      5      6 
    74     74     33     10      8     13 
    75     75      7      5      4      3 
    76     76     14     13      8     10 
    77     77     23      4      3     20 
    78     78     22      4      3     21 
    79     79     27      7      8     13 
    80     80     31      9      8      7 
    81     81     18      2      3      4 
    82     82     19      2      1     17 
    83     83     21      3      2      1 
    84     84     22      4      5      6 
    85     85     36     12     11     10 
    86     86     28      7      5      6 
    87     87     14     13      8      7 
    88     88     16      1      2      3 
    89     89     30      9      8     13 
    90     90     13     14      5      7 
    91     91     26      6      5      7 
    92     92     18      2      1     16 
    93     93     33     10      8      7 
    94     94     19      2      1     15 

Impropers

     1      1      5      4      6      7 
     2      2      8      9     10      7 
     3      3      8      9     13      7 
     4      4      5      4     14      6 
     5      5      1      2     15     16 
     6      6      1     17     15      2 
     7      7      2      1     18      3 
     8      8      2      1     19      3 
     9      9      3      4      2     20 
    10     10      3      2      4     21 
    11     11      4      3      5     22 
    12     12      4      3      5     23 
    13     13      6     25      5     24 
    14     14      6     26      5     24 
    15     15      7     27      5      8 
    16     16      7     28      5      8 
    17     17      9     29     30      8 
    18     18      9     29     31      8 
    19     19     10     11      8     32 
    20     20     10     33     11      8 
    21     21     12     34     35     11 
    22     22     12     34     11     36 

