LAMMPS data file Created by LigParGen - (Written by Leela S. Dodda)

      39 atoms
      38 bonds
      73 angles
      96 dihedrals
      24 impropers
 
      39 atom types
      38 bond types
      73 angle types
      96 dihedral types
      24 improper types
 
  -10.662870    39.337130 xlo xhi
   -4.925980    45.074020 ylo yhi
   -3.348150    46.651850 zlo zhi

Masses

       1     12.011  
       2     12.011  
       3     12.011  
       4     12.011  
       5     15.999  
       6     32.060  
       7     15.999  
       8     15.999  
       9     12.011  
      10     12.011  
      11     12.011  
      12     12.011  
      13     12.011  
      14     32.060  
      15     12.011  
      16     15.999  
      17     15.999  
      18      1.008  
      19      1.008  
      20      1.008  
      21      1.008  
      22      1.008  
      23      1.008  
      24      1.008  
      25      1.008  
      26      1.008  
      27      1.008  
      28      1.008  
      29      1.008  
      30      1.008  
      31      1.008  
      32      1.008  
      33      1.008  
      34      1.008  
      35      1.008  
      36      1.008  
      37      1.008  
      38      1.008  
      39      1.008  

Pair Coeffs 

       1      0.066  3.5000000 
       2      0.066  3.5000000 
       3      0.066  3.5000000 
       4      0.066  3.5000000 
       5      0.140  2.9000000 
       6      0.250  3.5500000 
       7      0.170  2.9600000 
       8      0.170  2.9600000 
       9      0.066  3.5000000 
      10      0.066  3.5000000 
      11      0.066  3.5000000 
      12      0.066  3.5000000 
      13      0.066  3.5000000 
      14      0.250  3.5500000 
      15      0.066  3.5000000 
      16      0.170  2.9600000 
      17      0.170  2.9600000 
      18      0.030  2.5000000 
      19      0.030  2.5000000 
      20      0.030  2.5000000 
      21      0.030  2.5000000 
      22      0.030  2.5000000 
      23      0.030  2.5000000 
      24      0.030  2.5000000 
      25      0.030  2.5000000 
      26      0.030  2.5000000 
      27      0.030  2.5000000 
      28      0.030  2.5000000 
      29      0.030  2.5000000 
      30      0.030  2.5000000 
      31      0.030  2.5000000 
      32      0.030  2.5000000 
      33      0.030  2.5000000 
      34      0.030  2.5000000 
      35      0.030  2.5000000 
      36      0.030  2.5000000 
      37      0.030  2.5000000 
      38      0.030  2.5000000 
      39      0.030  2.5000000 

Bond Coeffs 

       1   268.0000     1.5290 
       2   268.0000     1.5290 
       3   268.0000     1.5290 
       4   320.0000     1.4100 
       5   293.9700     1.6600 
       6   700.0000     1.4400 
       7   700.0000     1.4400 
       8   340.0000     1.7700 
       9   268.0000     1.5290 
      10   268.0000     1.5290 
      11   268.0000     1.5290 
      12   268.0000     1.5290 
      13   340.0000     1.7700 
      14   340.0000     1.7700 
      15   700.0000     1.4400 
      16   700.0000     1.4400 
      17   340.0000     1.0900 
      18   340.0000     1.0900 
      19   340.0000     1.0900 
      20   340.0000     1.0900 
      21   340.0000     1.0900 
      22   340.0000     1.0900 
      23   340.0000     1.0900 
      24   340.0000     1.0900 
      25   340.0000     1.0900 
      26   340.0000     1.0900 
      27   340.0000     1.0900 
      28   340.0000     1.0900 
      29   340.0000     1.0900 
      30   340.0000     1.0900 
      31   340.0000     1.0900 
      32   340.0000     1.0900 
      33   340.0000     1.0900 
      34   340.0000     1.0900 
      35   340.0000     1.0900 
      36   340.0000     1.0900 
      37   340.0000     1.0900 
      38   340.0000     1.0900 

Angle Coeffs 

       1     58.350    112.700
       2     58.350    112.700
       3     50.000    109.500
       4     69.510    114.540
       5     78.670    104.360
       6     78.670    104.360
       7     78.670    104.360
       8     50.000    108.600
       9     58.350    112.700
      10     50.000    108.600
      11     58.350    112.700
      12     50.000    108.600
      13     62.000    102.000
      14     74.000    108.900
      15     74.000    108.900
      16     37.500    110.700
      17     37.500    110.700
      18     37.500    110.700
      19     37.500    110.700
      20     37.500    110.700
      21     37.500    110.700
      22     37.500    110.700
      23     37.500    110.700
      24     37.500    110.700
      25     35.000    109.500
      26     37.500    110.700
      27     37.500    110.700
      28     37.500    110.700
      29     37.500    110.700
      30     37.500    110.700
      31     37.500    110.700
      32     37.500    110.700
      33     37.500    110.700
      34     37.500    110.700
      35     35.000    109.500
      36     35.000    109.500
      37     35.000    109.500
      38     74.000    108.900
      39     33.000    107.800
      40     37.500    110.700
      41     37.500    110.700
      42     58.350    112.700
      43     35.000    109.500
      44     35.000    109.500
      45     37.500    110.700
      46     74.000    108.900
      47     33.000    107.800
      48     33.000    107.800
      49     33.000    107.800
      50     33.000    107.800
      51     37.500    110.700
      52     37.500    110.700
      53     33.000    107.800
      54     74.000    108.900
      55    104.000    119.000
      56     33.000    107.800
      57     33.000    107.800
      58     33.000    107.800
      59     35.000    109.500
      60     37.500    110.700
      61     37.500    110.700
      62     33.000    107.800
      63     35.000    109.500
      64    104.000    119.000
      65     33.000    107.800
      66     37.500    110.700
      67     33.000    107.800
      68     74.000    108.900
      69     33.000    107.800
      70     33.000    107.800
      71     37.500    110.700
      72     37.500    110.700
      73     33.000    107.800

Dihedral Coeffs  

       1      1.300     -0.200      0.200      0.000 
       2      1.711     -0.500      0.663      0.000 
       3      0.650     -0.250      0.670      0.000 
       4      0.000      0.000      0.000      0.000 
       5      0.000      0.000      0.000      0.000 
       6      1.262     -0.198      0.465      0.000 
       7      1.262     -0.198      0.465      0.000 
       8      1.262     -0.198      0.465      0.000 
       9      0.000      0.000      0.000      0.000 
      10      0.000      0.000      0.300      0.000 
      11      0.000      0.000      0.300      0.000 
      12      0.000      0.000      0.350      0.000 
      13      0.000      0.000      0.350      0.000 
      14      0.000      0.000      0.300      0.000 
      15      0.000      0.000      0.300      0.000 
      16      0.000      0.000      0.300      0.000 
      17      0.000      0.000      0.000      0.000 
      18      0.650     -0.250      0.670      0.000 
      19      0.000      0.000      0.350      0.000 
      20      0.000      0.000      0.000      0.000 
      21      0.000      0.000      0.000      0.000 
      22      0.000      0.000      0.350      0.000 
      23      0.000      0.000      0.760      0.000 
      24      0.000      0.000      0.468      0.000 
      25      0.000      0.000      0.300      0.000 
      26      0.000      0.000      0.452      0.000 
      27      0.000      0.000      0.350      0.000 
      28      0.000      0.000      0.000      0.000 
      29      0.000      0.000      0.300      0.000 
      30      0.000      0.000      0.300      0.000 
      31      0.000      0.000      0.300      0.000 
      32      0.000      0.000      0.300      0.000 
      33      0.000      0.000      0.300      0.000 
      34      0.000      0.000      0.300      0.000 
      35      0.000      0.000      0.452      0.000 
      36      0.000      0.000      0.300      0.000 
      37      0.000      0.000      0.300      0.000 
      38      0.000      0.000      0.300      0.000 
      39      0.000      0.000      0.300      0.000 
      40      0.000      0.000      0.300      0.000 
      41      1.300     -0.200      0.200      0.000 
      42      0.000      0.000      0.350      0.000 
      43      0.000      0.000      0.300      0.000 
      44      0.000      0.000      0.000      0.000 
      45      0.000      0.000      0.300      0.000 
      46      0.000      0.000      0.300      0.000 
      47      0.000      0.000      0.300      0.000 
      48      0.000      0.000      0.300      0.000 
      49      0.000      0.000      0.350      0.000 
      50      0.000      0.000      0.468      0.000 
      51      0.000      0.000      0.300      0.000 
      52      0.000      0.000      0.000      0.000 
      53      0.000      0.000      0.300      0.000 
      54      0.000      0.000      0.300      0.000 
      55      0.000      0.000      0.300      0.000 
      56      0.000      0.000      0.000      0.000 
      57      0.000      0.000      0.300      0.000 
      58      0.000      0.000      0.300      0.000 
      59      0.000      0.000      0.300      0.000 
      60      0.000      0.000      0.300      0.000 
      61      0.000      0.000      0.350      0.000 
      62      0.000      0.000      0.350      0.000 
      63      0.000      0.000      0.300      0.000 
      64      0.000      0.000      0.452      0.000 
      65      0.000      0.000      0.300      0.000 
      66      0.000      0.000      0.300      0.000 
      67      0.000      0.000      0.452      0.000 
      68      0.000      0.000      0.300      0.000 
      69      0.000      0.000      0.350      0.000 
      70      0.000      0.000      0.350      0.000 
      71      0.000      0.000      0.300      0.000 
      72      0.000      0.000      0.300      0.000 
      73      0.000      0.000      0.300      0.000 
      74      0.000      0.000      0.452      0.000 
      75      0.000      0.000      0.300      0.000 
      76      0.000      0.000      0.300      0.000 
      77      0.000      0.000      0.350      0.000 
      78      0.000      0.000      0.300      0.000 
      79      0.000      0.000      0.300      0.000 
      80      0.000      0.000      0.350      0.000 
      81      0.000      0.000      0.000      0.000 
      82      0.000      0.000      0.300      0.000 
      83      0.000      0.000      0.300      0.000 
      84      0.000      0.000      0.350      0.000 
      85      1.300     -0.200      0.200      0.000 
      86      0.000      0.000      0.350      0.000 
      87      0.000      0.000      0.760      0.000 
      88      0.000      0.000      0.452      0.000 
      89      0.000      0.000      0.300      0.000 
      90      0.000      0.000      0.300      0.000 
      91      0.000      0.000      0.300      0.000 
      92      0.000      0.000      0.350      0.000 
      93      0.000      0.000      0.350      0.000 
      94      0.000      0.000      0.300      0.000 
      95      0.000      0.000      0.300      0.000 
      96      0.000      0.000      0.350      0.000 

Improper Coeffs 

       1      0.000      -1       2 
       2      0.000      -1       2 
       3      0.000      -1       2 
       4      0.000      -1       2 
       5      0.000      -1       2 
       6      0.000      -1       2 
       7      0.000      -1       2 
       8      0.000      -1       2 
       9      0.000      -1       2 
      10      0.000      -1       2 
      11      0.000      -1       2 
      12      0.000      -1       2 
      13      0.000      -1       2 
      14      0.000      -1       2 
      15      0.000      -1       2 
      16      0.000      -1       2 
      17      0.000      -1       2 
      18      0.000      -1       2 
      19      0.000      -1       2 
      20      0.000      -1       2 
      21      0.000      -1       2 
      22      0.000      -1       2 
      23      0.000      -1       2 
      24      0.000      -1       2 

Atoms 

     1      1      1 -0.24040000    1.000  1.00000  0.00000
     2      1      2 -0.18000000   -0.521  1.00000  0.00000
     3      1      3 -0.16850000   -1.073  1.00000  1.42533
     4      1      4 0.07810000   -2.593  1.06474  1.45371
     5      1      5 -0.55020000   -3.177 -0.09968  0.87092
     6      1      6 1.35210000   -4.795 -0.02345  0.68081
     7      1      7 -0.57660000   -5.403  0.04436  1.99229
     8      1      8 -0.57660000   -5.049  0.99452 -0.31966
     9      1      9 -0.35750000   -5.147 -1.65774 -0.05509
    10      1     10 -0.15460000   -4.580 -2.78201  0.83674
    11      1     11 -0.23080000   -4.744 -4.18752  0.26533
    12      1     12 -0.12100000   -6.679 -1.80696 -0.24310
    13      1     13 -0.53610000   -7.326 -0.75779 -1.14938
    14      1     14 1.30250000   -9.088 -1.01249 -1.30123
    15      1     15 -0.57390000   -9.577  0.31373 -2.38047
    16      1     16 -0.56070000   -9.297 -2.26034 -2.00773
    17      1     17 -0.56070000   -9.688 -0.77302 -0.00657
    18      1     18 0.08330000    1.379  0.99870 -1.02665
    19      1     19 0.08330000    1.391  0.11367  0.50950
    20      1     20 0.08330000    1.391  1.88913  0.50541
    21      1     21 0.09770000   -0.880  0.11945 -0.54355
    22      1     22 0.09770000   -0.877  1.88624 -0.53849
    23      1     23 0.11070000   -0.675  1.86680  1.96804
    24      1     24 0.11070000   -0.735  0.09572  1.94432
    25      1     25 0.10670000   -2.929  1.96048  0.91589
    26      1     26 0.10670000   -2.932  1.14254  2.49288
    27      1     27 0.16740000   -4.647 -1.66587 -1.03124
    28      1     28 0.11190000   -5.059 -2.74647  1.82219
    29      1     29 0.11190000   -3.510 -2.61674  1.00624
    30      1     30 0.08950000   -5.789 -4.44012  0.07016
    31      1     31 0.08950000   -4.367 -4.92598  0.98149
    32      1     32 0.08950000   -4.180 -4.30144 -0.66575
    33      1     33 0.13390000   -7.166 -1.78254  0.74006
    34      1     34 0.13390000   -6.902 -2.78890 -0.67324
    35      1     35 0.17080000   -6.897 -0.79249 -2.15447
    36      1     36 0.17080000   -7.235  0.24930 -0.74072
    37      1     37 0.16860000   -9.092  0.17626 -3.34815
    38      1     38 0.16860000   -9.280  1.26253 -1.93025
    39      1     39 0.16860000  -10.663  0.27488 -2.49510

Bonds 

     1      1      2      1
     2      2      3      2
     3      3      4      3
     4      4      5      4
     5      5      6      5
     6      6      7      6
     7      7      8      6
     8      8      9      6
     9      9     10      9
    10     10     11     10
    11     11     12      9
    12     12     13     12
    13     13     14     13
    14     14     15     14
    15     15     16     14
    16     16     17     14
    17     17     18      1
    18     18     19      1
    19     19     20      1
    20     20     21      2
    21     21     22      2
    22     22     23      3
    23     23     24      3
    24     24     25      4
    25     25     26      4
    26     26     27      9
    27     27     28     10
    28     28     29     10
    29     29     30     11
    30     30     31     11
    31     31     32     11
    32     32     33     12
    33     33     34     12
    34     34     35     13
    35     35     36     13
    36     36     37     15
    37     37     38     15
    38     38     39     15

Angles 

     1      1      1      2      3
     2      2      2      3      4
     3      3      3      4      5
     4      4      4      5      6
     5      5      5      6      7
     6      6      5      6      8
     7      7      5      6      9
     8      8      6      9     10
     9      9      9     10     11
    10     10      6      9     12
    11     11      9     12     13
    12     12     12     13     14
    13     13     13     14     15
    14     14     13     14     16
    15     15     13     14     17
    16     16      2      1     18
    17     17      2      1     19
    18     18      2      1     20
    19     19      1      2     21
    20     20      1      2     22
    21     21      2      3     23
    22     22      2      3     24
    23     23      3      4     25
    24     24      3      4     26
    25     25      6      9     27
    26     26      9     10     28
    27     27      9     10     29
    28     28     10     11     30
    29     29     10     11     31
    30     30     10     11     32
    31     31      9     12     33
    32     32      9     12     34
    33     33     12     13     35
    34     34     12     13     36
    35     35     14     15     37
    36     36     14     15     38
    37     37     14     15     39
    38     38      7      6      9
    39     39     30     11     32
    40     40     13     12     33
    41     41      3      2     21
    42     42     10      9     12
    43     43      5      4     26
    44     44     14     13     35
    45     45     11     10     29
    46     46     15     14     17
    47     47     35     13     36
    48     48     31     11     32
    49     49     25      4     26
    50     50     28     10     29
    51     51      4      3     23
    52     52      3      2     22
    53     53     23      3     24
    54     54     15     14     16
    55     55     16     14     17
    56     56     37     15     39
    57     57     38     15     39
    58     58     33     12     34
    59     59      5      4     25
    60     60      4      3     24
    61     61     11     10     28
    62     62     30     11     31
    63     63     14     13     36
    64     64      7      6      8
    65     65     18      1     20
    66     66     13     12     34
    67     67     37     15     38
    68     68      8      6      9
    69     69     18      1     19
    70     70     19      1     20
    71     71     12      9     27
    72     72     10      9     27
    73     73     21      2     22

Dihedrals

     1      1      4      3      2      1 
     2      2      5      4      3      2 
     3      3      6      5      4      3 
     4      4      7      6      5      4 
     5      5     10      9      6      5 
     6      6     11     10      9      6 
     7      7     13     12      9      6 
     8      8     14     13     12      9 
     9      9     15     14     13     12 
    10     10     18      1      2      3 
    11     11     30     11     10      9 
    12     12     37     15     14     13 
    13     13     39     15     14     16 
    14     14     36     13     12      9 
    15     15     26      4      3     23 
    16     16     25      4      3     24 
    17     17      8      6      5      4 
    18     18      9      6      5      4 
    19     19     38     15     14     17 
    20     20     12      9      6      5 
    21     21     10      9      6      7 
    22     22     39     15     14     13 
    23     23     25      4      5      6 
    24     24     23      3      4      5 
    25     25     24      3      2     22 
    26     26     33     12     13     14 
    27     27     37     15     14     16 
    28     28     17     14     13     12 
    29     29     35     13     12     34 
    30     30     36     13     12     33 
    31     31     32     11     10     29 
    32     32     24      3      2     21 
    33     33     23      3      2     22 
    34     34     26      4      3      2 
    35     35     33     12      9      6 
    36     36     32     11     10      9 
    37     37     22      2      1     20 
    38     38     21      2      1     18 
    39     39     30     11     10     28 
    40     40     35     13     12      9 
    41     41     12      9     10     11 
    42     42     36     13     14     17 
    43     43     28     10      9     12 
    44     44     10      9      6      8 
    45     45     33     12      9     27 
    46     46     34     12      9     10 
    47     47     36     13     12     34 
    48     48     23      3      2     21 
    49     49     39     15     14     17 
    50     50     24      3      4      5 
    51     51     27      9     10     11 
    52     52     12      9      6      7 
    53     53     35     13     12     33 
    54     54     21      2      1     20 
    55     55     22      2      1     19 
    56     56     16     14     13     12 
    57     57     30     11     10     29 
    58     58     31     11     10     28 
    59     59     33     12      9     10 
    60     60     28     10      9     27 
    61     61     37     15     14     17 
    62     62     38     15     14     16 
    63     63     29     10      9     12 
    64     64     34     12     13     14 
    65     65     31     11     10      9 
    66     66     19      1      2      3 
    67     67     29     10      9      6 
    68     68     25      4      3     23 
    69     69     35     13     14     16 
    70     70     36     13     14     15 
    71     71     34     12      9     27 
    72     72     27      9     12     13 
    73     73     23      3      2      1 
    74     74     28     10      9      6 
    75     75     29     10      9     27 
    76     76     21      2      3      4 
    77     77     38     15     14     13 
    78     78     24      3      2      1 
    79     79     20      1      2      3 
    80     80     36     13     14     16 
    81     81     12      9      6      8 
    82     82     31     11     10     29 
    83     83     32     11     10     28 
    84     84     35     13     14     15 
    85     85     13     12      9     10 
    86     86     35     13     14     17 
    87     87     26      4      5      6 
    88     88     34     12      9      6 
    89     89     22      2      3      4 
    90     90     22      2      1     18 
    91     91     21      2      1     19 
    92     92     27      9      6      8 
    93     93     27      9      6      5 
    94     94     25      4      3      2 
    95     95     26      4      3     24 
    96     96     27      9      6      7 

Impropers

     1      1      6      5      7      8 
     2      2      6      9      5      7 
     3      3      9     10     12      6 
     4      4     14     13     15     16 
     5      5     14     17     13     15 
     6      6      1      2     19     18 
     7      7      1      2     20     18 
     8      8      2      1      3     21 
     9      9      2      1      3     22 
    10     10      3      2      4     23 
    11     11      3      2      4     24 
    12     12      4     25      3      5 
    13     13      4     26      3      5 
    14     14      9     10     27      6 
    15     15     10      9     11     28 
    16     16     10      9     11     29 
    17     17     11     10     30     31 
    18     18     11     10     30     32 
    19     19     12     33      9     13 
    20     20     12      9     34     13 
    21     21     13     35     12     14 
    22     22     13     12     36     14 
    23     23     15     37     38     14 
    24     24     15     37     39     14 

