LAMMPS data file Created by LigParGen - (Written by Leela S. Dodda)

      32 atoms
      33 bonds
      66 angles
     105 dihedrals
      21 impropers
 
      32 atom types
      33 bond types
      66 angle types
     105 dihedral types
      21 improper types
 
   -4.323040    45.676960 xlo xhi
    0.002300    50.002300 ylo yhi
   -4.157830    45.842170 zlo zhi

Masses

       1     12.011  
       2     12.011  
       3     12.011  
       4     12.011  
       5     12.011  
       6     12.011  
       7     12.011  
       8     12.011  
       9     15.999  
      10     12.011  
      11     12.011  
      12     12.011  
      13     12.011  
      14     15.999  
      15      1.008  
      16      1.008  
      17      1.008  
      18      1.008  
      19      1.008  
      20      1.008  
      21      1.008  
      22      1.008  
      23      1.008  
      24      1.008  
      25      1.008  
      26      1.008  
      27      1.008  
      28      1.008  
      29      1.008  
      30      1.008  
      31      1.008  
      32      1.008  

Pair Coeffs 

       1      0.066  3.5000000 
       2      0.066  3.5000000 
       3      0.066  3.5000000 
       4      0.066  3.5000000 
       5      0.066  3.5000000 
       6      0.066  3.5000000 
       7      0.066  3.5000000 
       8      0.070  3.5500000 
       9      0.210  2.9600000 
      10      0.066  3.5000000 
      11      0.066  3.5000000 
      12      0.066  3.5000000 
      13      0.070  3.5500000 
      14      0.210  2.9600000 
      15      0.030  2.5000000 
      16      0.030  2.5000000 
      17      0.030  2.5000000 
      18      0.030  2.5000000 
      19      0.030  2.5000000 
      20      0.030  2.5000000 
      21      0.030  2.5000000 
      22      0.030  2.5000000 
      23      0.030  2.5000000 
      24      0.030  2.5000000 
      25      0.030  2.5000000 
      26      0.030  2.5000000 
      27      0.030  2.5000000 
      28      0.030  2.5000000 
      29      0.030  2.5000000 
      30      0.030  2.5000000 
      31      0.030  2.5000000 
      32      0.030  2.5000000 

Bond Coeffs 

       1   268.0000     1.5290 
       2   268.0000     1.5290 
       3   268.0000     1.5290 
       4   268.0000     1.5290 
       5   268.0000     1.5290 
       6   268.0000     1.5290 
       7   317.0000     1.5220 
       8   570.0000     1.2290 
       9   317.0000     1.5220 
      10   268.0000     1.5290 
      11   268.0000     1.5290 
      12   317.0000     1.5220 
      13   570.0000     1.2290 
      14   340.0000     1.0900 
      15   340.0000     1.0900 
      16   340.0000     1.0900 
      17   340.0000     1.0900 
      18   340.0000     1.0900 
      19   340.0000     1.0900 
      20   340.0000     1.0900 
      21   340.0000     1.0900 
      22   340.0000     1.0900 
      23   340.0000     1.0900 
      24   340.0000     1.0900 
      25   340.0000     1.0900 
      26   340.0000     1.0900 
      27   340.0000     1.0900 
      28   340.0000     1.0900 
      29   340.0000     1.0900 
      30   340.0000     1.0900 
      31   340.0000     1.0900 
      32   268.0000     1.5290 
      33   317.0000     1.5220 

Angle Coeffs 

       1     58.350    112.700
       2     58.350    112.700
       3     58.350    112.700
       4     58.350    112.700
       5     58.350    112.700
       6     63.000    111.100
       7     80.000    120.400
       8     70.000    116.000
       9     63.000    111.100
      10     58.350    112.700
      11     63.000    111.100
      12     80.000    120.400
      13     37.500    110.700
      14     37.500    110.700
      15     37.500    110.700
      16     37.500    110.700
      17     37.500    110.700
      18     37.500    110.700
      19     37.500    110.700
      20     37.500    110.700
      21     37.500    110.700
      22     37.500    110.700
      23     37.500    110.700
      24     37.500    110.700
      25     35.000    109.500
      26     35.000    109.500
      27     37.500    110.700
      28     37.500    110.700
      29     37.500    110.700
      30     37.500    110.700
      31     37.500    110.700
      32     33.000    107.800
      33     33.000    107.800
      34     63.000    111.100
      35     37.500    110.700
      36     37.500    110.700
      37     37.500    110.700
      38     35.000    109.500
      39     33.000    107.800
      40     33.000    107.800
      41     70.000    116.000
      42     37.500    110.700
      43     80.000    120.400
      44     63.000    111.100
      45     37.500    110.700
      46     58.350    112.700
      47     37.500    110.700
      48     63.000    111.100
      49     58.350    112.700
      50     33.000    107.800
      51     58.350    112.700
      52     33.000    107.800
      53     37.500    110.700
      54     33.000    107.800
      55     33.000    107.800
      56     33.000    107.800
      57     37.500    110.700
      58     35.000    109.500
      59     37.500    110.700
      60     58.350    112.700
      61     37.500    110.700
      62     63.000    111.100
      63     33.000    107.800
      64     33.000    107.800
      65     80.000    120.400
      66     37.500    110.700

Dihedral Coeffs  

       1      1.300     -0.200      0.200      0.000 
       2      1.300     -0.200      0.200      0.000 
       3      1.300     -0.200      0.200      0.000 
       4      0.000      0.000      0.000      0.000 
       5      1.454     -0.144     -0.775      0.000 
       6     -2.060     -0.313      0.315      0.000 
       7      0.000      0.000      0.300      0.000 
       8      0.000      0.000      0.300      0.000 
       9      0.000      0.000      0.000      0.000 
      10      1.454     -0.144     -0.775      0.000 
      11      1.454     -0.144     -0.775      0.000 
      12      0.000      0.000      0.000      0.000 
      13      1.454     -0.144     -0.775      0.000 
      14      0.000      0.000      0.300      0.000 
      15      0.000      0.000      0.300      0.000 
      16     -2.060     -0.313      0.315      0.000 
      17      0.000      0.000      0.300      0.000 
      18      0.000      0.000      0.300      0.000 
      19      0.000      0.000      0.300      0.000 
      20      0.000      0.000      0.300      0.000 
      21      0.000      0.000     -0.100      0.000 
      22      0.000      0.000     -0.100      0.000 
      23      0.000      0.000      0.300      0.000 
      24      0.000      0.000      0.300      0.000 
      25      0.000      0.000      0.300      0.000 
      26      0.000      0.000     -0.100      0.000 
      27      0.000      0.000      0.300      0.000 
      28      0.000      0.000      0.000      0.000 
      29      1.454     -0.144     -0.775      0.000 
      30      0.000      0.000      0.300      0.000 
      31      0.000      0.000      0.300      0.000 
      32      0.000      0.000      0.000      0.000 
      33      0.000      0.000      0.300      0.000 
      34      0.000      0.000      0.300      0.000 
      35      0.000      0.000      0.300      0.000 
      36      0.000      0.000      0.300      0.000 
      37      0.000      0.000      0.300      0.000 
      38      0.000      0.000     -0.100      0.000 
      39      0.000      0.000      0.300      0.000 
      40      0.000      0.000      0.300      0.000 
      41      0.000      0.000      0.300      0.000 
      42      0.000      0.000      0.300      0.000 
      43      0.000      0.000      0.300      0.000 
      44      0.000      0.000      0.300      0.000 
      45     -2.060     -0.313      0.315      0.000 
      46      1.300     -0.200      0.200      0.000 
      47      0.000      0.000      0.300      0.000 
      48      0.000      0.000      0.000      0.000 
      49      1.300     -0.200      0.200      0.000 
      50      0.000      0.000      0.300      0.000 
      51      0.000      0.000      0.300      0.000 
      52      1.454     -0.144     -0.775      0.000 
      53      0.000      0.000      0.300      0.000 
      54     -2.060     -0.313      0.315      0.000 
      55      0.000      0.000      0.275      0.000 
      56      0.000      0.000      0.300      0.000 
      57     -2.060     -0.313      0.315      0.000 
      58      0.000      0.000      0.000      0.000 
      59      0.000      0.000     -0.100      0.000 
      60      0.000      0.000      0.300      0.000 
      61      1.454     -0.144     -0.775      0.000 
      62      0.000      0.000      0.300      0.000 
      63      0.000      0.000     -0.100      0.000 
      64      1.300     -0.200      0.200      0.000 
      65      0.000      0.000      0.300      0.000 
      66      0.000      0.000      0.300      0.000 
      67      1.300     -0.200      0.200      0.000 
      68     -2.060     -0.313      0.315      0.000 
      69      0.000      0.000     -0.100      0.000 
      70     -2.060     -0.313      0.315      0.000 
      71      0.000      0.000      0.300      0.000 
      72      0.000      0.000      0.300      0.000 
      73     -2.060     -0.313      0.315      0.000 
      74      0.000      0.000      0.275      0.000 
      75      0.000      0.000      0.300      0.000 
      76      0.000      0.000      0.000      0.000 
      77      0.000      0.000      0.300      0.000 
      78      0.000      0.000      0.300      0.000 
      79      0.000      0.000      0.300      0.000 
      80      0.000      0.000      0.000      0.000 
      81      0.000      0.000      0.000      0.000 
      82      0.000      0.000      0.300      0.000 
      83     -2.060     -0.313      0.315      0.000 
      84      0.000      0.000      0.300      0.000 
      85      0.000      0.000     -0.100      0.000 
      86      1.300     -0.200      0.200      0.000 
      87      0.000      0.000      0.300      0.000 
      88      0.000      0.000      0.300      0.000 
      89      0.000      0.000      0.000      0.000 
      90      0.000      0.000      0.300      0.000 
      91      0.000      0.000      0.300      0.000 
      92      1.454     -0.144     -0.775      0.000 
      93      0.000      0.000      0.300      0.000 
      94      0.000      0.000      0.300      0.000 
      95      0.000      0.000      0.275      0.000 
      96      0.000      0.000      0.300      0.000 
      97      0.000      0.000      0.300      0.000 
      98      1.300     -0.200      0.200      0.000 
      99      0.000      0.000      0.300      0.000 
     100      0.000      0.000      0.000      0.000 
     101      0.000      0.000      0.275      0.000 
     102      0.000      0.000      0.300      0.000 
     103     -2.060     -0.313      0.315      0.000 
     104      0.000      0.000      0.300      0.000 
     105      0.000      0.000      0.300      0.000 

Improper Coeffs 

       1      0.000      -1       2 
       2      0.000      -1       2 
       3     10.500      -1       2 
       4      0.000      -1       2 
       5     10.500      -1       2 
       6      0.000      -1       2 
       7      0.000      -1       2 
       8      0.000      -1       2 
       9      0.000      -1       2 
      10      0.000      -1       2 
      11      0.000      -1       2 
      12      0.000      -1       2 
      13      0.000      -1       2 
      14      0.000      -1       2 
      15      0.000      -1       2 
      16      0.000      -1       2 
      17      0.000      -1       2 
      18      0.000      -1       2 
      19      0.000      -1       2 
      20      0.000      -1       2 
      21      0.000      -1       2 

Atoms 

     1      1      1 -0.22950000    1.000  1.00000  0.00000
     2      1      2 -0.10130000   -0.526  1.00000  0.00000
     3      1      3 -0.18340000   -1.057  1.00000  1.43976
     4      1      4 -0.18450000   -2.479  1.49392  1.30210
     5      1      5 -0.09730000   -2.343  2.64749  0.31159
     6      1      6 -0.24360000   -3.721  3.10678 -0.15409
     7      1      7 -0.12830000   -1.317  2.14587 -0.76307
     8      1      8 0.33600000   -0.461  3.35410 -1.17720
     9      1      9 -0.38440000    0.586  3.67005 -0.61406
    10      1     10 -0.23990000   -1.040  4.29552 -2.21228
    11      1     11 -0.16770000   -1.483  3.53350 -3.44133
    12      1     12 -0.23830000   -2.484  2.44627 -3.10922
    13      1     13 0.33740000   -2.038  1.53218 -1.98800
    14      1     14 -0.39120000   -2.393  0.34899 -2.01456
    15      1     15 0.09030000    1.371  0.07418  0.45799
    16      1     16 0.09030000    1.414  1.81780  0.59734
    17      1     17 0.09030000    1.401  1.05161 -1.01685
    18      1     18 0.12480000   -0.802  0.02610 -0.42286
    19      1     19 0.10090000   -0.482  1.68296  2.07423
    20      1     20 0.10090000   -1.017  0.00230  1.89061
    21      1     21 0.10480000   -2.890  1.82108  2.26199
    22      1     22 0.10480000   -3.124  0.70216  0.90386
    23      1     23 0.11330000   -1.896  3.49421  0.85331
    24      1     24 0.08900000   -4.271  2.30577 -0.65764
    25      1     25 0.08900000   -3.655  3.96608 -0.82501
    26      1     26 0.08900000   -4.323  3.41812  0.70663
    27      1     27 0.12840000   -0.269  5.02149 -2.49578
    28      1     28 0.12840000   -1.861  4.85507 -1.75797
    29      1     29 0.10540000   -0.610  3.08609 -3.92851
    30      1     30 0.10540000   -1.933  4.23175 -4.15783
    31      1     31 0.13050000   -2.644  1.83235 -4.00336
    32      1     32 0.13050000   -3.452  2.88158 -2.84238

Bonds 

     1      1      2      1
     2      2      3      2
     3      3      4      3
     4      4      5      4
     5      5      6      5
     6      6      7      2
     7      7      8      7
     8      8      9      8
     9      9     10      8
    10     10     11     10
    11     11     12     11
    12     12     13      7
    13     13     14     13
    14     14     15      1
    15     15     16      1
    16     16     17      1
    17     17     18      2
    18     18     19      3
    19     19     20      3
    20     20     21      4
    21     21     22      4
    22     22     23      5
    23     23     24      6
    24     24     25      6
    25     25     26      6
    26     26     27     10
    27     27     28     10
    28     28     29     11
    29     29     30     11
    30     30     31     12
    31     31     32     12
    32     32      7      5
    33     33     13     12

Angles 

     1      1      1      2      3
     2      2      2      3      4
     3      3      3      4      5
     4      4      4      5      6
     5      5      1      2      7
     6      6      2      7      8
     7      7      7      8      9
     8      8      7      8     10
     9      9      8     10     11
    10     10     10     11     12
    11     11      2      7     13
    12     12      7     13     14
    13     13      2      1     15
    14     14      2      1     16
    15     15      2      1     17
    16     16      1      2     18
    17     17      2      3     19
    18     18      2      3     20
    19     19      3      4     21
    20     20      3      4     22
    21     21      4      5     23
    22     22      5      6     24
    23     23      5      6     25
    24     24      5      6     26
    25     25      8     10     27
    26     26      8     10     28
    27     27     10     11     29
    28     28     10     11     30
    29     29     11     12     31
    30     30     11     12     32
    31     31      5      4     22
    32     32     27     10     28
    33     33     31     12     32
    34     34      5      7      8
    35     35     11     10     27
    36     36      7      2     18
    37     37      3      2     18
    38     38     13     12     31
    39     39     15      1     17
    40     40     24      6     25
    41     41      7     13     12
    42     42      4      3     19
    43     43     12     13     14
    44     44      8      7     13
    45     45      7      5     23
    46     46      4      5      7
    47     47     12     11     30
    48     48      5      7     13
    49     49      2      7      5
    50     50     24      6     26
    51     51      6      5      7
    52     52     15      1     16
    53     53     11     10     28
    54     54     29     11     30
    55     55     25      6     26
    56     56     19      3     20
    57     57      6      5     23
    58     58     13     12     32
    59     59      5      4     21
    60     60      3      2      7
    61     61      4      3     20
    62     62     11     12     13
    63     63     21      4     22
    64     64     16      1     17
    65     65      9      8     10
    66     66     12     11     29

Dihedrals

     1      1      4      3      2      1 
     2      2      5      4      3      2 
     3      3      6      5      4      3 
     4      4      9      8      7      2 
     5      5     11     10      8      7 
     6      6     12     11     10      8 
     7      7     15      1      2      3 
     8      8     24      6      5      4 
     9      9     14     13      7      8 
    10     10     13      7      8     10 
    11     11     10      8      7      5 
    12     12     27     10      8      9 
    13     13     11     12     13      7 
    14     14     31     12     11     29 
    15     15     31     12     11     30 
    16     16     13      7      2      3 
    17     17     24      6      5      7 
    18     18     19      3      2     18 
    19     19     29     11     10     28 
    20     20     25      6      5      7 
    21     21     30     11     10      8 
    22     22     18      2      7      8 
    23     23     22      4      3     20 
    24     24     18      2      1     15 
    25     25     15      1      2      7 
    26     26     18      2      7     13 
    27     27     27     10     11     12 
    28     28      9      8      7      5 
    29     29     12     13      7      5 
    30     30     19      3      2      1 
    31     31     25      6      5     23 
    32     32     13      7      8      9 
    33     33     26      6      5      4 
    34     34     20      3      2      7 
    35     35     20      3      2      1 
    36     36     21      4      3     19 
    37     37     20      3      2     18 
    38     38     30     11     12     13 
    39     39     17      1      2      7 
    40     40     18      2      1     17 
    41     41     30     11     10     28 
    42     42     29     11     10     27 
    43     43     23      5      4     21 
    44     44     18      2      7      5 
    45     45     13      7      2      1 
    46     46      7      2      3      4 
    47     47     22      4      3      2 
    48     48     14     13     12     11 
    49     49      6      5      7      2 
    50     50     20      3      4      5 
    51     51     28     10     11     12 
    52     52     12     13      7      8 
    53     53     23      5      4      3 
    54     54     13      7      5      6 
    55     55     28     10      8      7 
    56     56     21      4      3      2 
    57     57      8      7      2      3 
    58     58     14     13      7      2 
    59     59     29     11     10      8 
    60     60     24      6      5     23 
    61     61     10      8      7      2 
    62     62     26      6      5     23 
    63     63     23      5      7      8 
    64     64      4      5      7      2 
    65     65     16      1      2      3 
    66     66     22      4      3     19 
    67     67      5      7      2      3 
    68     68     13     12     11     10 
    69     69     23      5      7     13 
    70     70     13      7      5      4 
    71     71     17      1      2      3 
    72     72     25      6      5      4 
    73     73      8      7      2      1 
    74     74     32     12     13      7 
    75     75     21      4      3     20 
    76     76     32     12     13     14 
    77     77     30     11     10     27 
    78     78     23      5      7      2 
    79     79     16      1      2      7 
    80     80     14     13      7      5 
    81     81     28     10      8      9 
    82     82     32     12     11     29 
    83     83      8      7      5      6 
    84     84     32     12     11     10 
    85     85     29     11     12     13 
    86     86      7      5      4      3 
    87     87     21      4      5      6 
    88     88     19      3      2      7 
    89     89     11     10      8      9 
    90     90     19      3      4      5 
    91     91     32     12     11     30 
    92     92     12     13      7      2 
    93     93     18      2      3      4 
    94     94     23      5      4     22 
    95     95     31     12     13      7 
    96     96     31     12     11     10 
    97     97     22      4      5      6 
    98     98      5      7      2      1 
    99     99     21      4      5      7 
   100    100     31     12     13     14 
   101    101     27     10      8      7 
   102    102     26      6      5      7 
   103    103      8      7      5      4 
   104    104     18      2      1     16 
   105    105     22      4      5      7 

Impropers

     1      1      2      1      3      7 
     2      2      7      2      5      8 
     3      3      8      9     10      7 
     4      4      7      2     13      5 
     5      5     13     12     14      7 
     6      6      1      2     15     16 
     7      7      1     17     15      2 
     8      8      2      1     18      3 
     9      9      3      2     19      4 
    10     10      3      4      2     20 
    11     11      4      5      3     21 
    12     12      4      3      5     22 
    13     13      5      4      6     23 
    14     14      6     25      5     24 
    15     15      6     26      5     24 
    16     16     10     27     11      8 
    17     17     10     11     28      8 
    18     18     11     10     12     29 
    19     19     11     10     12     30 
    20     20     12     11     13     31 
    21     21     12     11     13     32 

