LAMMPS data file Created by LigParGen - (Written by Leela S. Dodda)

      49 atoms
      48 bonds
      93 angles
     132 dihedrals
      31 impropers
 
      49 atom types
      48 bond types
      93 angle types
     132 dihedral types
      31 improper types
 
   -6.435500    43.564500 xlo xhi
   -3.658760    46.341240 ylo yhi
   -0.985790    49.014210 zlo zhi

Masses

       1     12.011  
       2     12.011  
       3     12.011  
       4     12.011  
       5     12.011  
       6     12.011  
       7     12.011  
       8     12.011  
       9     12.011  
      10     15.999  
      11     12.011  
      12     12.011  
      13     12.011  
      14     12.011  
      15     12.011  
      16     12.011  
      17     12.011  
      18      1.008  
      19      1.008  
      20      1.008  
      21      1.008  
      22      1.008  
      23      1.008  
      24      1.008  
      25      1.008  
      26      1.008  
      27      1.008  
      28      1.008  
      29      1.008  
      30      1.008  
      31      1.008  
      32      1.008  
      33      1.008  
      34      1.008  
      35      1.008  
      36      1.008  
      37      1.008  
      38      1.008  
      39      1.008  
      40      1.008  
      41      1.008  
      42      1.008  
      43      1.008  
      44      1.008  
      45      1.008  
      46      1.008  
      47      1.008  
      48      1.008  
      49      1.008  

Pair Coeffs 

       1      0.066  3.5000000 
       2      0.066  3.5000000 
       3      0.066  3.5000000 
       4      0.066  3.5000000 
       5      0.066  3.5000000 
       6      0.066  3.5000000 
       7      0.066  3.5000000 
       8      0.066  3.5000000 
       9      0.070  3.5500000 
      10      0.210  2.9600000 
      11      0.066  3.5000000 
      12      0.066  3.5000000 
      13      0.066  3.5000000 
      14      0.066  3.5000000 
      15      0.066  3.5000000 
      16      0.066  3.5000000 
      17      0.066  3.5000000 
      18      0.030  2.5000000 
      19      0.030  2.5000000 
      20      0.030  2.5000000 
      21      0.030  2.5000000 
      22      0.030  2.5000000 
      23      0.030  2.5000000 
      24      0.030  2.5000000 
      25      0.030  2.5000000 
      26      0.030  2.5000000 
      27      0.030  2.5000000 
      28      0.030  2.5000000 
      29      0.030  2.5000000 
      30      0.030  2.5000000 
      31      0.030  2.5000000 
      32      0.030  2.5000000 
      33      0.030  2.5000000 
      34      0.030  2.5000000 
      35      0.030  2.5000000 
      36      0.030  2.5000000 
      37      0.030  2.5000000 
      38      0.030  2.5000000 
      39      0.030  2.5000000 
      40      0.030  2.5000000 
      41      0.030  2.5000000 
      42      0.030  2.5000000 
      43      0.030  2.5000000 
      44      0.030  2.5000000 
      45      0.030  2.5000000 
      46      0.030  2.5000000 
      47      0.030  2.5000000 
      48      0.030  2.5000000 
      49      0.030  2.5000000 

Bond Coeffs 

       1   268.0000     1.5290 
       2   268.0000     1.5290 
       3   268.0000     1.5290 
       4   268.0000     1.5290 
       5   268.0000     1.5290 
       6   268.0000     1.5290 
       7   268.0000     1.5290 
       8   317.0000     1.5220 
       9   570.0000     1.2290 
      10   268.0000     1.5290 
      11   268.0000     1.5290 
      12   268.0000     1.5290 
      13   268.0000     1.5290 
      14   268.0000     1.5290 
      15   268.0000     1.5290 
      16   268.0000     1.5290 
      17   340.0000     1.0900 
      18   340.0000     1.0900 
      19   340.0000     1.0900 
      20   340.0000     1.0900 
      21   340.0000     1.0900 
      22   340.0000     1.0900 
      23   340.0000     1.0900 
      24   340.0000     1.0900 
      25   340.0000     1.0900 
      26   340.0000     1.0900 
      27   340.0000     1.0900 
      28   340.0000     1.0900 
      29   340.0000     1.0900 
      30   340.0000     1.0900 
      31   340.0000     1.0900 
      32   340.0000     1.0900 
      33   340.0000     1.0900 
      34   340.0000     1.0900 
      35   340.0000     1.0900 
      36   340.0000     1.0900 
      37   340.0000     1.0900 
      38   340.0000     1.0900 
      39   340.0000     1.0900 
      40   340.0000     1.0900 
      41   340.0000     1.0900 
      42   340.0000     1.0900 
      43   340.0000     1.0900 
      44   340.0000     1.0900 
      45   340.0000     1.0900 
      46   340.0000     1.0900 
      47   340.0000     1.0900 
      48   340.0000     1.0900 

Angle Coeffs 

       1     58.350    112.700
       2     58.350    112.700
       3     58.350    112.700
       4     58.350    112.700
       5     58.350    112.700
       6     58.350    112.700
       7     63.000    111.100
       8     80.000    120.400
       9     58.350    112.700
      10     58.350    112.700
      11     58.350    112.700
      12     58.350    112.700
      13     58.350    112.700
      14     58.350    112.700
      15     58.350    112.700
      16     37.500    110.700
      17     37.500    110.700
      18     37.500    110.700
      19     37.500    110.700
      20     37.500    110.700
      21     37.500    110.700
      22     37.500    110.700
      23     37.500    110.700
      24     37.500    110.700
      25     37.500    110.700
      26     37.500    110.700
      27     37.500    110.700
      28     37.500    110.700
      29     37.500    110.700
      30     37.500    110.700
      31     37.500    110.700
      32     35.000    115.000
      33     37.500    110.700
      34     37.500    110.700
      35     37.500    110.700
      36     37.500    110.700
      37     37.500    110.700
      38     37.500    110.700
      39     37.500    110.700
      40     37.500    110.700
      41     37.500    110.700
      42     37.500    110.700
      43     37.500    110.700
      44     37.500    110.700
      45     37.500    110.700
      46     37.500    110.700
      47     37.500    110.700
      48     58.350    112.700
      49     37.500    110.700
      50     33.000    107.800
      51     37.500    110.700
      52     33.000    107.800
      53     33.000    107.800
      54     37.500    110.700
      55     35.000    109.500
      56     37.500    110.700
      57     33.000    107.800
      58     37.500    110.700
      59     58.350    112.700
      60     33.000    107.800
      61     37.500    110.700
      62     37.500    110.700
      63     33.000    107.800
      64     58.350    112.700
      65     33.000    107.800
      66     37.500    110.700
      67     33.000    107.800
      68     33.000    107.800
      69     33.000    107.800
      70     33.000    107.800
      71     58.350    112.700
      72     58.350    112.700
      73     33.000    107.800
      74     33.000    107.800
      75     33.000    107.800
      76     33.000    107.800
      77     33.000    107.800
      78     33.000    107.800
      79     37.500    110.700
      80     37.500    110.700
      81     37.500    110.700
      82     33.000    107.800
      83     37.500    110.700
      84     33.000    107.800
      85     33.000    107.800
      86     37.500    110.700
      87     37.500    110.700
      88     35.000    123.000
      89     37.500    110.700
      90     33.000    107.800
      91     33.000    107.800
      92     33.000    107.800
      93     63.000    111.100

Dihedral Coeffs  

       1      1.300     -0.200      0.200      0.000 
       2      1.300     -0.200      0.200      0.000 
       3      1.300     -0.200      0.200      0.000 
       4      1.300     -0.200      0.200      0.000 
       5      0.000      0.000      0.000      0.000 
       6      1.300     -0.200      0.200      0.000 
       7      1.300     -0.200      0.200      0.000 
       8      1.300     -0.200      0.200      0.000 
       9      1.300     -0.200      0.200      0.000 
      10      0.000      0.000      0.300      0.000 
      11      0.000      0.000      0.300      0.000 
      12      0.000      0.000      0.300      0.000 
      13      0.000      0.000      0.300      0.000 
      14      0.000      0.000      0.300      0.000 
      15      0.000      0.000      0.300      0.000 
      16      0.000      0.000     -0.100      0.000 
      17      0.000      0.000      0.300      0.000 
      18      0.000      0.000      0.300      0.000 
      19      0.000      0.000      0.300      0.000 
      20      0.000      0.000      0.300      0.000 
      21      0.000      0.000      0.300      0.000 
      22      0.000      0.000      0.300      0.000 
      23      0.000      0.000      0.300      0.000 
      24      1.300     -0.200      0.200      0.000 
      25      0.000      0.000      0.300      0.000 
      26      0.000      0.000      0.300      0.000 
      27      0.000      0.000      0.300      0.000 
      28      0.000      0.000      0.300      0.000 
      29      0.000      0.000      0.300      0.000 
      30      0.000      0.000      0.300      0.000 
      31      0.000      0.000      0.300      0.000 
      32      0.000      0.000      0.300      0.000 
      33      0.000      0.000      0.300      0.000 
      34      0.000      0.000      0.300      0.000 
      35      0.000      0.000      0.300      0.000 
      36      0.000      0.000      0.300      0.000 
      37      0.000      0.000      0.000      0.000 
      38      0.000      0.000      0.000      0.000 
      39      0.000      0.000      0.300      0.000 
      40     -2.060     -0.313      0.315      0.000 
      41      0.000      0.000      0.000      0.000 
      42      0.000      0.000      0.300      0.000 
      43      0.000      0.000      0.300      0.000 
      44      0.000      0.000      0.300      0.000 
      45      1.300     -0.200      0.200      0.000 
      46      0.000      0.000      0.300      0.000 
      47      0.000      0.000      0.300      0.000 
      48      0.000      0.000      0.300      0.000 
      49      0.000      0.000      0.300      0.000 
      50      0.000      0.000      0.300      0.000 
      51      1.300     -0.200      0.200      0.000 
      52      0.000      0.000      0.300      0.000 
      53      0.000      0.000      0.300      0.000 
      54      0.000      0.000      0.300      0.000 
      55      0.000      0.000     -0.100      0.000 
      56      0.000      0.000      0.300      0.000 
      57      0.000      0.000      0.300      0.000 
      58      0.000      0.000      0.300      0.000 
      59      0.000      0.000      0.300      0.000 
      60      0.000      0.000      0.300      0.000 
      61      0.000      0.000      0.300      0.000 
      62      0.000      0.000      0.300      0.000 
      63      0.000      0.000      0.300      0.000 
      64      1.300     -0.200      0.200      0.000 
      65      0.000      0.000      0.300      0.000 
      66      0.000      0.000      0.300      0.000 
      67      0.000      0.000      0.300      0.000 
      68      0.000      0.000      0.300      0.000 
      69      0.000      0.000      0.300      0.000 
      70      0.000      0.000      0.300      0.000 
      71      0.000      0.000      0.300      0.000 
      72      0.000      0.000      0.300      0.000 
      73      0.000      0.000      0.300      0.000 
      74      0.000      0.000      0.300      0.000 
      75      0.000      0.000      0.300      0.000 
      76      0.000      0.000      0.300      0.000 
      77      1.300     -0.200      0.200      0.000 
      78      0.000      0.000      0.300      0.000 
      79      0.000      0.000      0.300      0.000 
      80      0.000      0.000      0.300      0.000 
      81      0.000      0.000      0.300      0.000 
      82      0.000      0.000     -0.100      0.000 
      83      0.000      0.000      0.300      0.000 
      84      0.000      0.000      0.300      0.000 
      85      0.000      0.000      0.360      0.000 
      86      0.000      0.000      0.300      0.000 
      87      0.000      0.000      0.300      0.000 
      88      0.000      0.000      0.300      0.000 
      89      0.000      0.000     -0.100      0.000 
      90      0.000      0.000      0.300      0.000 
      91      0.000      0.000      0.300      0.000 
      92      0.000      0.000      0.300      0.000 
      93      0.000      0.000      0.300      0.000 
      94      0.000      0.000      0.300      0.000 
      95      0.000      0.000      0.300      0.000 
      96      0.000      0.000      0.300      0.000 
      97      0.000      0.000      0.300      0.000 
      98      0.000      0.000      0.300      0.000 
      99      0.000      0.000      0.300      0.000 
     100      0.000      0.000      0.300      0.000 
     101      0.000      0.000      0.300      0.000 
     102      0.000      0.000     -0.100      0.000 
     103      0.000      0.000      0.300      0.000 
     104      0.000      0.000      0.300      0.000 
     105      0.000      0.000      0.300      0.000 
     106      0.000      0.000      0.300      0.000 
     107      0.000      0.000      0.300      0.000 
     108      0.000      0.000      0.300      0.000 
     109      0.000      0.000      0.300      0.000 
     110      0.000      0.000      0.300      0.000 
     111      1.300     -0.200      0.200      0.000 
     112      1.300     -0.200      0.200      0.000 
     113      0.000      0.000      0.300      0.000 
     114      0.000      0.000      0.300      0.000 
     115      0.000      0.000      0.300      0.000 
     116      0.000      0.000      0.300      0.000 
     117      0.000      0.000      0.300      0.000 
     118      0.000      0.000      0.300      0.000 
     119      0.000      0.000      0.300      0.000 
     120      0.000      0.000      0.300      0.000 
     121      0.000      0.000      0.300      0.000 
     122      0.000      0.000      0.300      0.000 
     123      0.000      0.000      0.300      0.000 
     124      0.000      0.000      0.300      0.000 
     125      0.000      0.000      0.300      0.000 
     126      0.000      0.000      0.300      0.000 
     127      0.000      0.000      0.000      0.000 
     128      0.000      0.000      0.300      0.000 
     129      0.000      0.000      0.300      0.000 
     130      1.300     -0.200      0.200      0.000 
     131      0.000      0.000      0.300      0.000 
     132      1.300     -0.200      0.200      0.000 

Improper Coeffs 

       1      0.000      -1       2 
       2      0.000      -1       2 
       3      0.000      -1       2 
       4      0.000      -1       2 
       5      0.000      -1       2 
       6      0.000      -1       2 
       7      0.000      -1       2 
       8      0.000      -1       2 
       9      0.000      -1       2 
      10      0.000      -1       2 
      11      0.000      -1       2 
      12      0.000      -1       2 
      13      0.000      -1       2 
      14      0.000      -1       2 
      15      0.000      -1       2 
      16      0.000      -1       2 
      17      0.000      -1       2 
      18      0.000      -1       2 
      19     10.500      -1       2 
      20      0.000      -1       2 
      21      0.000      -1       2 
      22      0.000      -1       2 
      23      0.000      -1       2 
      24      0.000      -1       2 
      25      0.000      -1       2 
      26      0.000      -1       2 
      27      0.000      -1       2 
      28      0.000      -1       2 
      29      0.000      -1       2 
      30      0.000      -1       2 
      31      0.000      -1       2 

Atoms 

     1      1      1 -0.24200000    1.000  1.00000  0.00000
     2      1      2 -0.17760000   -0.522  1.00000  0.00000
     3      1      3 -0.17870000   -1.117  1.00000  1.42135
     4      1      4 -0.03690000   -2.687  0.93487  1.50650
     5      1      5 -0.23530000   -3.248  2.22869  0.86738
     6      1      6 -0.15380000   -3.238 -0.27559  0.68098
     7      1      7 -0.18620000   -2.979 -1.69237  1.22079
     8      1      8 -0.23700000   -3.866 -2.71376  0.50158
     9      1      9 0.32300000   -1.557 -2.14123  0.99630
    10      1     10 -0.45070000   -0.828 -2.53761  1.90309
    11      1     11 -0.16160000   -3.074  0.92405  3.04264
    12      1     12 -0.10350000   -4.563  1.04472  3.49295
    13      1     13 -0.23900000   -5.433 -0.15285  3.09028
    14      1     14 -0.17370000   -4.702  1.15355  5.03972
    15      1     15 -0.11600000   -4.106  2.38293  5.74752
    16      1     16 -0.23340000   -4.674  3.70032  5.21849
    17      1     17 -0.23800000   -4.392  2.27268  7.25312
    18      1     18 0.08370000    1.370  0.69626 -0.98579
    19      1     19 0.08370000    1.404  0.30164  0.73889
    20      1     20 0.08370000    1.389  2.00056  0.20975
    21      1     21 0.08420000   -0.839  0.11462 -0.55376
    22      1     22 0.08420000   -0.868  1.87177 -0.56412
    23      1     23 0.09520000   -0.766  1.90674  1.93276
    24      1     24 0.09520000   -0.690  0.16417  1.98662
    25      1     25 0.08270000   -3.029  2.27385 -0.20391
    26      1     26 0.08270000   -2.815  3.11949  1.33541
    27      1     27 0.08270000   -4.336  2.28877  0.96457
    28      1     28 0.09250000   -2.865 -0.21694 -0.34832
    29      1     29 0.09250000   -4.312 -0.13382  0.55148
    30      1     30 0.13760000   -3.192 -1.74471  2.28969
    31      1     31 0.08980000   -3.495 -2.93463 -0.50687
    32      1     32 0.08980000   -4.898 -2.36249  0.41732
    33      1     33 0.08980000   -3.879 -3.65876  1.05520
    34      1     34 0.10600000   -1.179 -2.10270 -0.04001
    35      1     35 0.09150000   -2.547  1.77772  3.48988
    36      1     36 0.09150000   -2.634  0.03847  3.51733
    37      1     37 0.09890000   -5.003  1.94353  3.04938
    38      1     38 0.08030000   -5.001 -1.09370  3.44690
    39      1     39 0.08030000   -5.592 -0.21465  2.01672
    40      1     40 0.08030000   -6.436 -0.07313  3.52707
    41      1     41 0.08810000   -4.271  0.24867  5.48961
    42      1     42 0.08810000   -5.774  1.12884  5.28538
    43      1     43 0.09860000   -3.017  2.39149  5.61709
    44      1     44 0.08090000   -5.765  3.66322  5.14532
    45      1     45 0.08090000   -4.270  3.92717  4.22666
    46      1     46 0.08090000   -4.411  4.53306  5.87966
    47      1     47 0.08130000   -5.469  2.27239  7.45365
    48      1     48 0.08130000   -3.948  3.11179  7.79920
    49      1     49 0.08130000   -3.972  1.34761  7.66201

Bonds 

     1      1      2      1
     2      2      3      2
     3      3      4      3
     4      4      5      4
     5      5      6      4
     6      6      7      6
     7      7      8      7
     8      8      9      7
     9      9     10      9
    10     10     11      4
    11     11     12     11
    12     12     13     12
    13     13     14     12
    14     14     15     14
    15     15     16     15
    16     16     17     15
    17     17     18      1
    18     18     19      1
    19     19     20      1
    20     20     21      2
    21     21     22      2
    22     22     23      3
    23     23     24      3
    24     24     25      5
    25     25     26      5
    26     26     27      5
    27     27     28      6
    28     28     29      6
    29     29     30      7
    30     30     31      8
    31     31     32      8
    32     32     33      8
    33     33     34      9
    34     34     35     11
    35     35     36     11
    36     36     37     12
    37     37     38     13
    38     38     39     13
    39     39     40     13
    40     40     41     14
    41     41     42     14
    42     42     43     15
    43     43     44     16
    44     44     45     16
    45     45     46     16
    46     46     47     17
    47     47     48     17
    48     48     49     17

Angles 

     1      1      1      2      3
     2      2      2      3      4
     3      3      3      4      5
     4      4      3      4      6
     5      5      4      6      7
     6      6      6      7      8
     7      7      6      7      9
     8      8      7      9     10
     9      9      3      4     11
    10     10      4     11     12
    11     11     11     12     13
    12     12     11     12     14
    13     13     12     14     15
    14     14     14     15     16
    15     15     14     15     17
    16     16      2      1     18
    17     17      2      1     19
    18     18      2      1     20
    19     19      1      2     21
    20     20      1      2     22
    21     21      2      3     23
    22     22      2      3     24
    23     23      4      5     25
    24     24      4      5     26
    25     25      4      5     27
    26     26      4      6     28
    27     27      4      6     29
    28     28      6      7     30
    29     29      7      8     31
    30     30      7      8     32
    31     31      7      8     33
    32     32      7      9     34
    33     33      4     11     35
    34     34      4     11     36
    35     35     11     12     37
    36     36     12     13     38
    37     37     12     13     39
    38     38     12     13     40
    39     39     12     14     41
    40     40     12     14     42
    41     41     14     15     43
    42     42     15     16     44
    43     43     15     16     45
    44     44     15     16     46
    45     45     15     17     47
    46     46     15     17     48
    47     47     15     17     49
    48     48     13     12     14
    49     49     13     12     37
    50     50     31      8     32
    51     51     16     15     43
    52     52     45     16     46
    53     53     35     11     36
    54     54      4      3     23
    55     55      9      7     30
    56     56     14     12     37
    57     57     25      5     26
    58     58      4      3     24
    59     59     16     15     17
    60     60     38     13     39
    61     61     17     15     43
    62     62      8      7     30
    63     63     48     17     49
    64     64      5      4      6
    65     65     31      8     33
    66     66     15     14     41
    67     67     18      1     19
    68     68     44     16     45
    69     69     47     17     49
    70     70     21      2     22
    71     71      5      4     11
    72     72      6      4     11
    73     73     41     14     42
    74     74     38     13     40
    75     75     44     16     46
    76     76     32      8     33
    77     77     25      5     27
    78     78     28      6     29
    79     79     12     11     35
    80     80      7      6     28
    81     81     12     11     36
    82     82     23      3     24
    83     83      7      6     29
    84     84     18      1     20
    85     85     39     13     40
    86     86      3      2     21
    87     87     15     14     42
    88     88     10      9     34
    89     89      3      2     22
    90     90     47     17     48
    91     91     26      5     27
    92     92     19      1     20
    93     93      8      7      9

Dihedrals

     1      1      4      3      2      1 
     2      2      5      4      3      2 
     3      3      7      6      4      3 
     4      4      8      7      6      4 
     5      5     10      9      7      6 
     6      6     12     11      4      3 
     7      7     13     12     11      4 
     8      8     15     14     12     11 
     9      9     16     15     14     12 
    10     10     18      1      2      3 
    11     11     25      5      4      3 
    12     12     31      8      7      6 
    13     13     38     13     12     11 
    14     14     44     16     15     14 
    15     15     47     17     15     14 
    16     16     31      8      7      9 
    17     17     28      6      7      8 
    18     18     45     16     15     43 
    19     19     40     13     12     37 
    20     20     28      6      4      5 
    21     21     35     11     12     14 
    22     22     36     11     12     13 
    23     23     24      3      4     11 
    24     24     11      4      6      7 
    25     25     39     13     12     14 
    26     26     44     16     15     43 
    27     27     19      1      2      3 
    28     28     45     16     15     17 
    29     29     33      8      7      6 
    30     30     42     14     12     13 
    31     31     25      5      4      6 
    32     32     47     17     15     16 
    33     33     45     16     15     14 
    34     34     23      3      4      5 
    35     35     24      3      2     22 
    36     36     35     11      4      3 
    37     37     34      9      7      6 
    38     38     30      7      9     10 
    39     39     36     11      4      6 
    40     40      9      7      6      4 
    41     41     10      9      7      8 
    42     42     33      8      7     30 
    43     43     46     16     15     17 
    44     44     42     14     15     17 
    45     45     12     11      4      5 
    46     46     46     16     15     43 
    47     47     42     14     12     37 
    48     48     49     17     15     43 
    49     49     39     13     12     37 
    50     50     38     13     12     37 
    51     51      6      4      3      2 
    52     52     21      2      1     19 
    53     53     30      7      6     29 
    54     54     32      8      7     30 
    55     55     29      6      7      9 
    56     56     38     13     12     14 
    57     57     22      2      1     20 
    58     58     36     11     12     14 
    59     59     21      2      1     18 
    60     60     28      6      4     11 
    61     61     41     14     12     37 
    62     62     48     17     15     43 
    63     63     43     15     14     42 
    64     64     14     12     11      4 
    65     65     48     17     15     14 
    66     66     26      5      4      3 
    67     67     27      5      4      6 
    68     68     35     11      4      6 
    69     69     36     11      4      5 
    70     70     36     11      4      3 
    71     71     48     17     15     16 
    72     72     23      3      4     11 
    73     73     32      8      7      6 
    74     74     24      3      4      5 
    75     75     23      3      4      6 
    76     76     37     12     11     35 
    77     77     12     11      4      6 
    78     78     21      2      1     20 
    79     79     22      2      1     19 
    80     80     41     14     12     13 
    81     81     29      6      4      3 
    82     82     28      6      7      9 
    83     83     29      6      7      8 
    84     84     43     15     14     12 
    85     85     34      9      7     30 
    86     86     47     17     15     43 
    87     87     27      5      4     11 
    88     88     41     14     12     11 
    89     89     32      8      7      9 
    90     90     37     12     14     15 
    91     91     23      3      2      1 
    92     92     29      6      4      5 
    93     93     40     13     12     14 
    94     94     37     12     11     36 
    95     95     23      3      2     21 
    96     96     21      2      3      4 
    97     97     24      3      2     21 
    98     98     28      6      4      3 
    99     99     31      8      7     30 
   100    100     35     11      4      5 
   101    101     24      3      2      1 
   102    102     33      8      7      9 
   103    103     46     16     15     14 
   104    104     49     17     15     16 
   105    105     20      1      2      3 
   106    106     26      5      4     11 
   107    107     41     14     15     16 
   108    108     40     13     12     11 
   109    109     26      5      4      6 
   110    110     30      7      6      4 
   111    111     11      4      3      2 
   112    112     17     15     14     12 
   113    113     27      5      4      3 
   114    114     22      2      3      4 
   115    115     22      2      1     18 
   116    116     25      5      4     11 
   117    117     24      3      4      6 
   118    118     35     11     12     13 
   119    119     44     16     15     17 
   120    120     29      6      4     11 
   121    121     43     15     14     41 
   122    122     37     12     11      4 
   123    123     23      3      2     22 
   124    124     39     13     12     11 
   125    125     49     17     15     14 
   126    126     42     14     15     16 
   127    127     34      9      7      8 
   128    128     42     14     12     11 
   129    129     30      7      6     28 
   130    130      7      6      4      5 
   131    131     41     14     15     17 
   132    132     15     14     12     13 

Impropers

     1      1      4      3      5      6 
     2      2      7      9      6      8 
     3      3      4     11      5      3 
     4      4     12     11     13     14 
     5      5     15     17     14     16 
     6      6      1      2     19     18 
     7      7      1      2     20     18 
     8      8      2      1      3     21 
     9      9      2      1      3     22 
    10     10      3      2      4     23 
    11     11      3      2      4     24 
    12     12      5     25     26      4 
    13     13      5     25     27      4 
    14     14      6      4     28      7 
    15     15      6      4     29      7 
    16     16      7      8     30      6 
    17     17      8     31      7     32 
    18     18      8     33     31      7 
    19     19      9     34      7     10 
    20     20     11     12     35      4 
    21     21     11      4     12     36 
    22     22     12     13     11     37 
    23     23     13     12     38     39 
    24     24     13     12     38     40 
    25     25     14     41     12     15 
    26     26     14     42     12     15 
    27     27     15     43     14     16 
    28     28     16     44     45     15 
    29     29     16     44     46     15 
    30     30     17     47     15     48 
    31     31     17     49     47     15 

