LAMMPS data file Created by LigParGen - (Written by Leela S. Dodda)

      16 atoms
      16 bonds
      26 angles
      29 dihedrals
       8 impropers
 
      16 atom types
      16 bond types
      26 angle types
      29 dihedral types
       8 improper types
 
   -3.161710    46.838290 xlo xhi
   -0.164830    49.835170 ylo yhi
   -1.028780    48.971220 zlo zhi

Masses

       1     12.011  
       2     15.999  
       3     12.011  
       4     12.011  
       5     32.060  
       6     12.011  
       7     12.011  
       8     12.011  
       9      1.008  
      10      1.008  
      11      1.008  
      12      1.008  
      13      1.008  
      14      1.008  
      15      1.008  
      16      1.008  

Pair Coeffs 

       1      0.066  3.5000000 
       2      0.140  2.9000000 
       3      0.076  3.5500000 
       4      0.076  3.5500000 
       5      0.355  3.6000000 
       6      0.076  3.5500000 
       7      0.076  3.5500000 
       8      0.066  3.5000000 
       9      0.030  2.5000000 
      10      0.030  2.5000000 
      11      0.030  2.5000000 
      12      0.030  2.4200000 
      13      0.030  2.4200000 
      14      0.030  2.4200000 
      15      0.030  2.5000000 
      16      0.030  2.5000000 

Bond Coeffs 

       1   320.0000     1.4100 
       2   450.0000     1.3700 
       3   549.0000     1.3400 
       4   250.0000     1.7600 
       5   250.0000     1.7600 
       6   549.0000     1.3400 
       7   317.0000     1.5100 
       8   340.0000     1.0900 
       9   340.0000     1.0900 
      10   340.0000     1.0900 
      11   367.0000     1.0800 
      12   367.0000     1.0800 
      13   367.0000     1.0800 
      14   340.0000     1.0900 
      15   340.0000     1.0900 
      16   317.0000     1.5100 

Angle Coeffs 

       1     75.000    111.000
       2     70.000    123.000
       3     85.000    119.400
       4     62.000    104.200
       5     85.000    119.400
       6     60.430    118.760
       7     35.000    109.500
       8     35.000    109.500
       9     35.000    109.500
      10     35.000    120.000
      11     60.430    118.760
      12     35.000    120.000
      13     35.000    109.500
      14     35.000    109.500
      15     60.430    118.760
      16     63.000    112.400
      17     33.000    107.800
      18     35.000    109.500
      19     70.000    124.000
      20     70.000    124.000
      21     35.000    120.000
      22     33.000    107.800
      23     35.000    109.500
      24     33.000    107.800
      25     33.000    107.800
      26     60.430    118.760

Dihedral Coeffs  

       1     -3.500      3.000      0.000      0.000 
       2      0.000     14.000      0.000      0.000 
       3      0.925     -0.576      0.677      0.000 
       4      0.925     -0.576      0.677      0.000 
       5      0.000      0.000      0.760      0.000 
       6      0.000      0.000     -0.372      0.000 
       7      0.000     14.000      0.000      0.000 
       8      0.000      0.000      0.760      0.000 
       9      0.000     -8.000      0.000      0.000 
      10      0.000      0.000      0.318      0.000 
      11      0.000      0.000     -0.372      0.000 
      12      0.000      0.000     -0.372      0.000 
      13      0.346      0.405     -0.904      0.000 
      14      0.346      0.405     -0.904      0.000 
      15      0.000      7.250      0.000      0.000 
      16      0.000      0.000     -0.553      0.000 
      17      0.000     14.000      0.000      0.000 
      18      0.000     14.000      0.000      0.000 
      19      0.000      7.250      0.000      0.000 
      20      0.000      0.000      0.468      0.000 
      21      0.000      0.000      0.468      0.000 
      22      0.000      0.000      0.318      0.000 
      23      0.650     -0.250      0.670      0.000 
      24      0.000     14.000      0.000      0.000 
      25      0.000      0.000      0.760      0.000 
      26      0.000      0.000     -0.372      0.000 
      27      0.000     14.000      0.000      0.000 
      28      0.000     14.000      0.000      0.000 
      29      0.000     14.000      0.000      0.000 

Improper Coeffs 

       1      2.500      -1       2 
       2      0.000      -1       2 
       3      0.000      -1       2 
       4      2.500      -1       2 
       5      2.500      -1       2 
       6      2.500      -1       2 
       7      0.000      -1       2 
       8      0.000      -1       2 

Atoms 

     1      1      1 -0.05070000    1.000  1.00000  0.00000
     2      1      2 -0.31330000   -0.424  1.00000  0.00000
     3      1      3 0.07610000   -1.022  1.00000  1.25594
     4      1      4 -0.26030000   -2.192  0.35660  1.38058
     5      1      5 0.03060000   -3.162  0.26330  2.80385
     6      1      6 -0.20590000   -2.420  1.45551  3.80166
     7      1      7 -0.18030000   -1.244  2.04019  3.55187
     8      1      8 -0.12240000   -0.377  1.80188  2.35668
     9      1      9 0.09020000    1.335  0.83790 -1.02878
    10      1     10 0.09020000    1.393  0.18727  0.61983
    11      1     11 0.09020000    1.391  1.96744  0.32885
    12      1     12 0.19480000   -2.584 -0.16483  0.51067
    13      1     13 0.17880000   -2.967  1.73640  4.69622
    14      1     14 0.15250000   -0.864  2.76076  4.27228
    15      1     15 0.11480000    0.538  1.30154  2.69226
    16      1     16 0.11480000   -0.096  2.78320  1.95482

Bonds 

     1      1      2      1
     2      2      3      2
     3      3      4      3
     4      4      5      4
     5      5      6      5
     6      6      7      6
     7      7      8      3
     8      8      9      1
     9      9     10      1
    10     10     11      1
    11     11     12      4
    12     12     13      6
    13     13     14      7
    14     14     15      8
    15     15     16      8
    16     16      8      7

Angles 

     1      1      1      2      3
     2      2      2      3      4
     3      3      3      4      5
     4      4      4      5      6
     5      5      5      6      7
     6      6      2      3      8
     7      7      2      1      9
     8      8      2      1     10
     9      9      2      1     11
    10     10      3      4     12
    11     11      5      6     13
    12     12      6      7     14
    13     13      3      8     15
    14     14      3      8     16
    15     15      5      4     12
    16     16      3      8      7
    17     17     15      8     16
    18     18      7      8     16
    19     19      4      3      8
    20     20      6      7      8
    21     21      7      6     13
    22     22     10      1     11
    23     23      7      8     15
    24     24      9      1     10
    25     25      9      1     11
    26     26      8      7     14

Dihedrals

     1      1      4      3      2      1 
     2      2      5      4      3      2 
     3      3      6      5      4      3 
     4      4      7      6      5      4 
     5      5      9      1      2      3 
     6      6     15      8      7      6 
     7      7     12      4      3      8 
     8      8     11      1      2      3 
     9      9     14      7      8      3 
    10     10     15      8      7     14 
    11     11     15      8      3      4 
    12     12     16      8      3      4 
    13     13      7      8      3      4 
    14     14      6      7      8      3 
    15     15     13      6      5      4 
    16     16      7      8      3      2 
    17     17     14      7      6     13 
    18     18      8      3      4      5 
    19     19     12      4      5      6 
    20     20     16      8      3      2 
    21     21     15      8      3      2 
    22     22     16      8      7     14 
    23     23      8      3      2      1 
    24     24     13      6      7      8 
    25     25     10      1      2      3 
    26     26     16      8      7      6 
    27     27      8      7      6      5 
    28     28     12      4      3      2 
    29     29     14      7      6      5 

Impropers

     1      1      3      2      4      8 
     2      2      1     10      9      2 
     3      3      1      2     11      9 
     4      4      4      3     12      5 
     5      5      6      5     13      7 
     6      6      7      8     14      6 
     7      7      8      3      7     15 
     8      8      8      3      7     16 

