LAMMPS data file Created by LigParGen - (Written by Leela S. Dodda)

      46 atoms
      46 bonds
      91 angles
     138 dihedrals
      29 impropers
 
      46 atom types
      46 bond types
      91 angle types
     138 dihedral types
      29 improper types
 
   -6.501180    43.498820 xlo xhi
   -2.337600    47.662400 ylo yhi
   -1.018590    48.981410 zlo zhi

Masses

       1     12.011  
       2     12.011  
       3     12.011  
       4     12.011  
       5     12.011  
       6     12.011  
       7     12.011  
       8     12.011  
       9     14.007  
      10     12.011  
      11     12.011  
      12     12.011  
      13     12.011  
      14     12.011  
      15     12.011  
      16     12.011  
      17     12.011  
      18      1.008  
      19      1.008  
      20      1.008  
      21      1.008  
      22      1.008  
      23      1.008  
      24      1.008  
      25      1.008  
      26      1.008  
      27      1.008  
      28      1.008  
      29      1.008  
      30      1.008  
      31      1.008  
      32      1.008  
      33      1.008  
      34      1.008  
      35      1.008  
      36      1.008  
      37      1.008  
      38      1.008  
      39      1.008  
      40      1.008  
      41      1.008  
      42      1.008  
      43      1.008  
      44      1.008  
      45      1.008  
      46      1.008  

Pair Coeffs 

       1      0.066  3.5000000 
       2      0.066  3.5000000 
       3      0.066  3.5000000 
       4      0.066  3.5000000 
       5      0.066  3.5000000 
       6      0.066  3.5000000 
       7      0.066  3.5000000 
       8      0.066  3.3000000 
       9      0.170  3.2000000 
      10      0.066  3.5000000 
      11      0.066  3.5000000 
      12      0.066  3.5000000 
      13      0.066  3.5000000 
      14      0.066  3.5000000 
      15      0.066  3.5000000 
      16      0.066  3.5000000 
      17      0.066  3.5000000 
      18      0.030  2.5000000 
      19      0.030  2.5000000 
      20      0.030  2.5000000 
      21      0.030  2.5000000 
      22      0.030  2.5000000 
      23      0.030  2.5000000 
      24      0.030  2.5000000 
      25      0.030  2.5000000 
      26      0.030  2.5000000 
      27      0.030  2.5000000 
      28      0.030  2.5000000 
      29      0.030  2.5000000 
      30      0.030  2.5000000 
      31      0.030  2.5000000 
      32      0.030  2.5000000 
      33      0.030  2.5000000 
      34      0.030  2.5000000 
      35      0.030  2.5000000 
      36      0.030  2.5000000 
      37      0.030  2.5000000 
      38      0.030  2.5000000 
      39      0.030  2.5000000 
      40      0.030  2.5000000 
      41      0.030  2.5000000 
      42      0.030  2.5000000 
      43      0.030  2.5000000 
      44      0.030  2.5000000 
      45      0.030  2.5000000 
      46      0.030  2.5000000 

Bond Coeffs 

       1   268.0000     1.5290 
       2   268.0000     1.5290 
       3   268.0000     1.5290 
       4   268.0000     1.5290 
       5   268.0000     1.5290 
       6   268.0000     1.5290 
       7   390.0000     1.4700 
       8   650.0000     1.1570 
       9   268.0000     1.5290 
      10   268.0000     1.5290 
      11   268.0000     1.5290 
      12   268.0000     1.5290 
      13   268.0000     1.5290 
      14   268.0000     1.5290 
      15   268.0000     1.5290 
      16   268.0000     1.5290 
      17   340.0000     1.0900 
      18   340.0000     1.0900 
      19   340.0000     1.0900 
      20   340.0000     1.0900 
      21   340.0000     1.0900 
      22   340.0000     1.0900 
      23   340.0000     1.0900 
      24   340.0000     1.0900 
      25   340.0000     1.0900 
      26   340.0000     1.0900 
      27   340.0000     1.0900 
      28   340.0000     1.0900 
      29   340.0000     1.0900 
      30   340.0000     1.0900 
      31   340.0000     1.0900 
      32   340.0000     1.0900 
      33   340.0000     1.0900 
      34   340.0000     1.0900 
      35   340.0000     1.0900 
      36   340.0000     1.0900 
      37   340.0000     1.0900 
      38   340.0000     1.0900 
      39   340.0000     1.0900 
      40   340.0000     1.0900 
      41   340.0000     1.0900 
      42   340.0000     1.0900 
      43   340.0000     1.0900 
      44   340.0000     1.0900 
      45   340.0000     1.0900 
      46   268.0000     1.5290 

Angle Coeffs 

       1     58.350    112.700
       2     58.350    112.700
       3     58.350    112.700
       4     58.350    112.700
       5     58.350    112.700
       6     58.350    112.700
       7    150.000    180.000
       8     58.350    112.700
       9     58.350    112.700
      10     58.350    112.700
      11     58.350    112.700
      12     58.350    112.700
      13     58.350    112.700
      14     58.350    112.700
      15     58.350    112.700
      16     37.500    110.700
      17     37.500    110.700
      18     37.500    110.700
      19     37.500    110.700
      20     37.500    110.700
      21     37.500    110.700
      22     37.500    110.700
      23     37.500    110.700
      24     37.500    110.700
      25     37.500    110.700
      26     37.500    110.700
      27     37.500    110.700
      28     37.500    110.700
      29     37.500    110.700
      30     37.500    110.700
      31     37.500    110.700
      32     37.500    110.700
      33     37.500    110.700
      34     37.500    110.700
      35     37.500    110.700
      36     37.500    110.700
      37     37.500    110.700
      38     37.500    110.700
      39     37.500    110.700
      40     37.500    110.700
      41     37.500    110.700
      42     37.500    110.700
      43     37.500    110.700
      44     37.500    110.700
      45     33.000    107.800
      46     58.350    112.700
      47     58.350    112.700
      48     37.500    110.700
      49     37.500    110.700
      50     33.000    107.800
      51     37.500    110.700
      52     37.500    110.700
      53     58.350    112.700
      54     58.350    112.700
      55     58.350    112.700
      56     33.000    107.800
      57     37.500    110.700
      58     58.350    112.700
      59     33.000    107.800
      60     58.350    112.700
      61     33.000    107.800
      62     37.500    110.700
      63     33.000    107.800
      64     33.000    107.800
      65     33.000    107.800
      66     33.000    107.800
      67     58.350    112.700
      68     33.000    107.800
      69     33.000    107.800
      70     37.500    110.700
      71     33.000    107.800
      72     37.500    110.700
      73     37.500    110.700
      74     33.000    107.800
      75     33.000    107.800
      76     33.000    107.800
      77     37.500    110.700
      78     37.500    110.700
      79     37.500    110.700
      80     33.000    107.800
      81     37.500    110.700
      82     37.500    110.700
      83     37.500    110.700
      84     37.500    110.700
      85     37.500    110.700
      86     37.500    110.700
      87     33.000    107.800
      88     33.000    107.800
      89     37.500    110.700
      90     33.000    107.800
      91     37.500    110.700

Dihedral Coeffs  

       1      1.300     -0.200      0.200      0.000 
       2      1.300     -0.200      0.200      0.000 
       3      1.300     -0.200      0.200      0.000 
       4      0.000     -0.650      0.000      0.000 
       5      0.000      0.000      0.000      0.000 
       6      1.300     -0.200      0.200      0.000 
       7      1.300     -0.200      0.200      0.000 
       8      1.300     -0.200      0.200      0.000 
       9      1.300     -0.200      0.200      0.000 
      10      1.300     -0.200      0.200      0.000 
      11      0.000      0.000      0.300      0.000 
      12      0.000      0.000      0.300      0.000 
      13      0.000      0.000      0.300      0.000 
      14      0.000      0.000      0.300      0.000 
      15      0.000      0.000      0.300      0.000 
      16      0.000      0.000      0.300      0.000 
      17      0.000      0.000      0.300      0.000 
      18      0.000      0.000      0.000      0.000 
      19      0.000      0.000      0.300      0.000 
      20      0.000      0.000      0.300      0.000 
      21      0.000      0.000      0.300      0.000 
      22      0.000      0.000      0.300      0.000 
      23      0.000      0.000      0.300      0.000 
      24      0.000      0.000      0.366      0.000 
      25      0.000      0.000      0.300      0.000 
      26      0.000      0.000      0.300      0.000 
      27      1.300     -0.200      0.200      0.000 
      28      0.000      0.000      0.300      0.000 
      29      0.000      0.000      0.300      0.000 
      30      0.000      0.000      0.300      0.000 
      31      0.000      0.000      0.300      0.000 
      32      0.000      0.000      0.300      0.000 
      33      0.000      0.000      0.300      0.000 
      34      1.300     -0.200      0.200      0.000 
      35      0.000      0.000      0.300      0.000 
      36      1.300     -0.200      0.200      0.000 
      37      0.000      0.000      0.300      0.000 
      38      0.000      0.000      0.366      0.000 
      39      0.000      0.000      0.366      0.000 
      40      0.000      0.000      0.300      0.000 
      41      0.000     -0.650      0.000      0.000 
      42      0.000      0.000      0.300      0.000 
      43      0.000      0.000      0.300      0.000 
      44      0.000      0.000      0.300      0.000 
      45      0.000     -0.650      0.000      0.000 
      46      0.000      0.000      0.300      0.000 
      47      0.000      0.000      0.000      0.000 
      48      0.000      0.000      0.300      0.000 
      49      0.000      0.000      0.300      0.000 
      50      0.000      0.000      0.300      0.000 
      51      0.000      0.000      0.300      0.000 
      52      0.000      0.000      0.300      0.000 
      53      0.000      0.000      0.300      0.000 
      54      0.000      0.000      0.300      0.000 
      55      0.000      0.000      0.300      0.000 
      56      1.300     -0.200      0.200      0.000 
      57      0.000      0.000      0.300      0.000 
      58      0.000      0.000      0.300      0.000 
      59      0.000      0.000      0.300      0.000 
      60      0.000      0.000      0.300      0.000 
      61      0.000      0.000      0.300      0.000 
      62      0.000      0.000      0.300      0.000 
      63      0.000      0.000      0.300      0.000 
      64      1.300     -0.200      0.200      0.000 
      65      0.000      0.000      0.300      0.000 
      66      0.000      0.000      0.300      0.000 
      67      0.000      0.000      0.300      0.000 
      68      0.000      0.000      0.300      0.000 
      69      0.000      0.000      0.300      0.000 
      70      0.000      0.000      0.300      0.000 
      71      0.000     -0.650      0.000      0.000 
      72      1.300     -0.200      0.200      0.000 
      73      0.000      0.000      0.300      0.000 
      74      0.000      0.000      0.300      0.000 
      75      0.000      0.000      0.300      0.000 
      76      0.000      0.000      0.366      0.000 
      77      0.000      0.000      0.300      0.000 
      78      0.000      0.000      0.300      0.000 
      79      0.000     -0.650      0.000      0.000 
      80      0.000      0.000      0.300      0.000 
      81      1.300     -0.200      0.200      0.000 
      82      0.000      0.000      0.300      0.000 
      83      0.000      0.000      0.300      0.000 
      84      0.000      0.000      0.300      0.000 
      85      0.000      0.000      0.300      0.000 
      86      0.000      0.000      0.300      0.000 
      87      0.000      0.000      0.300      0.000 
      88      0.000      0.000      0.300      0.000 
      89      0.000      0.000      0.300      0.000 
      90      0.000      0.000      0.300      0.000 
      91      0.000      0.000      0.300      0.000 
      92      0.000      0.000      0.300      0.000 
      93      0.000      0.000      0.300      0.000 
      94      1.300     -0.200      0.200      0.000 
      95      0.000      0.000      0.300      0.000 
      96      0.000      0.000      0.300      0.000 
      97      0.000      0.000      0.300      0.000 
      98      0.000      0.000      0.300      0.000 
      99      0.000      0.000      0.300      0.000 
     100      0.000      0.000      0.300      0.000 
     101      0.000      0.000      0.300      0.000 
     102      0.000      0.000      0.300      0.000 
     103      0.000      0.000      0.300      0.000 
     104      0.000      0.000      0.300      0.000 
     105      0.000      0.000      0.300      0.000 
     106      1.300     -0.200      0.200      0.000 
     107      0.000      0.000      0.300      0.000 
     108      0.000      0.000      0.300      0.000 
     109      0.000      0.000      0.300      0.000 
     110      0.000      0.000      0.300      0.000 
     111      1.300     -0.200      0.200      0.000 
     112      1.300     -0.200      0.200      0.000 
     113      0.000      0.000      0.300      0.000 
     114      0.000      0.000      0.300      0.000 
     115      0.000      0.000      0.300      0.000 
     116      0.000      0.000      0.300      0.000 
     117      0.000      0.000      0.300      0.000 
     118      0.000      0.000      0.300      0.000 
     119      0.000      0.000      0.300      0.000 
     120      0.000      0.000      0.300      0.000 
     121      0.000      0.000      0.300      0.000 
     122      0.000      0.000      0.300      0.000 
     123      0.000      0.000      0.300      0.000 
     124      0.000      0.000      0.300      0.000 
     125      0.000      0.000      0.300      0.000 
     126      0.000      0.000      0.300      0.000 
     127      0.000      0.000      0.300      0.000 
     128      0.000      0.000      0.300      0.000 
     129      1.300     -0.200      0.200      0.000 
     130      0.000      0.000      0.300      0.000 
     131      1.300     -0.200      0.200      0.000 
     132      1.300     -0.200      0.200      0.000 
     133      1.300     -0.200      0.200      0.000 
     134      1.300     -0.200      0.200      0.000 
     135      0.000      0.000      0.300      0.000 
     136      0.000      0.000      0.300      0.000 
     137      0.000      0.000      0.300      0.000 
     138      0.000      0.000      0.300      0.000 

Improper Coeffs 

       1      0.000      -1       2 
       2      0.000      -1       2 
       3      0.000      -1       2 
       4      0.000      -1       2 
       5      0.000      -1       2 
       6      0.000      -1       2 
       7      0.000      -1       2 
       8      0.000      -1       2 
       9      0.000      -1       2 
      10      0.000      -1       2 
      11      0.000      -1       2 
      12      0.000      -1       2 
      13      0.000      -1       2 
      14      0.000      -1       2 
      15      0.000      -1       2 
      16      0.000      -1       2 
      17      0.000      -1       2 
      18      0.000      -1       2 
      19      0.000      -1       2 
      20      0.000      -1       2 
      21      0.000      -1       2 
      22      0.000      -1       2 
      23      0.000      -1       2 
      24      0.000      -1       2 
      25      0.000      -1       2 
      26      0.000      -1       2 
      27      0.000      -1       2 
      28      0.000      -1       2 
      29      0.000      -1       2 

Atoms 

     1      1      1 -0.24030000    1.000  1.00000  0.00000
     2      1      2 -0.17900000   -0.526  1.00000  0.00000
     3      1      3 -0.18070000   -1.055  1.00000  1.43756
     4      1      4 -0.08440000   -2.601  1.00176  1.60142
     5      1      5 -0.17180000   -3.257 -0.19451  0.85574
     6      1      6 -0.23740000   -2.972 -1.58639  1.39706
     7      1      7 0.11970000   -3.144  1.28097  3.08994
     8      1      8 0.14950000   -2.622  2.63596  3.53920
     9      1      9 -0.42140000   -2.188  3.75942  3.91274
    10      1     10 -0.16800000   -4.699  1.37297  3.03835
    11      1     11 -0.17000000   -5.460  1.63737  4.33996
    12      1     12 -0.17200000   -5.554  0.40257  5.22341
    13      1     13 -0.17340000   -4.446  0.28304  6.24547
    14      1     14 -0.10480000   -3.005  0.52323  5.77433
    15      1     15 -0.23900000   -2.457  1.82370  6.38502
    16      1     16 -0.07670000   -2.664  0.25933  4.27925
    17      1     17 -0.24560000   -1.141 -0.02927  4.29824
    18      1     18 0.08280000    1.384  0.93421 -1.01859
    19      1     19 0.08280000    1.391  0.14312  0.56323
    20      1     20 0.08280000    1.391  1.91396  0.45876
    21      1     21 0.08970000   -0.856  0.10205 -0.53419
    22      1     22 0.08970000   -0.895  1.87473 -0.54139
    23      1     23 0.09830000   -0.632  1.86987  1.95201
    24      1     24 0.09830000   -0.625  0.11010  1.88791
    25      1     25 0.09770000   -2.927  1.88195  1.02162
    26      1     26 0.08990000   -2.938 -0.17123 -0.19260
    27      1     27 0.08990000   -4.341 -0.05786  0.79335
    28      1     28 0.08310000   -1.907 -1.75088  1.57928
    29      1     29 0.08310000   -3.296 -2.33760  0.66847
    30      1     30 0.08310000   -3.528 -1.77972  2.31648
    31      1     31 0.09890000   -5.105  0.44370  2.62544
    32      1     32 0.09890000   -4.977  2.16908  2.33457
    33      1     33 0.09780000   -6.487  1.90173  4.05643
    34      1     34 0.09780000   -5.067  2.50083  4.88403
    35      1     35 0.08600000   -5.598 -0.50964  4.61926
    36      1     36 0.08600000   -6.501  0.43724  5.77875
    37      1     37 0.08570000   -4.500 -0.73221  6.66228
    38      1     38 0.08570000   -4.674  0.94344  7.09376
    39      1     39 0.08640000   -2.451 -0.24669  6.33563
    40      1     40 0.08680000   -3.111  2.67842  6.18657
    41      1     41 0.08680000   -1.443  2.04497  6.04376
    42      1     42 0.08680000   -2.403  1.73367  7.47768
    43      1     43 0.09990000   -3.142 -0.70198  4.06617
    44      1     44 0.08680000   -0.546  0.87448  4.14688
    45      1     45 0.08680000   -0.885 -0.79051  3.56223
    46      1     46 0.08680000   -0.808 -0.46029  5.24922

Bonds 

     1      1      2      1
     2      2      3      2
     3      3      4      3
     4      4      5      4
     5      5      6      5
     6      6      7      4
     7      7      8      7
     8      8      9      8
     9      9     10      7
    10     10     11     10
    11     11     12     11
    12     12     13     12
    13     13     14     13
    14     14     15     14
    15     15     16      7
    16     16     17     16
    17     17     18      1
    18     18     19      1
    19     19     20      1
    20     20     21      2
    21     21     22      2
    22     22     23      3
    23     23     24      3
    24     24     25      4
    25     25     26      5
    26     26     27      5
    27     27     28      6
    28     28     29      6
    29     29     30      6
    30     30     31     10
    31     31     32     10
    32     32     33     11
    33     33     34     11
    34     34     35     12
    35     35     36     12
    36     36     37     13
    37     37     38     13
    38     38     39     14
    39     39     40     15
    40     40     41     15
    41     41     42     15
    42     42     43     16
    43     43     44     17
    44     44     45     17
    45     45     46     17
    46     46     16     14

Angles 

     1      1      1      2      3
     2      2      2      3      4
     3      3      3      4      5
     4      4      4      5      6
     5      5      3      4      7
     6      6      4      7      8
     7      7      7      8      9
     8      8      4      7     10
     9      9      7     10     11
    10     10     10     11     12
    11     11     11     12     13
    12     12     12     13     14
    13     13     13     14     15
    14     14      4      7     16
    15     15      7     16     17
    16     16      2      1     18
    17     17      2      1     19
    18     18      2      1     20
    19     19      1      2     21
    20     20      1      2     22
    21     21      2      3     23
    22     22      2      3     24
    23     23      3      4     25
    24     24      4      5     26
    25     25      4      5     27
    26     26      5      6     28
    27     27      5      6     29
    28     28      5      6     30
    29     29      7     10     31
    30     30      7     10     32
    31     31     10     11     33
    32     32     10     11     34
    33     33     11     12     35
    34     34     11     12     36
    35     35     12     13     37
    36     36     12     13     38
    37     37     13     14     39
    38     38     14     15     40
    39     39     14     15     41
    40     40     14     15     42
    41     41      7     16     43
    42     42     16     17     44
    43     43     16     17     45
    44     44     16     17     46
    45     45     33     11     34
    46     46      5      4      7
    47     47     13     14     16
    48     48     13     12     36
    49     49      4      3     23
    50     50     35     12     36
    51     51      4      3     24
    52     52      6      5     26
    53     53     10      7     16
    54     54      7     16     14
    55     55      8      7     16
    56     56     45     17     46
    57     57     14     16     43
    58     58     15     14     16
    59     59     31     10     32
    60     60     14     16     17
    61     61     18      1     19
    62     62      5      4     25
    63     63     21      2     22
    64     64     37     13     38
    65     65     44     17     46
    66     66     28      6     29
    67     67      8      7     10
    68     68     41     15     42
    69     69     23      3     24
    70     70      6      5     27
    71     71     28      6     30
    72     72     14     13     38
    73     73     11     10     31
    74     74     29      6     30
    75     75     18      1     20
    76     76     44     17     45
    77     77     12     11     34
    78     78     12     11     33
    79     79     15     14     39
    80     80     40     15     42
    81     81     17     16     43
    82     82      3      2     21
    83     83     14     13     37
    84     84     11     10     32
    85     85      7      4     25
    86     86      3      2     22
    87     87     40     15     41
    88     88     26      5     27
    89     89     13     12     35
    90     90     19      1     20
    91     91     16     14     39

Dihedrals

     1      1      4      3      2      1 
     2      2      5      4      3      2 
     3      3      6      5      4      3 
     4      4      8      7      4      3 
     5      5      9      8      7      4 
     6      6     11     10      7      4 
     7      7     12     11     10      7 
     8      8     13     12     11     10 
     9      9     14     13     12     11 
    10     10     15     14     13     12 
    11     11     18      1      2      3 
    12     12     28      6      5      4 
    13     13     40     15     14     13 
    14     14     44     17     16      7 
    15     15     44     17     16     43 
    16     16     37     13     12     35 
    17     17     31     10     11     12 
    18     18     10      7      8      9 
    19     19     25      4      3     24 
    20     20     36     12     11     33 
    21     21     38     13     12     35 
    22     22     24      3      2     22 
    23     23     45     17     16      7 
    24     24     31     10      7      8 
    25     25     19      1      2      3 
    26     26     25      4      7     10 
    27     27     16      7     10     11 
    28     28     35     12     11     10 
    29     29     25      4      5      6 
    30     30     38     13     12     36 
    31     31     23      3      4      5 
    32     32     39     14     16      7 
    33     33     38     13     14     16 
    34     34     16      7      4      5 
    35     35     32     10      7      4 
    36     36      7      4      5      6 
    37     37     35     12     11     33 
    38     38     25      4      7      8 
    39     39     43     16      7      8 
    40     40     25      4      7     16 
    41     41     11     10      7      8 
    42     42     34     11     10     32 
    43     43     43     16      7     10 
    44     44     29      6      5     27 
    45     45      8      7      4      5 
    46     46     46     17     16     43 
    47     47     16      7      8      9 
    48     48     24      3      2     21 
    49     49     23      3      2     22 
    50     50     44     17     16     14 
    51     51     43     16     14     13 
    52     52     39     14     16     17 
    53     53     34     11     10      7 
    54     54     45     17     16     14 
    55     55     21      2      1     20 
    56     56     13     14     16      7 
    57     57     40     15     14     39 
    58     58     21      2      1     18 
    59     59     24      3      4      7 
    60     60     35     12     13     14 
    61     61     43     16      7      4 
    62     62     43     16     14     15 
    63     63     37     13     12     11 
    64     64      7      4      3      2 
    65     65     26      5      4      3 
    66     66     37     13     14     16 
    67     67     38     13     14     15 
    68     68     45     17     16     43 
    69     69     30      6      5      4 
    70     70     31     10      7      4 
    71     71     17     16      7      8 
    72     72     14     16      7      4 
    73     73     40     15     14     16 
    74     74     37     13     12     36 
    75     75     24      3      4      5 
    76     76     32     10      7      8 
    77     77     36     12     11     10 
    78     78     39     14     13     38 
    79     79     14     16      7      8 
    80     80     22      2      1     19 
    81     81     16     14     13     12 
    82     82     27      5      4      7 
    83     83     38     13     12     11 
    84     84     41     15     14     39 
    85     85     27      5      4     25 
    86     86     41     15     14     13 
    87     87     32     10     11     12 
    88     88     42     15     14     39 
    89     89     42     15     14     13 
    90     90     33     11     10     31 
    91     91     39     14     13     12 
    92     92     25      4      3     23 
    93     93     46     17     16     14 
    94     94     16      7      4      3 
    95     95     26      5      4      7 
    96     96     46     17     16      7 
    97     97     30      6      5     26 
    98     98     23      3      2      1 
    99     99     31     10      7     16 
   100    100     35     12     11     34 
   101    101     34     11     12     13 
   102    102     23      3      2     21 
   103    103     21      2      3      4 
   104    104     28      6      5     26 
   105    105     24      3      2      1 
   106    106     17     16     14     13 
   107    107     20      1      2      3 
   108    108     37     13     14     15 
   109    109     22      2      1     20 
   110    110     41     15     14     16 
   111    111     10      7      4      5 
   112    112     17     16      7      4 
   113    113     36     12     11     34 
   114    114     29      6      5      4 
   115    115     39     14     13     37 
   116    116     33     11     10      7 
   117    117     27      5      4      3 
   118    118     32     10      7     16 
   119    119     22      2      3      4 
   120    120     22      2      1     18 
   121    121     23      3      4      7 
   122    122     21      2      1     19 
   123    123     30      6      5     27 
   124    124     29      6      5     26 
   125    125     28      6      5     27 
   126    126     34     11     10     31 
   127    127     33     11     10     32 
   128    128     25      4      3      2 
   129    129     15     14     16      7 
   130    130     33     11     12     13 
   131    131     14     16      7     10 
   132    132     17     16     14     15 
   133    133     17     16      7     10 
   134    134     10      7      4      3 
   135    135     36     12     13     14 
   136    136     43     16     14     39 
   137    137     26      5      4     25 
   138    138     42     15     14     16 

Impropers

     1      1      4      3      5      7 
     2      2      7     10      4      8 
     3      3      7      8      4     16 
     4      4     16     17     14      7 
     5      5      1      2     19     18 
     6      6      1      2     20     18 
     7      7      2      1      3     21 
     8      8      2      1      3     22 
     9      9      3      2      4     23 
    10     10      3      2      4     24 
    11     11      4     25      3      5 
    12     12      5     26      4      6 
    13     13      5     27      4      6 
    14     14      6      5     28     29 
    15     15      6     28      5     30 
    16     16     10     11      7     31 
    17     17     10     11      7     32 
    18     18     11     33     10     12 
    19     19     11     34     12     10 
    20     20     12     35     13     11 
    21     21     12     11     36     13 
    22     22     13     12     37     14 
    23     23     13     12     38     14 
    24     24     14     15     13     39 
    25     25     15     41     14     40 
    26     26     15     42     14     40 
    27     27     16     43     14      7 
    28     28     17     44     45     16 
    29     29     17     44     46     16 

