LAMMPS data file Created by LigParGen - (Written by Leela S. Dodda)

      51 atoms
      51 bonds
     102 angles
     153 dihedrals
      33 impropers
 
      51 atom types
      51 bond types
     102 angle types
     153 dihedral types
      33 improper types
 
   -9.943260    40.056740 xlo xhi
   -3.654850    46.345150 ylo yhi
   -1.028500    48.971500 zlo zhi

Masses

       1     12.011  
       2     12.011  
       3     12.011  
       4     12.011  
       5     12.011  
       6     12.011  
       7     12.011  
       8     12.011  
       9     12.011  
      10     12.011  
      11     12.011  
      12     12.011  
      13     32.060  
      14     15.999  
      15     15.999  
      16     12.011  
      17     12.011  
      18     12.011  
      19     12.011  
      20      1.008  
      21      1.008  
      22      1.008  
      23      1.008  
      24      1.008  
      25      1.008  
      26      1.008  
      27      1.008  
      28      1.008  
      29      1.008  
      30      1.008  
      31      1.008  
      32      1.008  
      33      1.008  
      34      1.008  
      35      1.008  
      36      1.008  
      37      1.008  
      38      1.008  
      39      1.008  
      40      1.008  
      41      1.008  
      42      1.008  
      43      1.008  
      44      1.008  
      45      1.008  
      46      1.008  
      47      1.008  
      48      1.008  
      49      1.008  
      50      1.008  
      51      1.008  

Pair Coeffs 

       1      0.066  3.5000000 
       2      0.066  3.5000000 
       3      0.066  3.5000000 
       4      0.066  3.5000000 
       5      0.066  3.5000000 
       6      0.066  3.5000000 
       7      0.066  3.5000000 
       8      0.066  3.5000000 
       9      0.066  3.5000000 
      10      0.066  3.5000000 
      11      0.066  3.5000000 
      12      0.066  3.5000000 
      13      0.250  3.5500000 
      14      0.170  2.9600000 
      15      0.170  2.9600000 
      16      0.066  3.5000000 
      17      0.066  3.5000000 
      18      0.066  3.5000000 
      19      0.066  3.5000000 
      20      0.030  2.5000000 
      21      0.030  2.5000000 
      22      0.030  2.5000000 
      23      0.030  2.5000000 
      24      0.030  2.5000000 
      25      0.030  2.5000000 
      26      0.030  2.5000000 
      27      0.030  2.5000000 
      28      0.030  2.5000000 
      29      0.030  2.5000000 
      30      0.030  2.5000000 
      31      0.030  2.5000000 
      32      0.030  2.5000000 
      33      0.030  2.5000000 
      34      0.030  2.5000000 
      35      0.030  2.5000000 
      36      0.030  2.5000000 
      37      0.030  2.5000000 
      38      0.030  2.5000000 
      39      0.030  2.5000000 
      40      0.030  2.5000000 
      41      0.030  2.5000000 
      42      0.030  2.5000000 
      43      0.030  2.5000000 
      44      0.030  2.5000000 
      45      0.030  2.5000000 
      46      0.030  2.5000000 
      47      0.030  2.5000000 
      48      0.030  2.5000000 
      49      0.030  2.5000000 
      50      0.030  2.5000000 
      51      0.030  2.5000000 

Bond Coeffs 

       1   268.0000     1.5290 
       2   268.0000     1.5290 
       3   268.0000     1.5290 
       4   268.0000     1.5290 
       5   268.0000     1.5290 
       6   268.0000     1.5290 
       7   268.0000     1.5290 
       8   268.0000     1.5290 
       9   268.0000     1.5290 
      10   268.0000     1.5290 
      11   268.0000     1.5290 
      12   340.0000     1.7700 
      13   700.0000     1.4400 
      14   700.0000     1.4400 
      15   340.0000     1.7700 
      16   268.0000     1.5290 
      17   268.0000     1.5290 
      18   268.0000     1.5290 
      19   340.0000     1.0900 
      20   340.0000     1.0900 
      21   340.0000     1.0900 
      22   340.0000     1.0900 
      23   340.0000     1.0900 
      24   340.0000     1.0900 
      25   340.0000     1.0900 
      26   340.0000     1.0900 
      27   340.0000     1.0900 
      28   340.0000     1.0900 
      29   340.0000     1.0900 
      30   340.0000     1.0900 
      31   340.0000     1.0900 
      32   340.0000     1.0900 
      33   340.0000     1.0900 
      34   340.0000     1.0900 
      35   340.0000     1.0900 
      36   340.0000     1.0900 
      37   340.0000     1.0900 
      38   340.0000     1.0900 
      39   340.0000     1.0900 
      40   340.0000     1.0900 
      41   340.0000     1.0900 
      42   340.0000     1.0900 
      43   340.0000     1.0900 
      44   340.0000     1.0900 
      45   340.0000     1.0900 
      46   340.0000     1.0900 
      47   340.0000     1.0900 
      48   340.0000     1.0900 
      49   340.0000     1.0900 
      50   340.0000     1.0900 
      51   268.0000     1.5290 

Angle Coeffs 

       1     58.350    112.700
       2     58.350    112.700
       3     58.350    112.700
       4     58.350    112.700
       5     58.350    112.700
       6     58.350    112.700
       7     58.350    112.700
       8     58.350    112.700
       9     58.350    112.700
      10     58.350    112.700
      11     50.000    108.600
      12     74.000    108.900
      13     74.000    108.900
      14     62.000    102.000
      15     50.000    108.600
      16     58.350    112.700
      17     58.350    112.700
      18     37.500    110.700
      19     37.500    110.700
      20     37.500    110.700
      21     37.500    110.700
      22     37.500    110.700
      23     37.500    110.700
      24     37.500    110.700
      25     37.500    110.700
      26     37.500    110.700
      27     37.500    110.700
      28     37.500    110.700
      29     37.500    110.700
      30     37.500    110.700
      31     37.500    110.700
      32     37.500    110.700
      33     37.500    110.700
      34     37.500    110.700
      35     37.500    110.700
      36     37.500    110.700
      37     37.500    110.700
      38     37.500    110.700
      39     37.500    110.700
      40     37.500    110.700
      41     37.500    110.700
      42     35.000    109.500
      43     37.500    110.700
      44     37.500    110.700
      45     37.500    110.700
      46     37.500    110.700
      47     37.500    110.700
      48     37.500    110.700
      49     37.500    110.700
      50     33.000    107.800
      51    104.000    119.000
      52     58.350    112.700
      53     33.000    107.800
      54     37.500    110.700
      55     33.000    107.800
      56     58.350    112.700
      57     37.500    110.700
      58     74.000    108.900
      59     58.350    112.700
      60     37.500    110.700
      61     58.350    112.700
      62     33.000    107.800
      63     58.350    112.700
      64     58.350    112.700
      65     37.500    110.700
      66     37.500    110.700
      67     33.000    107.800
      68     33.000    107.800
      69     35.000    109.500
      70     33.000    107.800
      71     33.000    107.800
      72     33.000    107.800
      73     58.350    112.700
      74     33.000    107.800
      75     58.350    112.700
      76     33.000    107.800
      77     33.000    107.800
      78     37.500    110.700
      79     37.500    110.700
      80     33.000    107.800
      81     74.000    108.900
      82     35.000    109.500
      83     37.500    110.700
      84     33.000    107.800
      85     33.000    107.800
      86     33.000    107.800
      87     50.000    108.600
      88     33.000    107.800
      89     37.500    110.700
      90     37.500    110.700
      91     37.500    110.700
      92     37.500    110.700
      93     37.500    110.700
      94     33.000    107.800
      95     33.000    107.800
      96     33.000    107.800
      97     33.000    107.800
      98     37.500    110.700
      99     37.500    110.700
     100     33.000    107.800
     101     33.000    107.800
     102     37.500    110.700

Dihedral Coeffs  

       1      1.300     -0.200      0.200      0.000 
       2      1.300     -0.200      0.200      0.000 
       3      1.300     -0.200      0.200      0.000 
       4      1.300     -0.200      0.200      0.000 
       5      1.300     -0.200      0.200      0.000 
       6      1.300     -0.200      0.200      0.000 
       7      1.262     -0.198      0.465      0.000 
       8      0.000      0.000      0.000      0.000 
       9      0.000      0.000      0.000      0.000 
      10      0.000      0.000      0.300      0.000 
      11      0.000      0.000      0.300      0.000 
      12      0.000      0.000      0.300      0.000 
      13      0.000      0.000      0.300      0.000 
      14      0.000      0.000      0.452      0.000 
      15      0.000      0.000      0.300      0.000 
      16      0.000      0.000      0.300      0.000 
      17      0.000      0.000      0.300      0.000 
      18      0.000      0.000      0.300      0.000 
      19      0.000      0.000      0.300      0.000 
      20      0.000      0.000      0.300      0.000 
      21      0.000      0.000      0.300      0.000 
      22      0.000      0.000      0.300      0.000 
      23      0.000      0.000      0.300      0.000 
      24      1.300     -0.200      0.200      0.000 
      25      0.000      0.000      0.300      0.000 
      26      0.000      0.000      0.000      0.000 
      27      1.300     -0.200      0.200      0.000 
      28      0.000      0.000      0.300      0.000 
      29      0.000      0.000      0.300      0.000 
      30      0.000      0.000      0.300      0.000 
      31      0.000      0.000      0.300      0.000 
      32      0.000      0.000      0.300      0.000 
      33      0.000      0.000      0.300      0.000 
      34      0.000      0.000      0.300      0.000 
      35      0.000      0.000      0.300      0.000 
      36      0.000      0.000      0.300      0.000 
      37      0.000      0.000      0.300      0.000 
      38      0.000      0.000      0.300      0.000 
      39      1.300     -0.200      0.200      0.000 
      40      0.000      0.000      0.300      0.000 
      41      0.000      0.000      0.300      0.000 
      42      0.000      0.000      0.300      0.000 
      43      0.000      0.000      0.350      0.000 
      44      0.000      0.000      0.300      0.000 
      45      0.000      0.000      0.300      0.000 
      46      1.300     -0.200      0.200      0.000 
      47      0.000      0.000      0.300      0.000 
      48      0.000      0.000      0.300      0.000 
      49      0.000      0.000      0.300      0.000 
      50      1.300     -0.200      0.200      0.000 
      51      1.300     -0.200      0.200      0.000 
      52      1.300     -0.200      0.200      0.000 
      53      0.000      0.000      0.300      0.000 
      54      0.000      0.000      0.300      0.000 
      55      0.000      0.000      0.300      0.000 
      56      0.000      0.000      0.300      0.000 
      57      0.000      0.000      0.300      0.000 
      58      0.000      0.000      0.300      0.000 
      59      1.300     -0.200      0.200      0.000 
      60      0.000      0.000      0.300      0.000 
      61      1.300     -0.200      0.200      0.000 
      62      0.000      0.000      0.300      0.000 
      63      0.000      0.000      0.300      0.000 
      64      0.000      0.000      0.300      0.000 
      65      0.000      0.000      0.452      0.000 
      66      0.000      0.000      0.300      0.000 
      67      0.000      0.000      0.300      0.000 
      68      0.000      0.000      0.452      0.000 
      69      0.000      0.000      0.300      0.000 
      70      0.000      0.000      0.300      0.000 
      71      0.000      0.000      0.300      0.000 
      72      0.000      0.000      0.300      0.000 
      73      0.000      0.000      0.300      0.000 
      74      0.000      0.000      0.300      0.000 
      75      0.000      0.000      0.000      0.000 
      76      0.000      0.000      0.000      0.000 
      77      0.000      0.000      0.300      0.000 
      78      0.000      0.000      0.300      0.000 
      79      0.000      0.000      0.300      0.000 
      80      0.000      0.000      0.300      0.000 
      81      0.000      0.000      0.300      0.000 
      82      0.000      0.000      0.300      0.000 
      83      0.000      0.000      0.300      0.000 
      84      0.000      0.000      0.300      0.000 
      85      0.000      0.000      0.000      0.000 
      86      0.000      0.000      0.300      0.000 
      87      1.262     -0.198      0.465      0.000 
      88      0.000      0.000      0.300      0.000 
      89      0.000      0.000      0.300      0.000 
      90      0.000      0.000      0.300      0.000 
      91      0.000      0.000      0.452      0.000 
      92      0.000      0.000      0.300      0.000 
      93      0.000      0.000      0.300      0.000 
      94      0.000      0.000      0.300      0.000 
      95      0.000      0.000      0.300      0.000 
      96      0.000      0.000      0.300      0.000 
      97      1.300     -0.200      0.200      0.000 
      98      0.000      0.000      0.300      0.000 
      99      0.000      0.000      0.300      0.000 
     100      1.300     -0.200      0.200      0.000 
     101      0.000      0.000      0.350      0.000 
     102      0.000      0.000      0.300      0.000 
     103      0.000      0.000      0.300      0.000 
     104      0.000      0.000      0.350      0.000 
     105      0.000      0.000      0.300      0.000 
     106      0.000      0.000      0.300      0.000 
     107      0.000      0.000      0.300      0.000 
     108      0.000      0.000      0.000      0.000 
     109      0.000      0.000      0.452      0.000 
     110      0.000      0.000      0.300      0.000 
     111      0.000      0.000      0.300      0.000 
     112      1.300     -0.200      0.200      0.000 
     113      0.000      0.000      0.300      0.000 
     114      0.000      0.000      0.300      0.000 
     115      0.000      0.000      0.300      0.000 
     116      0.000      0.000      0.300      0.000 
     117      0.000      0.000      0.300      0.000 
     118      0.000      0.000      0.300      0.000 
     119      0.000      0.000      0.300      0.000 
     120      0.000      0.000      0.300      0.000 
     121      0.000      0.000      0.300      0.000 
     122      0.000      0.000      0.300      0.000 
     123      0.000      0.000      0.350      0.000 
     124      0.000      0.000      0.350      0.000 
     125      0.000      0.000      0.350      0.000 
     126      0.000      0.000      0.300      0.000 
     127      0.000      0.000      0.350      0.000 
     128      0.000      0.000      0.300      0.000 
     129      0.000      0.000      0.350      0.000 
     130      1.262     -0.198      0.465      0.000 
     131      0.000      0.000      0.300      0.000 
     132      1.300     -0.200      0.200      0.000 
     133      0.000      0.000      0.000      0.000 
     134      1.300     -0.200      0.200      0.000 
     135      0.000      0.000      0.300      0.000 
     136      0.000      0.000      0.300      0.000 
     137      1.300     -0.200      0.200      0.000 
     138      1.300     -0.200      0.200      0.000 
     139      1.300     -0.200      0.200      0.000 
     140      0.000      0.000      0.300      0.000 
     141      0.000      0.000      0.300      0.000 
     142      0.000      0.000      0.300      0.000 
     143      1.300     -0.200      0.200      0.000 
     144      0.000      0.000      0.300      0.000 
     145      0.000      0.000      0.300      0.000 
     146      0.000      0.000      0.350      0.000 
     147      0.000      0.000      0.300      0.000 
     148      0.000      0.000      0.300      0.000 
     149      0.000      0.000      0.000      0.000 
     150      0.000      0.000      0.300      0.000 
     151      0.000      0.000      0.300      0.000 
     152      0.000      0.000      0.452      0.000 
     153      0.000      0.000      0.300      0.000 

Improper Coeffs 

       1      0.000      -1       2 
       2      0.000      -1       2 
       3      0.000      -1       2 
       4      0.000      -1       2 
       5      0.000      -1       2 
       6      0.000      -1       2 
       7      0.000      -1       2 
       8      0.000      -1       2 
       9      0.000      -1       2 
      10      0.000      -1       2 
      11      0.000      -1       2 
      12      0.000      -1       2 
      13      0.000      -1       2 
      14      0.000      -1       2 
      15      0.000      -1       2 
      16      0.000      -1       2 
      17      0.000      -1       2 
      18      0.000      -1       2 
      19      0.000      -1       2 
      20      0.000      -1       2 
      21      0.000      -1       2 
      22      0.000      -1       2 
      23      0.000      -1       2 
      24      0.000      -1       2 
      25      0.000      -1       2 
      26      0.000      -1       2 
      27      0.000      -1       2 
      28      0.000      -1       2 
      29      0.000      -1       2 
      30      0.000      -1       2 
      31      0.000      -1       2 
      32      0.000      -1       2 
      33      0.000      -1       2 

Atoms 

     1      1      1 -0.23840000    1.000  1.00000  0.00000
     2      1      2 -0.18130000   -0.518  1.00000  0.00000
     3      1      3 -0.17800000   -1.090  1.00000  1.42114
     4      1      4 -0.17900000   -2.623  1.00182  1.36534
     5      1      5 -0.10100000   -3.346  1.00025  2.73980
     6      1      6 -0.23720000   -2.915  2.24056  3.55106
     7      1      7 -0.02030000   -4.948  0.84074  2.61764
     8      1      8 -0.24270000   -5.538  0.97120  4.04257
     9      1      9 -0.23740000   -5.520  2.04319  1.81928
    10      1     10 -0.11490000   -5.326 -0.55051  1.88340
    11      1     11 -0.13930000   -4.810 -1.82968  2.58446
    12      1     12 -0.50560000   -5.589 -2.29218  3.80293
    13      1     13 1.30170000   -7.351 -2.40344  3.58372
    14      1     14 -0.57480000   -7.947 -2.13867  4.87620
    15      1     15 -0.57480000   -7.616 -3.65485  2.90365
    16      1     16 -0.41230000   -7.811 -1.04316  2.49969
    17      1     17 -0.21550000   -9.243 -1.23203  1.99975
    18      1     18 -0.08010000   -6.798 -0.78019  1.38234
    19      1     19 -0.25150000   -6.843 -1.87534  0.28864
    20      1     20 0.08210000    1.375  1.00130 -1.02850
    21      1     21 0.08210000    1.390  0.11054  0.50424
    22      1     22 0.08210000    1.392  1.88826  0.50518
    23      1     23 0.08780000   -0.879  0.12245 -0.54886
    24      1     24 0.08780000   -0.874  1.88737 -0.53776
    25      1     25 0.09150000   -0.716  1.88637  1.94229
    26      1     26 0.09150000   -0.739  0.11674  1.96797
    27      1     27 0.08840000   -2.907  0.11678  0.79143
    28      1     28 0.08840000   -2.935  1.87749  0.78635
    29      1     29 0.09340000   -2.971  0.14114  3.30867
    30      1     30 0.08400000   -3.209  3.16919  3.05342
    31      1     31 0.08400000   -1.832  2.26527  3.69554
    32      1     32 0.08400000   -3.332  2.23628  4.56128
    33      1     33 0.08510000   -5.383  1.97477  4.45319
    34      1     34 0.08510000   -5.070  0.28259  4.74569
    35      1     35 0.08510000   -6.615  0.84820  4.07939
    36      1     36 0.08480000   -5.406  2.98044  2.37635
    37      1     37 0.08480000   -6.593  1.94375  1.63473
    38      1     38 0.08480000   -5.030  2.17366  0.85184
    39      1     39 0.10800000   -4.768 -0.50344  0.94051
    40      1     40 0.10760000   -3.754 -1.72659  2.85321
    41      1     41 0.10760000   -4.812 -2.65061  1.85499
    42      1     42 0.16980000   -5.395 -1.66516  4.67252
    43      1     43 0.16980000   -5.252 -3.30039  4.08055
    44      1     44 0.16360000   -7.862 -0.16505  3.13757
    45      1     45 0.10550000   -9.385 -2.18806  1.48745
    46      1     46 0.10550000   -9.524 -0.42505  1.31492
    47      1     47 0.10550000   -9.943 -1.21210  2.84322
    48      1     48 0.11490000   -7.119  0.12528  0.85575
    49      1     49 0.09590000   -6.635 -2.87578  0.67627
    50      1     50 0.09590000   -6.112 -1.66969 -0.50033
    51      1     51 0.09590000   -7.826 -1.91103 -0.19295

Bonds 

     1      1      2      1
     2      2      3      2
     3      3      4      3
     4      4      5      4
     5      5      6      5
     6      6      7      5
     7      7      8      7
     8      8      9      7
     9      9     10      7
    10     10     11     10
    11     11     12     11
    12     12     13     12
    13     13     14     13
    14     14     15     13
    15     15     16     13
    16     16     17     16
    17     17     18     10
    18     18     19     18
    19     19     20      1
    20     20     21      1
    21     21     22      1
    22     22     23      2
    23     23     24      2
    24     24     25      3
    25     25     26      3
    26     26     27      4
    27     27     28      4
    28     28     29      5
    29     29     30      6
    30     30     31      6
    31     31     32      6
    32     32     33      8
    33     33     34      8
    34     34     35      8
    35     35     36      9
    36     36     37      9
    37     37     38      9
    38     38     39     10
    39     39     40     11
    40     40     41     11
    41     41     42     12
    42     42     43     12
    43     43     44     16
    44     44     45     17
    45     45     46     17
    46     46     47     17
    47     47     48     18
    48     48     49     19
    49     49     50     19
    50     50     51     19
    51     51     18     16

Angles 

     1      1      1      2      3
     2      2      2      3      4
     3      3      3      4      5
     4      4      4      5      6
     5      5      4      5      7
     6      6      5      7      8
     7      7      5      7      9
     8      8      5      7     10
     9      9      7     10     11
    10     10     10     11     12
    11     11     11     12     13
    12     12     12     13     14
    13     13     12     13     15
    14     14     12     13     16
    15     15     13     16     17
    16     16      7     10     18
    17     17     10     18     19
    18     18      2      1     20
    19     19      2      1     21
    20     20      2      1     22
    21     21      1      2     23
    22     22      1      2     24
    23     23      2      3     25
    24     24      2      3     26
    25     25      3      4     27
    26     26      3      4     28
    27     27      4      5     29
    28     28      5      6     30
    29     29      5      6     31
    30     30      5      6     32
    31     31      7      8     33
    32     32      7      8     34
    33     33      7      8     35
    34     34      7      9     36
    35     35      7      9     37
    36     36      7      9     38
    37     37      7     10     39
    38     38     10     11     40
    39     39     10     11     41
    40     40     11     12     42
    41     41     11     12     43
    42     42     13     16     44
    43     43     16     17     45
    44     44     16     17     46
    45     45     16     17     47
    46     46     10     18     48
    47     47     18     19     49
    48     48     18     19     50
    49     49     18     19     51
    50     50     45     17     47
    51     51     14     13     15
    52     52     16     18     19
    53     53     20      1     21
    54     54      5      4     27
    55     55     45     17     46
    56     56      9      7     10
    57     57     18     16     44
    58     58     15     13     16
    59     59      8      7     10
    60     60      5      4     28
    61     61      8      7      9
    62     62     36      9     38
    63     63     10     18     16
    64     64      6      5      7
    65     65     19     18     48
    66     66     17     16     44
    67     67     20      1     22
    68     68     31      6     32
    69     69     13     12     42
    70     70     42     12     43
    71     71     27      4     28
    72     72     49     19     50
    73     73     17     16     18
    74     74     33      8     34
    75     75     11     10     18
    76     76     21      1     22
    77     77     50     19     51
    78     78     16     18     48
    79     79     18     10     39
    80     80     46     17     47
    81     81     14     13     16
    82     82     13     12     43
    83     83      4      3     26
    84     84     36      9     37
    85     85     34      8     35
    86     86     25      3     26
    87     87     13     16     18
    88     88     30      6     31
    89     89      7      5     29
    90     90     11     10     39
    91     91      4      3     25
    92     92      3      2     23
    93     93     12     11     40
    94     94     37      9     38
    95     95     49     19     51
    96     96     23      2     24
    97     97     40     11     41
    98     98      3      2     24
    99     99      6      5     29
   100    100     30      6     32
   101    101     33      8     35
   102    102     12     11     41

Dihedrals

     1      1      4      3      2      1 
     2      2      5      4      3      2 
     3      3      6      5      4      3 
     4      4      8      7      5      4 
     5      5     11     10      7      5 
     6      6     12     11     10      7 
     7      7     13     12     11     10 
     8      8     14     13     12     11 
     9      9     17     16     13     12 
    10     10     20      1      2      3 
    11     11     30      6      5      4 
    12     12     33      8      7      5 
    13     13     36      9      7      5 
    14     14     45     17     16     13 
    15     15     49     19     18     10 
    16     16     35      8      7      5 
    17     17     45     17     16     18 
    18     18     40     11     10      7 
    19     19     25      3      4      5 
    20     20     28      4      3      2 
    21     21     35      8      7      9 
    22     22     34      8      7     10 
    23     23     29      5      7      8 
    24     24     11     10      7      9 
    25     25     39     10      7      5 
    26     26     17     16     13     14 
    27     27     19     18     10     11 
    28     28     38      9      7      5 
    29     29     23      2      1     21 
    30     30     31      6      5      7 
    31     31     47     17     16     18 
    32     32     24      2      1     20 
    33     33     39     10     11     12 
    34     34     50     19     18     16 
    35     35     26      3      2      1 
    36     36     23      2      3      4 
    37     37     27      4      3     25 
    38     38     39     10     18     19 
    39     39     18     10      7      5 
    40     40     48     18     10     11 
    41     41     29      5      7     10 
    42     42     47     17     16     44 
    43     43     44     16     13     15 
    44     44     43     12     11     40 
    45     45     42     12     11     41 
    46     46      9      7      5      6 
    47     47     37      9      7      8 
    48     48     24      2      1     22 
    49     49     31      6      5     29 
    50     50     18     10      7      8 
    51     51     11     10      7      8 
    52     52     10      7      5      6 
    53     53     33      8      7     10 
    54     54     37      9      7     10 
    55     55     45     17     16     44 
    56     56     48     18     10     39 
    57     57     46     17     16     18 
    58     58     44     16     18     19 
    59     59     16     18     10      7 
    60     60     51     19     18     48 
    61     61     17     16     18     10 
    62     62     34      8      7      9 
    63     63     50     19     18     48 
    64     64     22      1      2      3 
    65     65     40     11     12     13 
    66     66     43     12     11     10 
    67     67     48     18     16     17 
    68     68     46     17     16     13 
    69     69     40     11     10     39 
    70     70     44     16     18     10 
    71     71     25      3      2     23 
    72     72     26      3      4      5 
    73     73     28      4      5      7 
    74     74     43     12     11     41 
    75     75     18     16     13     14 
    76     76     17     16     13     15 
    77     77     35      8      7     10 
    78     78     36      9      7     10 
    79     79     38      9      7      8 
    80     80     27      4      5      6 
    81     81     41     11     10      7 
    82     82     38      9      7     10 
    83     83     49     19     18     16 
    84     84     29      5      7      9 
    85     85     16     13     12     11 
    86     86     34      8      7      5 
    87     87     13     16     18     10 
    88     88     42     12     11     40 
    89     89     37      9      7      5 
    90     90     24      2      3      4 
    91     91     48     18     16     13 
    92     92     28      4      3     25 
    93     93     27      4      3     26 
    94     94     27      4      5      7 
    95     95     28      4      5      6 
    96     96     51     19     18     10 
    97     97     19     18     16     17 
    98     98     30      6      5      7 
    99     99     36      9      7      8 
   100    100     18     10     11     12 
   101    101     44     16     13     14 
   102    102     49     19     18     48 
   103    103     24      2      1     21 
   104    104     42     12     13     14 
   105    105     40     11     10     18 
   106    106     27      4      3      2 
   107    107     32      6      5      4 
   108    108     18     16     13     12 
   109    109     47     17     16     13 
   110    110     41     11     10     18 
   111    111     46     17     16     44 
   112    112     18     10      7      9 
   113    113     21      1      2      3 
   114    114     26      3      2     24 
   115    115     32      6      5      7 
   116    116     42     12     11     10 
   117    117     29      5      4     28 
   118    118     48     18     10      7 
   119    119     23      2      1     22 
   120    120     29      5      4     27 
   121    121     32      6      5     29 
   122    122     33      8      7      9 
   123    123     42     12     13     15 
   124    124     43     12     13     14 
   125    125     43     12     13     16 
   126    126     39     10     18     16 
   127    127     43     12     13     15 
   128    128     39     10      7      8 
   129    129     42     12     13     16 
   130    130     19     18     16     13 
   131    131     25      3      2     24 
   132    132     16     18     10     11 
   133    133     15     13     12     11 
   134    134      9      7      5      4 
   135    135     50     19     18     10 
   136    136     29      5      4      3 
   137    137      8      7      5      6 
   138    138      7      5      4      3 
   139    139     10      7      5      4 
   140    140     23      2      1     20 
   141    141     26      3      2     23 
   142    142     25      3      2      1 
   143    143     19     18     10      7 
   144    144     51     19     18     16 
   145    145     28      4      3     26 
   146    146     44     16     13     12 
   147    147     31      6      5      4 
   148    148     41     11     10     39 
   149    149     18     16     13     15 
   150    150     39     10      7      9 
   151    151     48     18     16     44 
   152    152     41     11     12     13 
   153    153     30      6      5     29 

Impropers

     1      1      5      4      6      7 
     2      2      7      9      5      8 
     3      3      7     10      5      8 
     4      4     13     12     14     15 
     5      5     13     12     14     16 
     6      6     10     18     11      7 
     7      7     18     19     16     10 
     8      8      1      2     20     21 
     9      9      1      2     20     22 
    10     10      2      1      3     23 
    11     11      2      1      3     24 
    12     12      3     25      2      4 
    13     13      3     26      4      2 
    14     14      4     27      5      3 
    15     15      4      3     28      5 
    16     16      5      4     29      6 
    17     17      6      5     31     30 
    18     18      6     30      5     32 
    19     19      8     33     34      7 
    20     20      8     33     35      7 
    21     21      9     36     37      7 
    22     22      9     36     38      7 
    23     23     10     11      7     39 
    24     24     11     10     12     40 
    25     25     11     41     10     12 
    26     26     12     42     11     13 
    27     27     12     43     13     11 
    28     28     16     17     44     13 
    29     29     17     45     46     16 
    30     30     17     45     47     16 
    31     31     18     16     10     48 
    32     32     19     49     50     18 
    33     33     19     49     18     51 

