LAMMPS data file Created by LigParGen - (Written by Leela S. Dodda)

      37 atoms
      36 bonds
      69 angles
      93 dihedrals
      23 impropers
 
      37 atom types
      36 bond types
      69 angle types
      93 dihedral types
      23 improper types
 
   -8.163680    41.836320 xlo xhi
   -2.364660    47.635340 ylo yhi
   -1.025010    48.974990 zlo zhi

Masses

       1     12.011  
       2     12.011  
       3     12.011  
       4     12.011  
       5     12.011  
       6     12.011  
       7     12.011  
       8     12.011  
       9     12.011  
      10     12.011  
      11     12.011  
      12     12.011  
      13     15.999  
      14      1.008  
      15      1.008  
      16      1.008  
      17      1.008  
      18      1.008  
      19      1.008  
      20      1.008  
      21      1.008  
      22      1.008  
      23      1.008  
      24      1.008  
      25      1.008  
      26      1.008  
      27      1.008  
      28      1.008  
      29      1.008  
      30      1.008  
      31      1.008  
      32      1.008  
      33      1.008  
      34      1.008  
      35      1.008  
      36      1.008  
      37      1.008  

Pair Coeffs 

       1      0.066  3.5000000 
       2      0.066  3.5000000 
       3      0.066  3.5000000 
       4      0.066  3.5000000 
       5      0.066  3.5000000 
       6      0.066  3.5000000 
       7      0.066  3.5000000 
       8      0.066  3.5000000 
       9      0.066  3.5000000 
      10      0.066  3.5000000 
      11      0.070  3.5500000 
      12      0.066  3.5000000 
      13      0.210  2.9600000 
      14      0.030  2.5000000 
      15      0.030  2.5000000 
      16      0.030  2.5000000 
      17      0.030  2.5000000 
      18      0.030  2.5000000 
      19      0.030  2.5000000 
      20      0.030  2.5000000 
      21      0.030  2.5000000 
      22      0.030  2.5000000 
      23      0.030  2.5000000 
      24      0.030  2.5000000 
      25      0.030  2.5000000 
      26      0.030  2.5000000 
      27      0.030  2.5000000 
      28      0.030  2.5000000 
      29      0.030  2.5000000 
      30      0.030  2.5000000 
      31      0.030  2.5000000 
      32      0.030  2.5000000 
      33      0.030  2.5000000 
      34      0.030  2.5000000 
      35      0.030  2.5000000 
      36      0.030  2.5000000 
      37      0.030  2.5000000 

Bond Coeffs 

       1   268.0000     1.5290 
       2   268.0000     1.5290 
       3   268.0000     1.5290 
       4   268.0000     1.5290 
       5   268.0000     1.5290 
       6   268.0000     1.5290 
       7   268.0000     1.5290 
       8   268.0000     1.5290 
       9   268.0000     1.5290 
      10   317.0000     1.5220 
      11   317.0000     1.5220 
      12   570.0000     1.2290 
      13   340.0000     1.0900 
      14   340.0000     1.0900 
      15   340.0000     1.0900 
      16   340.0000     1.0900 
      17   340.0000     1.0900 
      18   340.0000     1.0900 
      19   340.0000     1.0900 
      20   340.0000     1.0900 
      21   340.0000     1.0900 
      22   340.0000     1.0900 
      23   340.0000     1.0900 
      24   340.0000     1.0900 
      25   340.0000     1.0900 
      26   340.0000     1.0900 
      27   340.0000     1.0900 
      28   340.0000     1.0900 
      29   340.0000     1.0900 
      30   340.0000     1.0900 
      31   340.0000     1.0900 
      32   340.0000     1.0900 
      33   340.0000     1.0900 
      34   340.0000     1.0900 
      35   340.0000     1.0900 
      36   340.0000     1.0900 

Angle Coeffs 

       1     58.350    112.700
       2     58.350    112.700
       3     58.350    112.700
       4     58.350    112.700
       5     58.350    112.700
       6     58.350    112.700
       7     58.350    112.700
       8     58.350    112.700
       9     63.000    111.100
      10     70.000    116.000
      11     80.000    120.400
      12     37.500    110.700
      13     37.500    110.700
      14     37.500    110.700
      15     37.500    110.700
      16     37.500    110.700
      17     37.500    110.700
      18     37.500    110.700
      19     37.500    110.700
      20     37.500    110.700
      21     37.500    110.700
      22     37.500    110.700
      23     37.500    110.700
      24     37.500    110.700
      25     37.500    110.700
      26     37.500    110.700
      27     37.500    110.700
      28     37.500    110.700
      29     37.500    110.700
      30     37.500    110.700
      31     37.500    110.700
      32     37.500    110.700
      33     35.000    109.500
      34     35.000    109.500
      35     35.000    109.500
      36     37.500    110.700
      37     37.500    110.700
      38     37.500    110.700
      39     37.500    110.700
      40     37.500    110.700
      41     37.500    110.700
      42     58.350    112.700
      43     33.000    107.800
      44     33.000    107.800
      45     33.000    107.800
      46     33.000    107.800
      47     33.000    107.800
      48     37.500    110.700
      49     33.000    107.800
      50     58.350    112.700
      51     33.000    107.800
      52     37.500    110.700
      53     33.000    107.800
      54     33.000    107.800
      55     33.000    107.800
      56     33.000    107.800
      57     33.000    107.800
      58     35.000    109.500
      59     80.000    120.400
      60     58.350    112.700
      61     33.000    107.800
      62     33.000    107.800
      63     33.000    107.800
      64     33.000    107.800
      65     37.500    110.700
      66     37.500    110.700
      67     33.000    107.800
      68     35.000    109.500
      69     33.000    107.800

Dihedral Coeffs  

       1      1.300     -0.200      0.200      0.000 
       2      1.300     -0.200      0.200      0.000 
       3      1.300     -0.200      0.200      0.000 
       4      1.300     -0.200      0.200      0.000 
       5      1.300     -0.200      0.200      0.000 
       6     -2.060     -0.313      0.315      0.000 
       7      1.454     -0.144     -0.775      0.000 
       8      0.000      0.000      0.300      0.000 
       9      0.000      0.000      0.300      0.000 
      10      0.000      0.000      0.300      0.000 
      11      0.000      0.000      0.275      0.000 
      12      0.000      0.000      0.000      0.000 
      13      0.000      0.000      0.000      0.000 
      14      0.000      0.000      0.300      0.000 
      15      0.000      0.000      0.300      0.000 
      16      0.000      0.000     -0.100      0.000 
      17      0.000      0.000      0.300      0.000 
      18      1.300     -0.200      0.200      0.000 
      19      0.000      0.000      0.300      0.000 
      20      0.000      0.000      0.000      0.000 
      21      0.000      0.000      0.275      0.000 
      22      0.000      0.000      0.300      0.000 
      23      0.000      0.000      0.300      0.000 
      24      0.000      0.000      0.300      0.000 
      25      0.000      0.000      0.300      0.000 
      26      0.000      0.000      0.300      0.000 
      27      0.000      0.000      0.300      0.000 
      28      0.000      0.000      0.300      0.000 
      29      0.000      0.000      0.300      0.000 
      30      0.000      0.000      0.300      0.000 
      31      0.000      0.000      0.300      0.000 
      32      0.000      0.000      0.300      0.000 
      33      0.000      0.000      0.300      0.000 
      34      0.000      0.000      0.300      0.000 
      35      0.000      0.000      0.300      0.000 
      36      0.000      0.000      0.300      0.000 
      37      0.000      0.000      0.000      0.000 
      38      0.000      0.000      0.300      0.000 
      39      0.000      0.000      0.300      0.000 
      40      0.000      0.000      0.300      0.000 
      41      0.000      0.000      0.300      0.000 
      42      0.000      0.000      0.300      0.000 
      43      0.000      0.000      0.300      0.000 
      44      0.000      0.000      0.300      0.000 
      45      0.000      0.000      0.300      0.000 
      46      0.000      0.000      0.000      0.000 
      47      0.000      0.000      0.300      0.000 
      48      0.000      0.000      0.300      0.000 
      49      1.300     -0.200      0.200      0.000 
      50      0.000      0.000      0.300      0.000 
      51      0.000      0.000      0.300      0.000 
      52      0.000      0.000      0.300      0.000 
      53      0.000      0.000      0.300      0.000 
      54      0.000      0.000      0.300      0.000 
      55      0.000      0.000      0.300      0.000 
      56      0.000      0.000      0.300      0.000 
      57      0.000      0.000      0.300      0.000 
      58      0.000      0.000     -0.100      0.000 
      59      0.000      0.000      0.300      0.000 
      60      0.000      0.000      0.300      0.000 
      61      0.000      0.000      0.300      0.000 
      62      0.000      0.000      0.275      0.000 
      63      1.300     -0.200      0.200      0.000 
      64      0.000      0.000      0.300      0.000 
      65      0.000      0.000      0.300      0.000 
      66      0.000      0.000      0.300      0.000 
      67      0.000      0.000      0.300      0.000 
      68      0.000      0.000      0.275      0.000 
      69      0.000      0.000      0.300      0.000 
      70      0.000      0.000      0.300      0.000 
      71      0.000      0.000      0.300      0.000 
      72      1.300     -0.200      0.200      0.000 
      73      0.000      0.000      0.300      0.000 
      74      1.300     -0.200      0.200      0.000 
      75      1.300     -0.200      0.200      0.000 
      76      0.000      0.000      0.300      0.000 
      77      0.000      0.000      0.300      0.000 
      78      0.000      0.000      0.300      0.000 
      79      0.000      0.000      0.300      0.000 
      80      0.000      0.000      0.300      0.000 
      81      0.000      0.000      0.300      0.000 
      82      0.000      0.000      0.300      0.000 
      83      0.000      0.000      0.000      0.000 
      84      0.000      0.000      0.300      0.000 
      85      0.000      0.000      0.275      0.000 
      86      0.000      0.000      0.300      0.000 
      87      0.000      0.000      0.300      0.000 
      88      0.000      0.000      0.300      0.000 
      89      0.000      0.000      0.300      0.000 
      90      0.000      0.000      0.300      0.000 
      91      0.000      0.000      0.300      0.000 
      92      0.000      0.000      0.300      0.000 
      93      0.000      0.000      0.300      0.000 

Improper Coeffs 

       1      0.000      -1       2 
       2      0.000      -1       2 
       3     10.500      -1       2 
       4      0.000      -1       2 
       5      0.000      -1       2 
       6      0.000      -1       2 
       7      0.000      -1       2 
       8      0.000      -1       2 
       9      0.000      -1       2 
      10      0.000      -1       2 
      11      0.000      -1       2 
      12      0.000      -1       2 
      13      0.000      -1       2 
      14      0.000      -1       2 
      15      0.000      -1       2 
      16      0.000      -1       2 
      17      0.000      -1       2 
      18      0.000      -1       2 
      19      0.000      -1       2 
      20      0.000      -1       2 
      21      0.000      -1       2 
      22      0.000      -1       2 
      23      0.000      -1       2 

Atoms 

     1      1      1 -0.23880000    1.000  1.00000  0.00000
     2      1      2 -0.18050000   -0.521  1.00000  0.00000
     3      1      3 -0.17890000   -1.061  1.00000  1.43138
     4      1      4 -0.16640000   -2.594  0.93453  1.46154
     5      1      5 -0.04020000   -3.240  0.92805  2.88328
     6      1      6 -0.23470000   -2.731 -0.29377  3.68378
     7      1      7 -0.16760000   -2.845  2.19517  3.70524
     8      1      8 -0.23860000   -3.333  3.53314  3.16339
     9      1      9 -0.16180000   -4.795  0.84885  2.75513
    10      1     10 -0.23310000   -5.336 -0.40649  2.05461
    11      1     11 0.35980000   -6.852 -0.43433  1.95809
    12      1     12 -0.30390000   -7.454 -1.63770  1.28009
    13      1     13 -0.45110000   -7.566  0.46380  2.39999
    14      1     14 0.08110000    1.382  1.00130 -1.02501
    15      1     15 0.08110000    1.388  0.11016  0.50716
    16      1     16 0.08110000    1.391  1.88475  0.51267
    17      1     17 0.08780000   -0.880  0.11617 -0.53845
    18      1     18 0.08780000   -0.885  1.88452 -0.53603
    19      1     19 0.09120000   -0.707  1.90211  1.93978
    20      1     20 0.09120000   -0.642  0.13462  1.95533
    21      1     21 0.08640000   -2.885  0.02265  0.92731
    22      1     22 0.08640000   -2.999  1.76886  0.87591
    23      1     23 0.08140000   -1.659 -0.21909  3.89782
    24      1     24 0.08140000   -2.888 -1.23137  3.14215
    25      1     25 0.08140000   -3.242 -0.36814  4.65031
    26      1     26 0.08750000   -1.754  2.24306  3.80524
    27      1     27 0.08750000   -3.225  2.09432  4.73072
    28      1     28 0.08260000   -3.171  3.63491  2.08809
    29      1     29 0.08260000   -2.795  4.34941  3.65727
    30      1     30 0.08260000   -4.399  3.67246  3.37128
    31      1     31 0.10490000   -5.164  1.72774  2.20995
    32      1     32 0.10490000   -5.240  0.90756  3.75826
    33      1     33 0.11910000   -5.039 -1.30764  2.59957
    34      1     34 0.11910000   -4.960 -0.46657  1.02993
    35      1     35 0.11550000   -6.677 -2.36466  1.02203
    36      1     36 0.11550000   -7.957 -1.32242  0.36229
    37      1     37 0.11550000   -8.164 -2.11847  1.95727

Bonds 

     1      1      2      1
     2      2      3      2
     3      3      4      3
     4      4      5      4
     5      5      6      5
     6      6      7      5
     7      7      8      7
     8      8      9      5
     9      9     10      9
    10     10     11     10
    11     11     12     11
    12     12     13     11
    13     13     14      1
    14     14     15      1
    15     15     16      1
    16     16     17      2
    17     17     18      2
    18     18     19      3
    19     19     20      3
    20     20     21      4
    21     21     22      4
    22     22     23      6
    23     23     24      6
    24     24     25      6
    25     25     26      7
    26     26     27      7
    27     27     28      8
    28     28     29      8
    29     29     30      8
    30     30     31      9
    31     31     32      9
    32     32     33     10
    33     33     34     10
    34     34     35     12
    35     35     36     12
    36     36     37     12

Angles 

     1      1      1      2      3
     2      2      2      3      4
     3      3      3      4      5
     4      4      4      5      6
     5      5      4      5      7
     6      6      5      7      8
     7      7      4      5      9
     8      8      5      9     10
     9      9      9     10     11
    10     10     10     11     12
    11     11     10     11     13
    12     12      2      1     14
    13     13      2      1     15
    14     14      2      1     16
    15     15      1      2     17
    16     16      1      2     18
    17     17      2      3     19
    18     18      2      3     20
    19     19      3      4     21
    20     20      3      4     22
    21     21      5      6     23
    22     22      5      6     24
    23     23      5      6     25
    24     24      5      7     26
    25     25      5      7     27
    26     26      7      8     28
    27     27      7      8     29
    28     28      7      8     30
    29     29      5      9     31
    30     30      5      9     32
    31     31      9     10     33
    32     32      9     10     34
    33     33     11     12     35
    34     34     11     12     36
    35     35     11     12     37
    36     36     10      9     32
    37     37      8      7     26
    38     38      3      2     18
    39     39      3      2     17
    40     40      4      3     19
    41     41      8      7     27
    42     42      7      5      9
    43     43     21      4     22
    44     44     33     10     34
    45     45     15      1     16
    46     46     28      8     30
    47     47     36     12     37
    48     48      5      4     22
    49     49     35     12     37
    50     50      6      5      7
    51     51     14      1     15
    52     52     10      9     31
    53     53     29      8     30
    54     54     35     12     36
    55     55     17      2     18
    56     56     26      7     27
    57     57     24      6     25
    58     58     11     10     34
    59     59     12     11     13
    60     60      6      5      9
    61     61     19      3     20
    62     62     31      9     32
    63     63     28      8     29
    64     64     14      1     16
    65     65      5      4     21
    66     66      4      3     20
    67     67     23      6     24
    68     68     11     10     33
    69     69     23      6     25

Dihedrals

     1      1      4      3      2      1 
     2      2      5      4      3      2 
     3      3      6      5      4      3 
     4      4      8      7      5      4 
     5      5     10      9      5      4 
     6      6     11     10      9      5 
     7      7     12     11     10      9 
     8      8     14      1      2      3 
     9      9     23      6      5      4 
    10     10     28      8      7      5 
    11     11     35     12     11     10 
    12     12     34     10     11     13 
    13     13     36     12     11     13 
    14     14     32      9      5      4 
    15     15     27      7      5      4 
    16     16     32      9     10     11 
    17     17     34     10      9     31 
    18     18      9      5      4      3 
    19     19     19      3      2     18 
    20     20     33     10     11     13 
    21     21     34     10     11     12 
    22     22     25      6      5      7 
    23     23     26      7      5      6 
    24     24     34     10      9     32 
    25     25     23      6      5      7 
    26     26     30      8      7     26 
    27     27     17      2      1     16 
    28     28     18      2      1     15 
    29     29     17      2      3      4 
    30     30     30      8      7     27 
    31     31     26      7      5      9 
    32     32     19      3      2      1 
    33     33     26      7      5      4 
    34     34     22      4      5      9 
    35     35     28      8      7     26 
    36     36     22      4      5      7 
    37     37     13     11     10      9 
    38     38     31      9      5      6 
    39     39     20      3      2      1 
    40     40     21      4      3     19 
    41     41     20      3      2     18 
    42     42     22      4      3     20 
    43     43     18      2      1     14 
    44     44     17      2      1     15 
    45     45     15      1      2      3 
    46     46     37     12     11     13 
    47     47     29      8      7     27 
    48     48     33     10      9      5 
    49     49     10      9      5      6 
    50     50     30      8      7      5 
    51     51     22      4      3      2 
    52     52     28      8      7     27 
    53     53     29      8      7     26 
    54     54     25      6      5      9 
    55     55     20      3      4      5 
    56     56     24      6      5      7 
    57     57     21      4      3      2 
    58     58     31      9     10     11 
    59     59     32      9      5      7 
    60     60     24      6      5      4 
    61     61     33     10      9     32 
    62     62     37     12     11     10 
    63     63      9      5      7      8 
    64     64     21      4      5      9 
    65     65     25      6      5      4 
    66     66     27      7      5      6 
    67     67     23      6      5      9 
    68     68     33     10     11     12 
    69     69     21      4      3     20 
    70     70     22      4      3     19 
    71     71     27      7      5      9 
    72     72      8      7      5      6 
    73     73     20      3      2     17 
    74     74      7      5      4      3 
    75     75     10      9      5      7 
    76     76     19      3      2     17 
    77     77     31      9      5      7 
    78     78     32      9      5      6 
    79     79     34     10      9      5 
    80     80     21      4      5      6 
    81     81     19      3      4      5 
    82     82     18      2      3      4 
    83     83     35     12     11     13 
    84     84     22      4      5      6 
    85     85     36     12     11     10 
    86     86     21      4      5      7 
    87     87     33     10      9     31 
    88     88     16      1      2      3 
    89     89     17      2      1     14 
    90     90     24      6      5      9 
    91     91     29      8      7      5 
    92     92     18      2      1     16 
    93     93     31      9      5      4 

Impropers

     1      1      5      4      6      7 
     2      2      5      9      4      6 
     3      3     11     10     12     13 
     4      4      1      2     14     15 
     5      5      1      2     14     16 
     6      6      2     17      3      1 
     7      7      2      1     18      3 
     8      8      3      2     19      4 
     9      9      3      4      2     20 
    10     10      4      5      3     21 
    11     11      4      3      5     22 
    12     12      6      5     23     24 
    13     13      6     25      5     23 
    14     14      7     26      5      8 
    15     15      7     27      5      8 
    16     16      8     28     29      7 
    17     17      8     28     30      7 
    18     18      9     10      5     31 
    19     19      9     10      5     32 
    20     20     10     33     11      9 
    21     21     10      9     34     11 
    22     22     12     11     36     35 
    23     23     12     11     37     35 

