LAMMPS data file Created by LigParGen - (Written by Leela S. Dodda)

      41 atoms
      41 bonds
      81 angles
     120 dihedrals
      27 impropers
 
      41 atom types
      41 bond types
      81 angle types
     120 dihedral types
      27 improper types
 
   -8.884470    41.115530 xlo xhi
   -1.976990    48.023010 ylo yhi
   -6.147630    43.852370 zlo zhi

Masses

       1     12.011  
       2     12.011  
       3     15.999  
       4     12.011  
       5     12.011  
       6     12.011  
       7     12.011  
       8     12.011  
       9     12.011  
      10     12.011  
      11     12.011  
      12     12.011  
      13     12.011  
      14     12.011  
      15     12.011  
      16      1.008  
      17      1.008  
      18      1.008  
      19      1.008  
      20      1.008  
      21      1.008  
      22      1.008  
      23      1.008  
      24      1.008  
      25      1.008  
      26      1.008  
      27      1.008  
      28      1.008  
      29      1.008  
      30      1.008  
      31      1.008  
      32      1.008  
      33      1.008  
      34      1.008  
      35      1.008  
      36      1.008  
      37      1.008  
      38      1.008  
      39      1.008  
      40      1.008  
      41      1.008  

Pair Coeffs 

       1      0.066  3.5000000 
       2      0.070  3.5500000 
       3      0.210  2.9600000 
       4      0.066  3.5000000 
       5      0.066  3.5000000 
       6      0.066  3.5000000 
       7      0.066  3.5000000 
       8      0.066  3.5000000 
       9      0.066  3.5000000 
      10      0.066  3.5000000 
      11      0.066  3.5000000 
      12      0.066  3.5000000 
      13      0.066  3.5000000 
      14      0.066  3.5000000 
      15      0.066  3.5000000 
      16      0.030  2.5000000 
      17      0.030  2.5000000 
      18      0.030  2.5000000 
      19      0.030  2.5000000 
      20      0.030  2.5000000 
      21      0.030  2.5000000 
      22      0.030  2.5000000 
      23      0.030  2.5000000 
      24      0.030  2.5000000 
      25      0.030  2.5000000 
      26      0.030  2.5000000 
      27      0.030  2.5000000 
      28      0.030  2.5000000 
      29      0.030  2.5000000 
      30      0.030  2.5000000 
      31      0.030  2.5000000 
      32      0.030  2.5000000 
      33      0.030  2.5000000 
      34      0.030  2.5000000 
      35      0.030  2.5000000 
      36      0.030  2.5000000 
      37      0.030  2.5000000 
      38      0.030  2.5000000 
      39      0.030  2.5000000 
      40      0.030  2.5000000 
      41      0.030  2.5000000 

Bond Coeffs 

       1   317.0000     1.5220 
       2   570.0000     1.2290 
       3   317.0000     1.5220 
       4   268.0000     1.5290 
       5   268.0000     1.5290 
       6   268.0000     1.5290 
       7   268.0000     1.5290 
       8   268.0000     1.5290 
       9   268.0000     1.5290 
      10   268.0000     1.5290 
      11   268.0000     1.5290 
      12   268.0000     1.5290 
      13   268.0000     1.5290 
      14   268.0000     1.5290 
      15   340.0000     1.0900 
      16   340.0000     1.0900 
      17   340.0000     1.0900 
      18   340.0000     1.0900 
      19   340.0000     1.0900 
      20   340.0000     1.0900 
      21   340.0000     1.0900 
      22   340.0000     1.0900 
      23   340.0000     1.0900 
      24   340.0000     1.0900 
      25   340.0000     1.0900 
      26   340.0000     1.0900 
      27   340.0000     1.0900 
      28   340.0000     1.0900 
      29   340.0000     1.0900 
      30   340.0000     1.0900 
      31   340.0000     1.0900 
      32   340.0000     1.0900 
      33   340.0000     1.0900 
      34   340.0000     1.0900 
      35   340.0000     1.0900 
      36   340.0000     1.0900 
      37   340.0000     1.0900 
      38   340.0000     1.0900 
      39   340.0000     1.0900 
      40   340.0000     1.0900 
      41   268.0000     1.5290 

Angle Coeffs 

       1     80.000    120.400
       2     70.000    116.000
       3     63.000    111.100
       4     58.350    112.700
       5     58.350    112.700
       6     58.350    112.700
       7     58.350    112.700
       8     58.350    112.700
       9     58.350    112.700
      10     58.350    112.700
      11     58.350    112.700
      12     58.350    112.700
      13     58.350    112.700
      14     35.000    109.500
      15     35.000    109.500
      16     35.000    109.500
      17     35.000    109.500
      18     35.000    109.500
      19     37.500    110.700
      20     37.500    110.700
      21     37.500    110.700
      22     37.500    110.700
      23     37.500    110.700
      24     37.500    110.700
      25     37.500    110.700
      26     37.500    110.700
      27     37.500    110.700
      28     37.500    110.700
      29     37.500    110.700
      30     37.500    110.700
      31     37.500    110.700
      32     37.500    110.700
      33     37.500    110.700
      34     37.500    110.700
      35     37.500    110.700
      36     37.500    110.700
      37     37.500    110.700
      38     37.500    110.700
      39     37.500    110.700
      40     33.000    107.800
      41     58.350    112.700
      42     33.000    107.800
      43     37.500    110.700
      44     37.500    110.700
      45     37.500    110.700
      46     33.000    107.800
      47     37.500    110.700
      48     33.000    107.800
      49     37.500    110.700
      50     37.500    110.700
      51     33.000    107.800
      52     37.500    110.700
      53     33.000    107.800
      54     37.500    110.700
      55     37.500    110.700
      56     33.000    107.800
      57     33.000    107.800
      58     33.000    107.800
      59     58.350    112.700
      60     58.350    112.700
      61     33.000    107.800
      62     33.000    107.800
      63     58.350    112.700
      64     37.500    110.700
      65     80.000    120.400
      66     37.500    110.700
      67     33.000    107.800
      68     33.000    107.800
      69     37.500    110.700
      70     33.000    107.800
      71     37.500    110.700
      72     37.500    110.700
      73     33.000    107.800
      74     37.500    110.700
      75     37.500    110.700
      76     58.350    112.700
      77     37.500    110.700
      78     33.000    107.800
      79     58.350    112.700
      80     37.500    110.700
      81     33.000    107.800

Dihedral Coeffs  

       1      1.454     -0.144     -0.775      0.000 
       2     -2.060     -0.313      0.315      0.000 
       3      1.300     -0.200      0.200      0.000 
       4      1.300     -0.200      0.200      0.000 
       5      1.300     -0.200      0.200      0.000 
       6      1.300     -0.200      0.200      0.000 
       7      1.300     -0.200      0.200      0.000 
       8      1.300     -0.200      0.200      0.000 
       9      0.000      0.000      0.000      0.000 
      10      0.000      0.000      0.300      0.000 
      11      0.000      0.000      0.300      0.000 
      12      0.000      0.000      0.300      0.000 
      13      0.000      0.000      0.300      0.000 
      14      0.000      0.000      0.300      0.000 
      15      0.000      0.000      0.300      0.000 
      16      0.000      0.000      0.300      0.000 
      17      0.000      0.000      0.300      0.000 
      18      0.000      0.000      0.300      0.000 
      19      0.000      0.000      0.300      0.000 
      20      0.000      0.000      0.300      0.000 
      21      1.300     -0.200      0.200      0.000 
      22      0.000      0.000      0.275      0.000 
      23      0.000      0.000      0.300      0.000 
      24      1.300     -0.200      0.200      0.000 
      25      0.000      0.000      0.275      0.000 
      26      0.000      0.000      0.300      0.000 
      27      0.000      0.000      0.300      0.000 
      28      0.000      0.000      0.300      0.000 
      29      0.000      0.000      0.300      0.000 
      30      0.000      0.000      0.300      0.000 
      31      0.000      0.000     -0.100      0.000 
      32      0.000      0.000      0.300      0.000 
      33      0.000      0.000      0.300      0.000 
      34      1.300     -0.200      0.200      0.000 
      35      0.000      0.000      0.300      0.000 
      36      0.000      0.000      0.300      0.000 
      37      0.000      0.000      0.300      0.000 
      38      0.000      0.000      0.300      0.000 
      39      0.000      0.000      0.275      0.000 
      40      1.300     -0.200      0.200      0.000 
      41      0.000      0.000      0.300      0.000 
      42      0.000      0.000      0.300      0.000 
      43      0.000      0.000      0.300      0.000 
      44      0.000      0.000      0.300      0.000 
      45      1.300     -0.200      0.200      0.000 
      46      0.000      0.000      0.000      0.000 
      47      0.000      0.000      0.300      0.000 
      48      0.000      0.000      0.300      0.000 
      49      0.000      0.000      0.300      0.000 
      50      0.000      0.000      0.300      0.000 
      51      0.000      0.000      0.300      0.000 
      52      0.000      0.000      0.300      0.000 
      53      0.000      0.000      0.300      0.000 
      54      0.000      0.000      0.300      0.000 
      55      0.000      0.000      0.300      0.000 
      56      0.000      0.000      0.300      0.000 
      57      0.000      0.000      0.300      0.000 
      58      0.000      0.000      0.300      0.000 
      59      0.000      0.000      0.300      0.000 
      60      0.000      0.000      0.300      0.000 
      61      1.300     -0.200      0.200      0.000 
      62      0.000      0.000      0.300      0.000 
      63      0.000      0.000      0.300      0.000 
      64      0.000      0.000      0.000      0.000 
      65      0.000      0.000      0.300      0.000 
      66      0.000      0.000      0.300      0.000 
      67      0.000      0.000      0.000      0.000 
      68      0.000      0.000      0.300      0.000 
      69      0.000      0.000      0.300      0.000 
      70      0.000      0.000      0.300      0.000 
      71      0.000      0.000      0.300      0.000 
      72      0.000      0.000      0.300      0.000 
      73      0.000      0.000      0.300      0.000 
      74      0.000      0.000      0.300      0.000 
      75      0.000      0.000      0.300      0.000 
      76      0.000      0.000      0.300      0.000 
      77      0.000      0.000      0.300      0.000 
      78      0.000      0.000      0.300      0.000 
      79      0.000      0.000      0.300      0.000 
      80      0.000      0.000      0.300      0.000 
      81      0.000      0.000      0.300      0.000 
      82      1.300     -0.200      0.200      0.000 
      83      0.000      0.000      0.300      0.000 
      84      0.000      0.000      0.300      0.000 
      85      0.000      0.000      0.000      0.000 
      86      0.000      0.000      0.300      0.000 
      87      1.300     -0.200      0.200      0.000 
      88      0.000      0.000      0.300      0.000 
      89      0.000      0.000      0.300      0.000 
      90      0.000      0.000      0.300      0.000 
      91      1.300     -0.200      0.200      0.000 
      92      0.000      0.000      0.300      0.000 
      93      0.000      0.000      0.275      0.000 
      94      0.000      0.000      0.300      0.000 
      95      0.000      0.000      0.300      0.000 
      96      0.000      0.000      0.300      0.000 
      97      0.000      0.000      0.300      0.000 
      98      1.300     -0.200      0.200      0.000 
      99      0.000      0.000      0.300      0.000 
     100      0.000      0.000      0.300      0.000 
     101      0.000      0.000      0.300      0.000 
     102      0.000      0.000      0.300      0.000 
     103      0.000      0.000      0.300      0.000 
     104      0.000      0.000      0.300      0.000 
     105      0.000      0.000      0.300      0.000 
     106      0.000      0.000      0.300      0.000 
     107      0.000      0.000     -0.100      0.000 
     108      0.000      0.000      0.300      0.000 
     109      1.300     -0.200      0.200      0.000 
     110      0.000      0.000      0.300      0.000 
     111      0.000      0.000      0.300      0.000 
     112      0.000      0.000      0.275      0.000 
     113      0.000      0.000      0.300      0.000 
     114      0.000      0.000      0.000      0.000 
     115      0.000      0.000      0.300      0.000 
     116      0.000      0.000      0.300      0.000 
     117      0.000      0.000      0.300      0.000 
     118      0.000      0.000      0.300      0.000 
     119      1.300     -0.200      0.200      0.000 
     120      0.000      0.000      0.300      0.000 

Improper Coeffs 

       1     10.500      -1       2 
       2      0.000      -1       2 
       3      0.000      -1       2 
       4      0.000      -1       2 
       5      0.000      -1       2 
       6      0.000      -1       2 
       7      0.000      -1       2 
       8      0.000      -1       2 
       9      0.000      -1       2 
      10      0.000      -1       2 
      11      0.000      -1       2 
      12      0.000      -1       2 
      13      0.000      -1       2 
      14      0.000      -1       2 
      15      0.000      -1       2 
      16      0.000      -1       2 
      17      0.000      -1       2 
      18      0.000      -1       2 
      19      0.000      -1       2 
      20      0.000      -1       2 
      21      0.000      -1       2 
      22      0.000      -1       2 
      23      0.000      -1       2 
      24      0.000      -1       2 
      25      0.000      -1       2 
      26      0.000      -1       2 
      27      0.000      -1       2 

Atoms 

     1      1      1 -0.30470000    1.000  1.00000  0.00000
     2      1      2 0.35840000   -0.509  1.00000  0.00000
     3      1      3 -0.44740000   -1.140  1.00000  1.05753
     4      1      4 -0.23490000   -1.180  0.99828 -1.36408
     5      1      5 -0.17340000   -2.704  1.00021 -1.25203
     6      1      6 -0.17080000   -3.380  0.99665 -2.63467
     7      1      7 -0.02720000   -4.951  0.99650 -2.63631
     8      1      8 -0.22940000   -5.438 -0.24123 -1.86429
     9      1      9 -0.23610000   -5.444  2.24585 -1.86083
    10      1     10 -0.09020000   -5.470  1.08288 -4.14113
    11      1     11 -0.16520000   -5.035 -0.05003 -5.09766
    12      1     12 -0.17070000   -5.880 -1.31891 -5.02710
    13      1     13 -0.17020000   -7.381 -1.05804 -5.10624
    14      1     14 -0.17130000   -7.859  0.09324 -4.23157
    15      1     15 -0.16420000   -6.982  1.32912 -4.35699
    16      1     16 0.11640000    1.365  1.00000  1.02962
    17      1     17 0.11640000    1.359  1.89948 -0.50597
    18      1     18 0.11640000    1.363  0.10259 -0.50752
    19      1     19 0.11770000   -0.845  0.10481 -1.90135
    20      1     20 0.11770000   -0.843  1.88687 -1.90824
    21      1     21 0.10640000   -3.010  1.88081 -0.67832
    22      1     22 0.10640000   -3.006  0.11735 -0.67799
    23      1     23 0.08430000   -3.016  0.10971 -3.16579
    24      1     24 0.08430000   -3.022  1.86871 -3.19746
    25      1     25 0.08270000   -5.124 -0.20924 -0.81554
    26      1     26 0.08270000   -5.032 -1.16439 -2.28077
    27      1     27 0.08270000   -6.523 -0.30943 -1.82541
    28      1     28 0.08260000   -5.106  2.24425 -0.82070
    29      1     29 0.08260000   -6.536  2.29198 -1.81267
    30      1     30 0.08260000   -5.081  3.16662 -2.33090
    31      1     31 0.08330000   -4.981  1.98886 -4.53552
    32      1     32 0.08440000   -3.979 -0.30302 -4.97720
    33      1     33 0.08440000   -5.118  0.33827 -6.12361
    34      1     34 0.08530000   -5.653 -1.87872 -4.11782
    35      1     35 0.08530000   -5.596 -1.97699 -5.85743
    36      1     36 0.08410000   -7.920 -1.97166 -4.82993
    37      1     37 0.08410000   -7.647 -0.84129 -6.14763
    38      1     38 0.08610000   -7.929 -0.23140 -3.19294
    39      1     39 0.08610000   -8.884  0.35381 -4.51954
    40      1     40 0.08630000   -7.363  2.12545 -3.71339
    41      1     41 0.08630000   -7.109  1.71186 -5.38049

Bonds 

     1      1      2      1
     2      2      3      2
     3      3      4      2
     4      4      5      4
     5      5      6      5
     6      6      7      6
     7      7      8      7
     8      8      9      7
     9      9     10      7
    10     10     11     10
    11     11     12     11
    12     12     13     12
    13     13     14     13
    14     14     15     10
    15     15     16      1
    16     16     17      1
    17     17     18      1
    18     18     19      4
    19     19     20      4
    20     20     21      5
    21     21     22      5
    22     22     23      6
    23     23     24      6
    24     24     25      8
    25     25     26      8
    26     26     27      8
    27     27     28      9
    28     28     29      9
    29     29     30      9
    30     30     31     10
    31     31     32     11
    32     32     33     11
    33     33     34     12
    34     34     35     12
    35     35     36     13
    36     36     37     13
    37     37     38     14
    38     38     39     14
    39     39     40     15
    40     40     41     15
    41     41     15     14

Angles 

     1      1      1      2      3
     2      2      1      2      4
     3      3      2      4      5
     4      4      4      5      6
     5      5      5      6      7
     6      6      6      7      8
     7      7      6      7      9
     8      8      6      7     10
     9      9      7     10     11
    10     10     10     11     12
    11     11     11     12     13
    12     12     12     13     14
    13     13      7     10     15
    14     14      2      1     16
    15     15      2      1     17
    16     16      2      1     18
    17     17      2      4     19
    18     18      2      4     20
    19     19      4      5     21
    20     20      4      5     22
    21     21      5      6     23
    22     22      5      6     24
    23     23      7      8     25
    24     24      7      8     26
    25     25      7      8     27
    26     26      7      9     28
    27     27      7      9     29
    28     28      7      9     30
    29     29      7     10     31
    30     30     10     11     32
    31     31     10     11     33
    32     32     11     12     34
    33     33     11     12     35
    34     34     12     13     36
    35     35     12     13     37
    36     36     13     14     38
    37     37     13     14     39
    38     38     10     15     40
    39     39     10     15     41
    40     40     25      8     27
    41     41      9      7     10
    42     42     29      9     30
    43     43      7      6     24
    44     44     12     11     32
    45     45     15     10     31
    46     46     26      8     27
    47     47     14     13     37
    48     48     16      1     18
    49     49     12     11     33
    50     50      6      5     22
    51     51     21      5     22
    52     52     14     15     40
    53     53     16      1     17
    54     54     14     15     41
    55     55      7      6     23
    56     56     19      4     20
    57     57     25      8     26
    58     58     17      1     18
    59     59     11     10     15
    60     60     13     14     15
    61     61     28      9     30
    62     62     40     15     41
    63     63     10     15     14
    64     64     13     12     34
    65     65      3      2      4
    66     66      5      4     19
    67     67     34     12     35
    68     68     32     11     33
    69     69     11     10     31
    70     70     23      6     24
    71     71      6      5     21
    72     72      5      4     20
    73     73     38     14     39
    74     74     13     12     35
    75     75     14     13     36
    76     76      8      7     10
    77     77     15     14     38
    78     78     36     13     37
    79     79      8      7      9
    80     80     15     14     39
    81     81     28      9     29

Dihedrals

     1      1      5      4      2      1 
     2      2      6      5      4      2 
     3      3      7      6      5      4 
     4      4      8      7      6      5 
     5      5     11     10      7      6 
     6      6     12     11     10      7 
     7      7     13     12     11     10 
     8      8     14     13     12     11 
     9      9     16      1      2      3 
    10     10     25      8      7      6 
    11     11     28      9      7      6 
    12     12     23      6      7      8 
    13     13     32     11     10     15 
    14     14     37     13     12     35 
    15     15     23      6      5      4 
    16     16     32     11     12     13 
    17     17     39     14     15     10 
    18     18     24      6      5     22 
    19     19     27      8      7     10 
    20     20     29      9      7      8 
    21     21     11     10      7      9 
    22     22     19      4      2      1 
    23     23     31     10      7      8 
    24     24      9      7      6      5 
    25     25     18      1      2      4 
    26     26     40     15     14     13 
    27     27     41     15     10      7 
    28     28     31     10     11     12 
    29     29     32     11     10      7 
    30     30     35     12     11     10 
    31     31     22      5      4      2 
    32     32     24      6      7      9 
    33     33     23      6      7     10 
    34     34     15     10      7      8 
    35     35     36     13     12     11 
    36     36     30      9      7     10 
    37     37     24      6      7     10 
    38     38     35     12     11     33 
    39     39     20      4      2      1 
    40     40     11     10      7      8 
    41     41     40     15     10      7 
    42     42     27      8      7      9 
    43     43     28      9      7      8 
    44     44     30      9      7      6 
    45     45     13     14     15     10 
    46     46      5      4      2      3 
    47     47     21      5      4     20 
    48     48     22      5      4     19 
    49     49     35     12     11     32 
    50     50     34     12     11     33 
    51     51     37     13     12     34 
    52     52     36     13     12     35 
    53     53     34     12     11     32 
    54     54     33     11     10     15 
    55     55     41     15     14     38 
    56     56     40     15     14     39 
    57     57     28      9      7     10 
    58     58     27      8      7      6 
    59     59     19      4      5      6 
    60     60     36     13     12     34 
    61     61     15     10     11     12 
    62     62     34     12     13     14 
    63     63     37     13     12     11 
    64     64     17      1      2      3 
    65     65     21      5      6      7 
    66     66     40     15     10     11 
    67     67     20      4      2      3 
    68     68     30      9      7      8 
    69     69     31     10      7      9 
    70     70     38     14     13     36 
    71     71     34     12     11     10 
    72     72     20      4      5      6 
    73     73     35     12     13     14 
    74     74     41     15     14     39 
    75     75     26      8      7     10 
    76     76     24      6      5      4 
    77     77     41     15     14     13 
    78     78     31     10     15     14 
    79     79     22      5      6      7 
    80     80     33     11     10      7 
    81     81     29      9      7      6 
    82     82     10      7      6      5 
    83     83     33     11     10     31 
    84     84     39     14     13     12 
    85     85     19      4      2      3 
    86     86     36     13     14     15 
    87     87     15     10      7      9 
    88     88     41     15     10     31 
    89     89     41     15     10     11 
    90     90     38     14     13     37 
    91     91     15     14     13     12 
    92     92     40     15     14     38 
    93     93     16      1      2      4 
    94     94     23      6      7      9 
    95     95     24      6      7      8 
    96     96     21      5      4     19 
    97     97     31     10      7      6 
    98     98     15     10      7      6 
    99     99     39     14     13     36 
   100    100     26      8      7      6 
   101    101     22      5      4     20 
   102    102     29      9      7     10 
   103    103     37     13     14     15 
   104    104     24      6      5     21 
   105    105     38     14     13     12 
   106    106     26      8      7      9 
   107    107     21      5      4      2 
   108    108     25      8      7     10 
   109    109     14     15     10      7 
   110    110     39     14     13     37 
   111    111     40     15     10     31 
   112    112     17      1      2      4 
   113    113     38     14     15     10 
   114    114     18      1      2      3 
   115    115     23      6      5     22 
   116    116     23      6      5     21 
   117    117     33     11     12     13 
   118    118     25      8      7      9 
   119    119     14     15     10     11 
   120    120     32     11     10     31 

Impropers

     1      1      2      1      3      4 
     2      2      7      9      6      8 
     3      3      7     10      6      8 
     4      4     10     11      7     15 
     5      5      1     17     16      2 
     6      6      1     18     16      2 
     7      7      4      2     19      5 
     8      8      4      2     20      5 
     9      9      5      4     21      6 
    10     10      5      4     22      6 
    11     11      6      7      5     23 
    12     12      6      5      7     24 
    13     13      8     25     26      7 
    14     14      8     25     27      7 
    15     15      9     28     29      7 
    16     16      9     28     30      7 
    17     17     10     11      7     31 
    18     18     11     10     12     32 
    19     19     11     33     10     12 
    20     20     12     34     11     13 
    21     21     12     35     13     11 
    22     22     13     12     36     14 
    23     23     13     12     37     14 
    24     24     14     13     38     15 
    25     25     14     15     13     39 
    26     26     15     10     14     40 
    27     27     15     41     10     14 

