LAMMPS data file Created by LigParGen - (Written by Leela S. Dodda)

      28 atoms
      28 bonds
      55 angles
      84 dihedrals
      18 impropers
 
      28 atom types
      28 bond types
      55 angle types
      84 dihedral types
      18 improper types
 
   -3.115310    46.884690 xlo xhi
    0.049690    50.049690 ylo yhi
   -3.995220    46.004780 zlo zhi

Masses

       1     12.011  
       2     12.011  
       3     12.011  
       4     12.011  
       5     12.011  
       6     12.011  
       7     12.011  
       8     12.011  
       9     12.011  
      10     12.011  
      11     14.007  
      12      1.008  
      13      1.008  
      14      1.008  
      15      1.008  
      16      1.008  
      17      1.008  
      18      1.008  
      19      1.008  
      20      1.008  
      21      1.008  
      22      1.008  
      23      1.008  
      24      1.008  
      25      1.008  
      26      1.008  
      27      1.008  
      28      1.008  

Pair Coeffs 

       1      0.066  3.5000000 
       2      0.066  3.5000000 
       3      0.066  3.5000000 
       4      0.066  3.5000000 
       5      0.066  3.5000000 
       6      0.066  3.5000000 
       7      0.066  3.5000000 
       8      0.066  3.5000000 
       9      0.066  3.5000000 
      10      0.066  3.3000000 
      11      0.170  3.2000000 
      12      0.030  2.5000000 
      13      0.030  2.5000000 
      14      0.030  2.5000000 
      15      0.030  2.5000000 
      16      0.030  2.5000000 
      17      0.030  2.5000000 
      18      0.030  2.5000000 
      19      0.030  2.5000000 
      20      0.030  2.5000000 
      21      0.030  2.5000000 
      22      0.030  2.5000000 
      23      0.030  2.5000000 
      24      0.030  2.5000000 
      25      0.030  2.5000000 
      26      0.030  2.5000000 
      27      0.030  2.5000000 
      28      0.030  2.5000000 

Bond Coeffs 

       1   268.0000     1.5290 
       2   268.0000     1.5290 
       3   268.0000     1.5290 
       4   268.0000     1.5290 
       5   268.0000     1.5290 
       6   268.0000     1.5290 
       7   268.0000     1.5290 
       8   268.0000     1.5290 
       9   390.0000     1.4700 
      10   650.0000     1.1570 
      11   340.0000     1.0900 
      12   340.0000     1.0900 
      13   340.0000     1.0900 
      14   340.0000     1.0900 
      15   340.0000     1.0900 
      16   340.0000     1.0900 
      17   340.0000     1.0900 
      18   340.0000     1.0900 
      19   340.0000     1.0900 
      20   340.0000     1.0900 
      21   340.0000     1.0900 
      22   340.0000     1.0900 
      23   340.0000     1.0900 
      24   340.0000     1.0900 
      25   340.0000     1.0900 
      26   340.0000     1.0900 
      27   340.0000     1.0900 
      28   268.0000     1.5290 

Angle Coeffs 

       1     58.350    112.700
       2     58.350    112.700
       3     58.350    112.700
       4     58.350    112.700
       5     58.350    112.700
       6     58.350    112.700
       7     58.350    112.700
       8     58.350    112.700
       9    150.000    180.000
      10     37.500    110.700
      11     37.500    110.700
      12     37.500    110.700
      13     37.500    110.700
      14     37.500    110.700
      15     37.500    110.700
      16     37.500    110.700
      17     37.500    110.700
      18     37.500    110.700
      19     37.500    110.700
      20     37.500    110.700
      21     37.500    110.700
      22     37.500    110.700
      23     37.500    110.700
      24     37.500    110.700
      25     37.500    110.700
      26     37.500    110.700
      27     33.000    107.800
      28     37.500    110.700
      29     33.000    107.800
      30     58.350    112.700
      31     33.000    107.800
      32     37.500    110.700
      33     33.000    107.800
      34     33.000    107.800
      35     33.000    107.800
      36     33.000    107.800
      37     58.350    112.700
      38     58.350    112.700
      39     37.500    110.700
      40     37.500    110.700
      41     37.500    110.700
      42     58.350    112.700
      43     37.500    110.700
      44     58.350    112.700
      45     37.500    110.700
      46     58.350    112.700
      47     58.350    112.700
      48     37.500    110.700
      49     33.000    107.800
      50     37.500    110.700
      51     33.000    107.800
      52     37.500    110.700
      53     33.000    107.800
      54     33.000    107.800
      55     33.000    107.800

Dihedral Coeffs  

       1      1.300     -0.200      0.200      0.000 
       2      1.300     -0.200      0.200      0.000 
       3      1.300     -0.200      0.200      0.000 
       4      0.000      0.000      0.000      0.000 
       5      0.000      0.000      0.300      0.000 
       6      0.000      0.000      0.300      0.000 
       7      0.000      0.000      0.300      0.000 
       8      0.000      0.000      0.300      0.000 
       9      0.000     -0.650      0.000      0.000 
      10      0.000      0.000      0.300      0.000 
      11      0.000      0.000      0.366      0.000 
      12      0.000      0.000      0.300      0.000 
      13      1.300     -0.200      0.200      0.000 
      14      1.300     -0.200      0.200      0.000 
      15      0.000      0.000      0.300      0.000 
      16      0.000      0.000      0.300      0.000 
      17      0.000      0.000      0.300      0.000 
      18      0.000      0.000      0.300      0.000 
      19      0.000      0.000      0.300      0.000 
      20      0.000      0.000      0.300      0.000 
      21      0.000      0.000      0.366      0.000 
      22      0.000      0.000      0.300      0.000 
      23      0.000      0.000      0.300      0.000 
      24      0.000      0.000      0.300      0.000 
      25      1.300     -0.200      0.200      0.000 
      26      0.000      0.000      0.300      0.000 
      27      0.000      0.000      0.300      0.000 
      28      0.000      0.000      0.300      0.000 
      29      0.000      0.000      0.300      0.000 
      30      0.000      0.000      0.300      0.000 
      31      0.000     -0.650      0.000      0.000 
      32      0.000      0.000      0.300      0.000 
      33      0.000      0.000      0.300      0.000 
      34      0.000      0.000      0.300      0.000 
      35      0.000     -0.650      0.000      0.000 
      36      0.000      0.000      0.300      0.000 
      37      0.000      0.000      0.366      0.000 
      38      0.000      0.000      0.300      0.000 
      39      0.000      0.000      0.300      0.000 
      40      0.000      0.000      0.300      0.000 
      41      0.000      0.000      0.300      0.000 
      42      0.000      0.000      0.300      0.000 
      43      1.300     -0.200      0.200      0.000 
      44      0.000      0.000      0.300      0.000 
      45      0.000      0.000      0.300      0.000 
      46      0.000      0.000      0.300      0.000 
      47      0.000      0.000      0.300      0.000 
      48      0.000      0.000      0.300      0.000 
      49      1.300     -0.200      0.200      0.000 
      50      0.000      0.000      0.000      0.000 
      51      0.000      0.000      0.300      0.000 
      52      0.000      0.000      0.300      0.000 
      53      0.000      0.000      0.300      0.000 
      54      0.000      0.000      0.300      0.000 
      55      1.300     -0.200      0.200      0.000 
      56      1.300     -0.200      0.200      0.000 
      57      0.000      0.000      0.300      0.000 
      58      0.000      0.000      0.300      0.000 
      59      0.000      0.000      0.300      0.000 
      60      0.000      0.000      0.300      0.000 
      61      0.000      0.000      0.300      0.000 
      62      0.000      0.000      0.300      0.000 
      63      0.000      0.000      0.300      0.000 
      64      0.000      0.000      0.300      0.000 
      65      1.300     -0.200      0.200      0.000 
      66      0.000      0.000      0.366      0.000 
      67      0.000      0.000      0.366      0.000 
      68      0.000      0.000      0.300      0.000 
      69      0.000      0.000      0.300      0.000 
      70      0.000      0.000      0.366      0.000 
      71      0.000      0.000      0.300      0.000 
      72      1.300     -0.200      0.200      0.000 
      73      0.000      0.000      0.000      0.000 
      74      1.300     -0.200      0.200      0.000 
      75      0.000      0.000      0.300      0.000 
      76      1.300     -0.200      0.200      0.000 
      77      0.000      0.000      0.300      0.000 
      78      0.000      0.000      0.300      0.000 
      79      0.000      0.000      0.300      0.000 
      80      0.000      0.000      0.300      0.000 
      81      0.000      0.000      0.300      0.000 
      82      0.000      0.000      0.300      0.000 
      83      0.000      0.000      0.300      0.000 
      84      0.000      0.000      0.300      0.000 

Improper Coeffs 

       1      0.000      -1       2 
       2      0.000      -1       2 
       3      0.000      -1       2 
       4      0.000      -1       2 
       5      0.000      -1       2 
       6      0.000      -1       2 
       7      0.000      -1       2 
       8      0.000      -1       2 
       9      0.000      -1       2 
      10      0.000      -1       2 
      11      0.000      -1       2 
      12      0.000      -1       2 
      13      0.000      -1       2 
      14      0.000      -1       2 
      15      0.000      -1       2 
      16      0.000      -1       2 
      17      0.000      -1       2 
      18      0.000      -1       2 

Atoms 

     1      1      1 -0.23690000    1.000  1.00000  0.00000
     2      1      2 -0.10020000   -0.535  1.00000  0.00000
     3      1      3 -0.23920000   -0.992  1.00000  1.47044
     4      1      4 -0.09470000   -1.246  2.14957 -0.76953
     5      1      5 -0.18030000   -0.878  3.55819 -0.27653
     6      1      6 -0.19240000   -1.537  4.46187 -1.30212
     7      1      7 -0.18120000   -1.255  3.77103 -2.62794
     8      1      8 0.09500000   -1.113  2.25595 -2.31614
     9      1      9 -0.23090000    0.214  1.77133 -2.91889
    10      1     10 0.14220000   -2.207  1.50836 -3.06128
    11      1     11 -0.40360000   -3.115  0.88896 -3.67849
    12      1     12 0.08290000    1.387  0.31406  0.76194
    13      1     13 0.08290000    1.420  1.98586  0.21034
    14      1     14 0.08290000    1.412  0.64294 -0.94669
    15      1     15 0.10290000   -0.866  0.04969 -0.43760
    16      1     16 0.08400000   -0.615  1.87789  2.00711
    17      1     17 0.08400000   -0.619  0.11181  1.99222
    18      1     18 0.08400000   -2.084  0.99417  1.54574
    19      1     19 0.11070000   -2.320  2.02418 -0.55727
    20      1     20 0.10180000    0.204  3.72173 -0.28026
    21      1     21 0.10180000   -1.257  3.76492  0.72849
    22      1     22 0.10020000   -1.135  5.47959 -1.27529
    23      1     23 0.10020000   -2.617  4.51659 -1.12664
    24      1     24 0.10720000   -0.320  4.17539 -3.03854
    25      1     25 0.10720000   -2.045  3.99587 -3.35356
    26      1     26 0.09650000    1.073  2.27211 -2.46232
    27      1     27 0.09650000    0.255  1.98466 -3.99522
    28      1     28 0.09650000    0.328  0.68638 -2.81816

Bonds 

     1      1      2      1
     2      2      3      2
     3      3      4      2
     4      4      5      4
     5      5      6      5
     6      6      7      6
     7      7      8      4
     8      8      9      8
     9      9     10      8
    10     10     11     10
    11     11     12      1
    12     12     13      1
    13     13     14      1
    14     14     15      2
    15     15     16      3
    16     16     17      3
    17     17     18      3
    18     18     19      4
    19     19     20      5
    20     20     21      5
    21     21     22      6
    22     22     23      6
    23     23     24      7
    24     24     25      7
    25     25     26      9
    26     26     27      9
    27     27     28      9
    28     28      8      7

Angles 

     1      1      1      2      3
     2      2      1      2      4
     3      3      2      4      5
     4      4      4      5      6
     5      5      5      6      7
     6      6      2      4      8
     7      7      4      8      9
     8      8      4      8     10
     9      9      8     10     11
    10     10      2      1     12
    11     11      2      1     13
    12     12      2      1     14
    13     13      1      2     15
    14     14      2      3     16
    15     15      2      3     17
    16     16      2      3     18
    17     17      2      4     19
    18     18      4      5     20
    19     19      4      5     21
    20     20      5      6     22
    21     21      5      6     23
    22     22      6      7     24
    23     23      6      7     25
    24     24      8      9     26
    25     25      8      9     27
    26     26      8      9     28
    27     27     16      3     17
    28     28      3      2     15
    29     29     13      1     14
    30     30      9      8     10
    31     31     26      9     28
    32     32      7      6     22
    33     33     12      1     13
    34     34     27      9     28
    35     35     26      9     27
    36     36     12      1     14
    37     37      6      7      8
    38     38      5      4      8
    39     39      6      5     20
    40     40      8      7     25
    41     41      4      2     15
    42     42      3      2      4
    43     43      5      4     19
    44     44      7      8     10
    45     45      6      5     21
    46     46      4      8      7
    47     47      7      8      9
    48     48      8      4     19
    49     49     17      3     18
    50     50      8      7     24
    51     51     16      3     18
    52     52      7      6     23
    53     53     24      7     25
    54     54     22      6     23
    55     55     20      5     21

Dihedrals

     1      1      5      4      2      1 
     2      2      6      5      4      2 
     3      3      7      6      5      4 
     4      4     11     10      8      4 
     5      5     12      1      2      3 
     6      6     16      3      2      1 
     7      7     26      9      8      4 
     8      8     16      3      2      4 
     9      9     10      8      7      6 
    10     10     21      5      4      8 
    11     11     28      9      8     10 
    12     12     14      1      2      3 
    13     13      9      8      4      2 
    14     14      7      8      4      2 
    15     15     18      3      2      1 
    16     16     13      1      2      4 
    17     17     25      7      6     23 
    18     18     15      2      1     12 
    19     19     16      3      2     15 
    20     20     24      7      8      9 
    21     21     24      7      8     10 
    22     22     25      7      6      5 
    23     23     23      6      5      4 
    24     24     27      9      8      7 
    25     25      5      4      2      3 
    26     26     28      9      8      4 
    27     27     20      5      4     19 
    28     28     19      4      2     15 
    29     29     22      6      5     20 
    30     30     22      6      5     21 
    31     31     10      8      4      5 
    32     32     23      6      5     21 
    33     33     19      4      2      1 
    34     34     21      5      4      2 
    35     35     10      8      4      2 
    36     36     15      2      4      5 
    37     37     25      7      8     10 
    38     38     24      7      8      4 
    39     39     27      9      8      4 
    40     40     19      4      8      9 
    41     41     28      9      8      7 
    42     42     19      4      5      6 
    43     43      8      7      6      5 
    44     44     20      5      4      2 
    45     45     22      6      5      4 
    46     46     15      2      1     14 
    47     47     21      5      4     19 
    48     48     25      7      8      9 
    49     49      8      4      2      3 
    50     50     11     10      8      9 
    51     51     17      3      2      1 
    52     52     20      5      6      7 
    53     53     17      3      2     15 
    54     54     18      3      2      4 
    55     55      9      8      7      6 
    56     56      9      8      4      5 
    57     57     24      7      6     23 
    58     58     22      6      7      8 
    59     59     26      9      8      7 
    60     60     19      4      2      3 
    61     61     13      1      2      3 
    62     62     12      1      2      4 
    63     63     24      7      6     22 
    64     64     20      5      4      8 
    65     65      8      4      2      1 
    66     66     27      9      8     10 
    67     67     19      4      8     10 
    68     68     23      6      7      8 
    69     69     18      3      2     15 
    70     70     26      9      8     10 
    71     71     25      7      6     22 
    72     72      7      8      4      5 
    73     73     11     10      8      7 
    74     74      8      4      5      6 
    75     75     21      5      6      7 
    76     76      6      7      8      4 
    77     77     14      1      2      4 
    78     78     19      4      8      7 
    79     79     24      7      6      5 
    80     80     23      6      5     20 
    81     81     17      3      2      4 
    82     82     15      2      1     13 
    83     83     15      2      4      8 
    84     84     25      7      8      4 

Impropers

     1      1      2      1      3      4 
     2      2      4      2      5      8 
     3      3      8      9      4      7 
     4      4      8     10      4      7 
     5      5      1      2     12     13 
     6      6      1      2     12     14 
     7      7      2      1      3     15 
     8      8      3     17      2     16 
     9      9      3     18     16      2 
    10     10      4      2     19      5 
    11     11      5      4     20      6 
    12     12      5      4     21      6 
    13     13      6      5     22      7 
    14     14      6      7      5     23 
    15     15      7      8      6     24 
    16     16      7     25      6      8 
    17     17      9     26     27      8 
    18     18      9     26     28      8 

