LAMMPS data file Created by LigParGen - (Written by Leela S. Dodda)

      20 atoms
      19 bonds
      36 angles
      45 dihedrals
      12 impropers
 
      20 atom types
      19 bond types
      36 angle types
      45 dihedral types
      12 improper types
 
   -2.444450    47.555550 xlo xhi
    0.079190    50.079190 ylo yhi
   -4.032530    45.967470 zlo zhi

Masses

       1     12.011  
       2     12.011  
       3     12.011  
       4     18.998  
       5     12.011  
       6     12.011  
       7     12.011  
       8     18.998  
       9      1.008  
      10      1.008  
      11      1.008  
      12      1.008  
      13      1.008  
      14      1.008  
      15      1.008  
      16      1.008  
      17      1.008  
      18      1.008  
      19      1.008  
      20      1.008  

Pair Coeffs 

       1      0.066  3.5000000 
       2      0.066  3.5000000 
       3      0.066  3.5000000 
       4      0.060  2.9000000 
       5      0.066  3.5000000 
       6      0.066  3.5000000 
       7      0.066  3.5000000 
       8      0.060  2.9000000 
       9      0.030  2.5000000 
      10      0.030  2.5000000 
      11      0.030  2.5000000 
      12      0.030  2.5000000 
      13      0.030  2.5000000 
      14      0.030  2.5000000 
      15      0.030  2.5000000 
      16      0.030  2.5000000 
      17      0.030  2.5000000 
      18      0.030  2.5000000 
      19      0.030  2.5000000 
      20      0.030  2.5000000 

Bond Coeffs 

       1   268.0000     1.5290 
       2   268.0000     1.5290 
       3   367.0000     1.3600 
       4   268.0000     1.5290 
       5   268.0000     1.5290 
       6   268.0000     1.5290 
       7   367.0000     1.3600 
       8   340.0000     1.0900 
       9   340.0000     1.0900 
      10   340.0000     1.0900 
      11   340.0000     1.0900 
      12   340.0000     1.0900 
      13   340.0000     1.0900 
      14   340.0000     1.0900 
      15   340.0000     1.0900 
      16   340.0000     1.0900 
      17   340.0000     1.0900 
      18   340.0000     1.0900 
      19   340.0000     1.0900 

Angle Coeffs 

       1     58.350    112.700
       2     50.000    109.500
       3     58.350    112.700
       4     58.350    112.700
       5     58.350    112.700
       6     50.000    109.500
       7     37.500    110.700
       8     37.500    110.700
       9     37.500    110.700
      10     37.500    110.700
      11     37.500    110.700
      12     37.500    110.700
      13     37.500    110.700
      14     37.500    110.700
      15     37.500    110.700
      16     37.500    110.700
      17     37.500    110.700
      18     37.500    110.700
      19     37.500    110.700
      20     33.000    107.800
      21     37.500    110.700
      22     33.000    107.800
      23     33.000    107.800
      24     37.500    110.700
      25     40.000    107.000
      26     58.350    112.700
      27     37.500    110.700
      28     33.000    107.800
      29     37.500    110.700
      30     33.000    107.800
      31     33.000    107.800
      32     33.000    107.800
      33     40.000    107.000
      34     40.000    107.000
      35     37.500    110.700
      36     40.000    107.000

Dihedral Coeffs  

       1      0.300     -0.400      0.400      0.000 
       2      1.300     -0.200      0.200      0.000 
       3      1.300     -0.200      0.200      0.000 
       4      0.300     -0.400      0.400      0.000 
       5      0.000      0.000      0.300      0.000 
       6      0.000      0.000      0.300      0.000 
       7      0.000      0.000      0.300      0.000 
       8      0.000      0.000      0.300      0.000 
       9      0.000      0.000      0.300      0.000 
      10      0.000      0.000      0.300      0.000 
      11      0.000      0.000      0.300      0.000 
      12      0.000      0.000      0.300      0.000 
      13      0.000      0.000      0.300      0.000 
      14      0.000      0.000      0.300      0.000 
      15      0.000      0.000      0.300      0.000 
      16      0.000      0.000      0.300      0.000 
      17      0.000      0.000      0.300      0.000 
      18      0.000      0.000      0.300      0.000 
      19      0.000      0.000      0.300      0.000 
      20      0.000      0.000      0.300      0.000 
      21      0.000      0.000      0.300      0.000 
      22      0.000      0.000      0.300      0.000 
      23      0.000      0.000      0.400      0.000 
      24      0.000      0.000      0.300      0.000 
      25      0.000      0.000      0.300      0.000 
      26      0.000      0.000      0.300      0.000 
      27      0.000      0.000      0.300      0.000 
      28      0.000      0.000      0.300      0.000 
      29      0.000      0.000      0.300      0.000 
      30      0.000      0.000      0.300      0.000 
      31      0.000      0.000      0.300      0.000 
      32      0.000      0.000      0.300      0.000 
      33      0.000      0.000      0.300      0.000 
      34      1.300     -0.200      0.200      0.000 
      35      0.000      0.000      0.300      0.000 
      36      0.300     -0.400      0.400      0.000 
      37      0.000      0.000      0.300      0.000 
      38      0.000      0.000      0.400      0.000 
      39      0.000      0.000      0.300      0.000 
      40      0.000      0.000      0.300      0.000 
      41      0.000      0.000      0.300      0.000 
      42      0.000      0.000      0.300      0.000 
      43      0.000      0.000      0.300      0.000 
      44      0.000      0.000      0.300      0.000 
      45      0.000      0.000      0.400      0.000 

Improper Coeffs 

       1      0.000      -1       2 
       2      0.000      -1       2 
       3      0.000      -1       2 
       4      0.000      -1       2 
       5      0.000      -1       2 
       6      0.000      -1       2 
       7      0.000      -1       2 
       8      0.000      -1       2 
       9      0.000      -1       2 
      10      0.000      -1       2 
      11      0.000      -1       2 
      12      0.000      -1       2 

Atoms 

     1      1      1 -0.23620000    1.000  1.00000  0.00000
     2      1      2 -0.15700000   -0.529  1.00000  0.00000
     3      1      3 0.01170000   -1.039  1.00000  1.44263
     4      1      4 -0.18790000   -2.395  0.89894  1.43531
     5      1      5 -0.17590000   -1.117  2.20059 -0.76882
     6      1      6 -0.22100000   -0.753  2.20975 -2.25711
     7      1      7 0.01060000   -1.356  3.40892 -2.97049
     8      1      8 -0.18730000   -0.847  4.54835 -2.43070
     9      1      9 0.08680000    1.387  0.16683  0.59678
    10      1     10 0.08680000    1.395  1.93020  0.42265
    11      1     11 0.08680000    1.401  0.88331 -1.01109
    12      1     12 0.11140000   -0.881  0.07919 -0.48135
    13      1     13 0.08910000   -0.770  1.92001  1.97113
    14      1     14 0.08910000   -0.648  0.14443  2.00228
    15      1     15 0.10470000   -0.780  3.13540 -0.30236
    16      1     16 0.10470000   -2.211  2.18013 -0.67827
    17      1     17 0.10380000   -1.104  1.28725 -2.73269
    18      1     18 0.10380000    0.335  2.25852 -2.37193
    19      1     19 0.08790000   -2.444  3.43803 -2.87108
    20      1     20 0.08790000   -1.094  3.39833 -4.03253

Bonds 

     1      1      2      1
     2      2      3      2
     3      3      4      3
     4      4      5      2
     5      5      6      5
     6      6      7      6
     7      7      8      7
     8      8      9      1
     9      9     10      1
    10     10     11      1
    11     11     12      2
    12     12     13      3
    13     13     14      3
    14     14     15      5
    15     15     16      5
    16     16     17      6
    17     17     18      6
    18     18     19      7
    19     19     20      7

Angles 

     1      1      1      2      3
     2      2      2      3      4
     3      3      1      2      5
     4      4      2      5      6
     5      5      5      6      7
     6      6      6      7      8
     7      7      2      1      9
     8      8      2      1     10
     9      9      2      1     11
    10     10      1      2     12
    11     11      2      3     13
    12     12      2      3     14
    13     13      2      5     15
    14     14      2      5     16
    15     15      5      6     17
    16     16      5      6     18
    17     17      6      7     19
    18     18      6      7     20
    19     19      7      6     17
    20     20     15      5     16
    21     21      7      6     18
    22     22     17      6     18
    23     23     13      3     14
    24     24      5      2     12
    25     25      8      7     19
    26     26      3      2      5
    27     27      3      2     12
    28     28     19      7     20
    29     29      6      5     16
    30     30     10      1     11
    31     31      9      1     10
    32     32      9      1     11
    33     33      4      3     14
    34     34      4      3     13
    35     35      6      5     15
    36     36      8      7     20

Dihedrals

     1      1      4      3      2      1 
     2      2      6      5      2      1 
     3      3      7      6      5      2 
     4      4      8      7      6      5 
     5      5      9      1      2      3 
     6      6     16      5      6      7 
     7      7     14      3      2      5 
     8      8     14      3      2     12 
     9      9     20      7      6     17 
    10     10     19      7      6     18 
    11     11      9      1      2      5 
    12     12     11      1      2      3 
    13     13     12      2      5      6 
    14     14     18      6      5     16 
    15     15     19      7      6      5 
    16     16     10      1      2      5 
    17     17     15      5      2      1 
    18     18     12      2      1     10 
    19     19     18      6      5      2 
    20     20     17      6      5      2 
    21     21     13      3      2     12 
    22     22     17      6      5     15 
    23     23     12      2      3      4 
    24     24     15      5      2     12 
    25     25     19      7      6     17 
    26     26     16      5      2      3 
    27     27     15      5      6      7 
    28     28     13      3      2      5 
    29     29     16      5      2     12 
    30     30     17      6      5     16 
    31     31     18      6      5     15 
    32     32     11      1      2      5 
    33     33     15      5      2      3 
    34     34      6      5      2      3 
    35     35     12      2      1     11 
    36     36      5      2      3      4 
    37     37     10      1      2      3 
    38     38     18      6      7      8 
    39     39     20      7      6     18 
    40     40     13      3      2      1 
    41     41     16      5      2      1 
    42     42     14      3      2      1 
    43     43     20      7      6      5 
    44     44     12      2      1      9 
    45     45     17      6      7      8 

Impropers

     1      1      2      1      3      5 
     2      2      1     10      9      2 
     3      3      1      2     11      9 
     4      4      2      1      3     12 
     5      5      3      2      4     13 
     6      6      3      2      4     14 
     7      7      5      2      6     15 
     8      8      5      2      6     16 
     9      9      6     17      5      7 
    10     10      6     18      5      7 
    11     11      7     19      6      8 
    12     12      7     20      6      8 

