LAMMPS data file Created by LigParGen - (Written by Leela S. Dodda)

      31 atoms
      30 bonds
      55 angles
      68 dihedrals
      18 impropers
 
      31 atom types
      30 bond types
      55 angle types
      68 dihedral types
      18 improper types
 
   -4.559430    45.440570 xlo xhi
   -1.047380    48.952620 ylo yhi
   -1.038180    48.961820 zlo zhi

Masses

       1     12.011  
       2     15.999  
       3     12.011  
       4     15.999  
       5     12.011  
       6     12.011  
       7     12.011  
       8     12.011  
       9     12.011  
      10     12.011  
      11     12.011  
      12     12.011  
      13     15.999  
      14      1.008  
      15      1.008  
      16      1.008  
      17      1.008  
      18      1.008  
      19      1.008  
      20      1.008  
      21      1.008  
      22      1.008  
      23      1.008  
      24      1.008  
      25      1.008  
      26      1.008  
      27      1.008  
      28      1.008  
      29      1.008  
      30      1.008  
      31      1.008  

Pair Coeffs 

       1      0.066  3.5000000 
       2      0.140  2.9000000 
       3      0.070  3.5500000 
       4      0.210  2.9600000 
       5      0.066  3.5000000 
       6      0.066  3.5000000 
       7      0.066  3.5000000 
       8      0.066  3.5000000 
       9      0.066  3.5000000 
      10      0.066  3.5000000 
      11      0.070  3.5500000 
      12      0.066  3.5000000 
      13      0.210  2.9600000 
      14      0.030  2.5000000 
      15      0.030  2.5000000 
      16      0.030  2.5000000 
      17      0.030  2.5000000 
      18      0.030  2.5000000 
      19      0.030  2.5000000 
      20      0.030  2.5000000 
      21      0.030  2.5000000 
      22      0.030  2.5000000 
      23      0.030  2.5000000 
      24      0.030  2.5000000 
      25      0.030  2.5000000 
      26      0.030  2.5000000 
      27      0.030  2.5000000 
      28      0.030  2.5000000 
      29      0.030  2.5000000 
      30      0.030  2.5000000 
      31      0.030  2.5000000 

Bond Coeffs 

       1   320.0000     1.4100 
       2   214.0000     1.3270 
       3   570.0000     1.2290 
       4   317.0000     1.5220 
       5   268.0000     1.5290 
       6   268.0000     1.5290 
       7   268.0000     1.5290 
       8   268.0000     1.5290 
       9   268.0000     1.5290 
      10   317.0000     1.5220 
      11   317.0000     1.5220 
      12   570.0000     1.2290 
      13   340.0000     1.0900 
      14   340.0000     1.0900 
      15   340.0000     1.0900 
      16   340.0000     1.0900 
      17   340.0000     1.0900 
      18   340.0000     1.0900 
      19   340.0000     1.0900 
      20   340.0000     1.0900 
      21   340.0000     1.0900 
      22   340.0000     1.0900 
      23   340.0000     1.0900 
      24   340.0000     1.0900 
      25   340.0000     1.0900 
      26   340.0000     1.0900 
      27   340.0000     1.0900 
      28   340.0000     1.0900 
      29   340.0000     1.0900 
      30   340.0000     1.0900 

Angle Coeffs 

       1     83.000    116.900
       2     83.000    123.400
       3     81.000    111.400
       4     63.000    111.100
       5     63.000    111.100
       6     58.350    112.700
       7     58.350    112.700
       8     58.350    112.700
       9     63.000    111.100
      10     70.000    116.000
      11     80.000    120.400
      12     35.000    109.500
      13     35.000    109.500
      14     35.000    109.500
      15     35.000    109.500
      16     37.500    110.700
      17     37.500    110.700
      18     37.500    110.700
      19     37.500    110.700
      20     37.500    110.700
      21     37.500    110.700
      22     37.500    110.700
      23     37.500    110.700
      24     37.500    110.700
      25     37.500    110.700
      26     37.500    110.700
      27     35.000    109.500
      28     35.000    109.500
      29     35.000    109.500
      30     33.000    107.800
      31     33.000    107.800
      32     35.000    109.500
      33     33.000    107.800
      34     37.500    110.700
      35     33.000    107.800
      36     33.000    107.800
      37     37.500    110.700
      38     33.000    107.800
      39     58.350    112.700
      40     37.500    110.700
      41     33.000    107.800
      42     80.000    120.400
      43     33.000    107.800
      44     33.000    107.800
      45     33.000    107.800
      46     58.350    112.700
      47     33.000    107.800
      48     33.000    107.800
      49     35.000    109.500
      50     37.500    110.700
      51     37.500    110.700
      52     80.000    120.400
      53     37.500    110.700
      54     33.000    107.800
      55     33.000    107.800

Dihedral Coeffs  

       1      0.000      5.124      0.000      0.000 
       2      0.000      0.000     -0.553      0.000 
       3     -2.060     -0.313      0.315      0.000 
       4      1.300     -0.200      0.200      0.000 
       5     -2.060     -0.313      0.315      0.000 
       6      1.454     -0.144     -0.775      0.000 
       7      0.000      0.000      0.198      0.000 
       8      0.000      0.000     -0.100      0.000 
       9      0.000      0.000      0.300      0.000 
      10      0.000      0.000      0.275      0.000 
      11      0.000      0.000      0.275      0.000 
      12      0.000      0.000      0.300      0.000 
      13      1.300     -0.200      0.200      0.000 
      14      0.000      0.000     -0.553      0.000 
      15     -2.060     -0.313      0.315      0.000 
      16      0.000      0.000      0.300      0.000 
      17      0.000      0.000      0.300      0.000 
      18      0.000      0.000      0.132      0.000 
      19      0.000      0.000      0.000      0.000 
      20      0.000      0.000     -0.100      0.000 
      21      4.669      5.124      0.000      0.000 
      22      0.000      0.000      0.275      0.000 
      23      0.000      0.000      0.300      0.000 
      24      0.000      0.000      0.300      0.000 
      25      0.000      0.000      0.000      0.000 
      26      0.000      0.000     -0.100      0.000 
      27      0.000      0.000      0.300      0.000 
      28      0.000      0.000      0.300      0.000 
      29      0.000      0.000      0.300      0.000 
      30      0.000      0.000     -0.100      0.000 
      31      0.000      0.000      0.300      0.000 
      32      0.000      0.000      0.000      0.000 
      33      0.000      0.000      0.300      0.000 
      34      1.300     -0.200      0.200      0.000 
      35      0.000      0.000      0.300      0.000 
      36      0.000      0.000      0.300      0.000 
      37      0.000      0.000      0.300      0.000 
      38      0.000      0.000      0.000      0.000 
      39      0.000      0.000      0.000      0.000 
      40      0.000      0.000      0.000      0.000 
      41      0.000      0.000      0.275      0.000 
      42      0.000      0.000      0.300      0.000 
      43      0.000      0.000      0.000      0.000 
      44      0.000      0.000      0.300      0.000 
      45      0.000      0.000      0.300      0.000 
      46      0.000      0.000     -0.100      0.000 
      47      0.000      0.000      0.300      0.000 
      48      0.000      0.000      0.300      0.000 
      49      0.000      0.000      0.300      0.000 
      50      0.000      0.000      0.300      0.000 
      51      0.000      0.000      0.275      0.000 
      52      0.000      0.000      0.300      0.000 
      53      0.000      0.000      0.300      0.000 
      54      0.000      0.000      0.000      0.000 
      55      0.000      0.000      0.300      0.000 
      56      0.000      0.000      0.300      0.000 
      57      0.000      0.000      0.300      0.000 
      58      0.000      0.000      0.300      0.000 
      59      0.000      0.000      0.198      0.000 
      60      0.000      0.000      0.300      0.000 
      61      0.000      0.000      0.300      0.000 
      62      0.000      0.000      0.000      0.000 
      63      0.000      0.000      0.300      0.000 
      64      0.000      0.000      0.300      0.000 
      65      0.000      0.000      0.198      0.000 
      66      0.000      0.000      0.300      0.000 
      67      0.000      0.000     -0.100      0.000 
      68      0.000      0.000      0.300      0.000 

Improper Coeffs 

       1     10.500      -1       2 
       2      0.000      -1       2 
       3      0.000      -1       2 
       4     10.500      -1       2 
       5      0.000      -1       2 
       6      0.000      -1       2 
       7      0.000      -1       2 
       8      0.000      -1       2 
       9      0.000      -1       2 
      10      0.000      -1       2 
      11      0.000      -1       2 
      12      0.000      -1       2 
      13      0.000      -1       2 
      14      0.000      -1       2 
      15      0.000      -1       2 
      16      0.000      -1       2 
      17      0.000      -1       2 
      18      0.000      -1       2 

Atoms 

     1      1      1 -0.05960000    1.000  1.00000  0.00000
     2      1      2 -0.35440000   -0.424  1.00000  0.00000
     3      1      3 0.43910000   -0.981  1.00000  1.24440
     4      1      4 -0.44700000   -0.355  1.00000  2.29522
     5      1      5 -0.12090000   -2.492  0.99820  1.13008
     6      1      6 -0.23390000   -2.981 -0.44950  1.07402
     7      1      7 -0.16550000   -3.143  1.75946  2.29658
     8      1      8 -0.10330000   -2.788  3.26619  2.38440
     9      1      9 -0.24430000   -3.184  4.00525  1.10179
    10      1     10 -0.23350000   -3.474  3.86082  3.62736
    11      1     11 0.36660000   -3.212  5.34047  3.84425
    12      1     12 -0.30130000   -1.793  5.79646  4.05074
    13      1     13 -0.45410000   -4.140  6.15141  3.85002
    14      1     14 0.10150000    1.341  0.93295 -1.03818
    15      1     15 0.10150000    1.386  0.12917  0.54155
    16      1     16 0.10150000    1.383  1.92854  0.43185
    17      1     17 0.13700000   -2.766  1.48774  0.18404
    18      1     18 0.09670000   -2.916 -0.92842  2.05667
    19      1     19 0.09670000   -2.381 -1.04738  0.37758
    20      1     20 0.09670000   -4.024 -0.49229  0.74430
    21      1     21 0.10580000   -2.859  1.27650  3.24094
    22      1     22 0.10580000   -4.234  1.65760  2.21401
    23      1     23 0.10990000   -1.704  3.37282  2.50931
    24      1     24 0.08850000   -4.157  3.66902  0.73036
    25      1     25 0.08850000   -2.442  3.82377  0.31664
    26      1     26 0.08850000   -3.234  5.08830  1.24582
    27      1     27 0.12020000   -3.138  3.33957  4.53228
    28      1     28 0.12020000   -4.559  3.71785  3.56192
    29      1     29 0.11770000   -1.149  4.95398  4.31346
    30      1     30 0.11770000   -1.765  6.51559  4.87433
    31      1     31 0.11770000   -1.427  6.26425  3.13342

Bonds 

     1      1      2      1
     2      2      3      2
     3      3      4      3
     4      4      5      3
     5      5      6      5
     6      6      7      5
     7      7      8      7
     8      8      9      8
     9      9     10      8
    10     10     11     10
    11     11     12     11
    12     12     13     11
    13     13     14      1
    14     14     15      1
    15     15     16      1
    16     16     17      5
    17     17     18      6
    18     18     19      6
    19     19     20      6
    20     20     21      7
    21     21     22      7
    22     22     23      8
    23     23     24      9
    24     24     25      9
    25     25     26      9
    26     26     27     10
    27     27     28     10
    28     28     29     12
    29     29     30     12
    30     30     31     12

Angles 

     1      1      1      2      3
     2      2      2      3      4
     3      3      2      3      5
     4      4      3      5      6
     5      5      3      5      7
     6      6      5      7      8
     7      7      7      8      9
     8      8      7      8     10
     9      9      8     10     11
    10     10     10     11     12
    11     11     10     11     13
    12     12      2      1     14
    13     13      2      1     15
    14     14      2      1     16
    15     15      3      5     17
    16     16      5      6     18
    17     17      5      6     19
    18     18      5      6     20
    19     19      5      7     21
    20     20      5      7     22
    21     21      7      8     23
    22     22      8      9     24
    23     23      8      9     25
    24     24      8      9     26
    25     25      8     10     27
    26     26      8     10     28
    27     27     11     12     29
    28     28     11     12     30
    29     29     11     12     31
    30     30     27     10     28
    31     31     25      9     26
    32     32     11     10     27
    33     33     29     12     30
    34     34     10      8     23
    35     35     14      1     16
    36     36     18      6     19
    37     37      9      8     23
    38     38     24      9     25
    39     39      9      8     10
    40     40      6      5     17
    41     41     29     12     31
    42     42      4      3      5
    43     43     24      9     26
    44     44     21      7     22
    45     45     30     12     31
    46     46      6      5      7
    47     47     15      1     16
    48     48     14      1     15
    49     49     11     10     28
    50     50      8      7     22
    51     51      8      7     21
    52     52     12     11     13
    53     53      7      5     17
    54     54     18      6     20
    55     55     19      6     20

Dihedrals

     1      1      4      3      2      1 
     2      2      6      5      3      2 
     3      3      8      7      5      3 
     4      4      9      8      7      5 
     5      5     11     10      8      7 
     6      6     12     11     10      8 
     7      7     14      1      2      3 
     8      8     18      6      5      3 
     9      9     24      9      8      7 
    10     10     29     12     11     10 
    11     11     28     10     11     12 
    12     12     24      9      8     23 
    13     13     10      8      7      5 
    14     14      7      5      3      2 
    15     15     11     10      8      9 
    16     16     26      9      8     10 
    17     17     18      6      5      7 
    18     18     17      5      3      2 
    19     19     17      5      3      4 
    20     20     19      6      5      3 
    21     21      5      3      2      1 
    22     22     27     10     11     12 
    23     23     19      6      5     17 
    24     24     22      7      8     10 
    25     25     13     11     10      8 
    26     26     22      7      5      3 
    27     27     27     10      8      9 
    28     28     28     10      8      9 
    29     29     28     10      8      7 
    30     30     20      6      5      3 
    31     31     27     10      8     23 
    32     32      6      5      3      4 
    33     33     17      5      7      8 
    34     34      8      7      5      6 
    35     35     19      6      5      7 
    36     36     21      7      5      6 
    37     37     20      6      5      7 
    38     38     29     12     11     13 
    39     39     31     12     11     13 
    40     40     30     12     11     13 
    41     41     30     12     11     10 
    42     42     28     10      8     23 
    43     43     28     10     11     13 
    44     44     21      7      5     17 
    45     45     25      9      8     10 
    46     46     21      7      5      3 
    47     47     22      7      5      6 
    48     48     26      9      8      7 
    49     49     25      9      8     23 
    50     50     21      7      8     10 
    51     51     31     12     11     10 
    52     52     24      9      8     10 
    53     53     21      7      8      9 
    54     54     27     10     11     13 
    55     55     23      8      7     21 
    56     56     22      7      5     17 
    57     57     18      6      5     17 
    58     58     27     10      8      7 
    59     59     16      1      2      3 
    60     60     26      9      8     23 
    61     61     23      8      7      5 
    62     62      7      5      3      4 
    63     63     23      8      7     22 
    64     64     20      6      5     17 
    65     65     15      1      2      3 
    66     66     22      7      8      9 
    67     67     23      8     10     11 
    68     68     25      9      8      7 

Impropers

     1      1      3      2      4      5 
     2      2      5      3      6      7 
     3      3      8      9     10      7 
     4      4     11     10     12     13 
     5      5      1      2     14     15 
     6      6      1      2     14     16 
     7      7      5     17      3      6 
     8      8      6     18     19      5 
     9      9      6     18     20      5 
    10     10      7      5     21      8 
    11     11      7      5     22      8 
    12     12      8      9      7     23 
    13     13      9     25     24      8 
    14     14      9     26     24      8 
    15     15     10     27     11      8 
    16     16     10     11     28      8 
    17     17     12     11     29     30 
    18     18     12     11     29     31 

