LAMMPS data file Created by LigParGen - (Written by Leela S. Dodda)

      28 atoms
      30 bonds
      60 angles
      95 dihedrals
      24 impropers
 
      28 atom types
      30 bond types
      60 angle types
      95 dihedral types
      24 improper types
 
   -3.279760    46.720240 xlo xhi
   -1.196830    48.803170 ylo yhi
   -5.651660    44.348340 zlo zhi

Masses

       1     12.011  
       2     12.011  
       3     12.011  
       4     14.007  
       5     12.011  
       6     12.011  
       7     12.011  
       8     15.999  
       9     12.011  
      10     15.999  
      11     15.999  
      12     12.011  
      13     12.011  
      14     12.011  
      15     12.011  
      16      1.008  
      17      1.008  
      18      1.008  
      19      1.008  
      20      1.008  
      21      1.008  
      22      1.008  
      23      1.008  
      24      1.008  
      25      1.008  
      26      1.008  
      27      1.008  
      28      1.008  

Pair Coeffs 

       1      0.066  3.5000000 
       2      0.083  3.4500000 
       3      0.066  3.3000000 
       4      0.170  3.2000000 
       5      0.083  3.4500000 
       6      0.083  3.4500000 
       7      0.083  3.4500000 
       8      0.140  2.9000000 
       9      0.070  3.5500000 
      10      0.210  2.9600000 
      11      0.140  2.9000000 
      12      0.083  3.4500000 
      13      0.066  3.5000000 
      14      0.083  3.4500000 
      15      0.066  3.5000000 
      16      0.030  2.5000000 
      17      0.030  2.5000000 
      18      0.030  2.5000000 
      19      0.030  2.5000000 
      20      0.030  2.5000000 
      21      0.030  2.5000000 
      22      0.030  2.5000000 
      23      0.030  2.5000000 
      24      0.030  2.5000000 
      25      0.030  2.5000000 
      26      0.030  2.5000000 
      27      0.030  2.5000000 
      28      0.030  2.5000000 

Bond Coeffs 

       1   280.0000     1.5100 
       2   400.0000     1.4510 
       3   650.0000     1.1570 
       4   260.0000     1.5200 
       5   260.0000     1.5200 
       6   260.0000     1.5200 
       7   320.0000     1.4100 
       8   214.0000     1.3270 
       9   570.0000     1.2290 
      10   214.0000     1.3270 
      11   260.0000     1.5200 
      12   280.0000     1.5100 
      13   260.0000     1.5200 
      14   280.0000     1.5100 
      15   340.0000     1.0900 
      16   340.0000     1.0900 
      17   340.0000     1.0900 
      18   340.0000     1.0880 
      19   340.0000     1.0880 
      20   340.0000     1.0880 
      21   340.0000     1.0880 
      22   340.0000     1.0900 
      23   340.0000     1.0900 
      24   340.0000     1.0900 
      25   340.0000     1.0900 
      26   340.0000     1.0900 
      27   340.0000     1.0900 
      28   260.0000     1.5200 
      29   320.0000     1.4100 
      30   260.0000     1.5200 

Angle Coeffs 

       1     58.350    112.700
       2    150.000    180.000
       3     37.500    117.200
       4     30.000     83.000
       5     30.000     83.000
       6     50.000    109.500
       7     83.000    116.900
       8     83.000    123.400
       9     69.900    118.180
      10     30.000     83.000
      11     37.500    117.200
      12     37.500    117.200
      13     37.500    117.200
      14     37.500    110.700
      15     37.500    110.700
      16     37.500    110.700
      17     37.500    117.200
      18     37.500    117.200
      19     37.500    117.200
      20     37.500    117.200
      21     37.500    110.700
      22     37.500    110.700
      23     37.500    110.700
      24     37.500    110.700
      25     37.500    110.700
      26     37.500    110.700
      27     30.000     83.000
      28     33.000    107.800
      29     50.000    109.500
      30     50.000    109.500
      31     42.830    109.430
      32     37.500    117.200
      33     30.000     83.000
      34     33.000    107.800
      35     50.000    109.500
      36     37.500    117.200
      37     33.000    107.800
      38     37.500    117.200
      39     83.000    123.400
      40     30.000     83.000
      41     33.000    107.800
      42     33.000    107.800
      43     35.000    114.300
      44     37.500    117.200
      45     37.500    117.200
      46     30.000     83.000
      47     42.830    109.430
      48     83.000    116.900
      49     37.500    117.200
      50     35.000    109.500
      51     37.500    117.200
      52     30.000     83.000
      53     33.000    107.800
      54     33.000    107.800
      55     33.000    107.800
      56     33.000    107.800
      57     50.000    109.500
      58     30.000     83.000
      59     30.000     83.000
      60     37.500    117.200

Dihedral Coeffs  

       1      0.000      0.000      0.000      0.000 
       2      0.000      0.000      0.000      0.000 
       3      0.000      0.000      0.000      0.000 
       4      0.000      0.000      0.000      0.000 
       5     -1.220     -0.126      0.422      0.000 
       6      0.000      5.124      0.000      0.000 
       7      0.000      0.000      0.300      0.000 
       8      0.000      0.000      0.300      0.000 
       9      0.000      0.000      0.300      0.000 
      10      0.000      0.000      0.000      0.000 
      11      0.000      0.000      0.468      0.000 
      12      0.000      0.000      0.000      0.000 
      13      0.000      0.000      0.000      0.000 
      14      0.000      0.000      0.000      0.000 
      15      0.000      0.000      0.000      0.000 
      16      0.000      0.000      0.000      0.000 
      17      0.000      0.000      0.300      0.000 
      18      0.000      0.000      0.000      0.000 
      19      0.000      0.000      0.000      0.000 
      20      4.669      5.124      0.000      0.000 
      21      0.000      0.000      0.000      0.000 
      22      0.000      0.000      0.000      0.000 
      23      4.669      5.124      0.000      0.000 
      24      0.000      0.000      0.300      0.000 
      25      0.000      0.000      0.300      0.000 
      26      0.000      0.000      0.000      0.000 
      27      0.000      0.000      0.000      0.000 
      28      0.000      0.000      0.000      0.000 
      29      0.000      0.000      0.000      0.000 
      30      0.000      0.000      0.000      0.000 
      31      0.000      0.000      0.000      0.000 
      32      0.000      0.000      0.000      0.000 
      33      0.000      0.000      0.000      0.000 
      34      0.000      0.000      0.000      0.000 
      35      0.000      0.000      0.468      0.000 
      36      0.000      0.000      0.000      0.000 
      37      0.000      0.000      0.300      0.000 
      38      0.000      0.000      0.000      0.000 
      39      0.000      0.000      0.000      0.000 
      40      0.000      0.000      0.300      0.000 
      41      0.000      0.000      0.198      0.000 
      42      0.000      0.000      0.300      0.000 
      43      0.000      0.000      0.000      0.000 
      44      0.000      0.000      0.300      0.000 
      45      0.000      0.000      0.000      0.000 
      46      0.000      0.000      0.000      0.000 
      47     -1.220     -0.126      0.422      0.000 
      48      0.000      0.000      0.000      0.000 
      49      0.000      0.000      0.000      0.000 
      50      0.000      0.000      0.000      0.000 
      51      0.000      0.000      0.300      0.000 
      52      0.000      0.000      0.300      0.000 
      53      0.000      0.000      0.300      0.000 
      54      0.000      0.000      0.300      0.000 
      55      0.000      0.000      0.000      0.000 
      56     -1.220     -0.126      0.422      0.000 
      57      0.000      0.000      0.000      0.000 
      58      0.000      0.000      0.468      0.000 
      59      0.000      0.000      0.000      0.000 
      60      0.000      0.000      0.000      0.000 
      61     -1.220     -0.126      0.422      0.000 
      62      0.000      0.000      0.000      0.000 
      63     -0.550      0.000      0.000      0.000 
      64      0.000      0.000      0.000      0.000 
      65      0.000      0.000      0.000      0.000 
      66      0.000      5.124      0.000      0.000 
      67      0.000      0.000      0.000      0.000 
      68      0.000      0.000      0.300      0.000 
      69      0.000      0.000      0.000      0.000 
      70      0.000      0.000      0.000      0.000 
      71      0.000      0.000      0.300      0.000 
      72      0.000      0.000      0.000      0.000 
      73      0.000      0.000      0.300      0.000 
      74      0.000      0.000      0.000      0.000 
      75      0.000      0.000      0.000      0.000 
      76      0.000      0.000      0.300      0.000 
      77      0.000      0.000      0.300      0.000 
      78      0.000      0.000      0.000      0.000 
      79      0.000      0.000      0.000      0.000 
      80      0.000      0.000      0.000      0.000 
      81      0.000      0.000      0.000      0.000 
      82      0.000      0.000      0.000      0.000 
      83      0.000      0.000      0.300      0.000 
      84      0.000      0.000      0.300      0.000 
      85      0.000      0.000      0.000      0.000 
      86      0.000      0.000      0.000      0.000 
      87      0.000      0.000      0.300      0.000 
      88      0.000      0.000      0.000      0.000 
      89      0.000      0.000      0.300      0.000 
      90      0.000      0.000      0.000      0.000 
      91      0.000      0.000      0.300      0.000 
      92      0.000      0.000      0.000      0.000 
      93     -1.220     -0.126      0.422      0.000 
      94      0.000      0.000      0.000      0.000 
      95      0.000      0.000      0.000      0.000 

Improper Coeffs 

       1      0.000      -1       2 
       2     10.500      -1       2 
       3      0.000      -1       2 
       4      0.000      -1       2 
       5      0.000      -1       2 
       6      0.000      -1       2 
       7      0.000      -1       2 
       8      0.000      -1       2 
       9      0.000      -1       2 
      10      0.000      -1       2 
      11      0.000      -1       2 
      12      0.000      -1       2 
      13      0.000      -1       2 
      14      0.000      -1       2 
      15      0.000      -1       2 
      16      0.000      -1       2 
      17      0.000      -1       2 
      18      0.000      -1       2 
      19      0.000      -1       2 
      20      0.000      -1       2 
      21      0.000      -1       2 
      22      0.000      -1       2 
      23      0.000      -1       2 
      24      0.000      -1       2 

Atoms 

     1      1      1 -0.19920000    1.000  1.00000  0.00000
     2      1      2 0.08010000   -0.535  1.00000  0.00000
     3      1      3 0.11450000   -0.988  1.00000  1.40455
     4      1      4 -0.34860000   -1.346  0.94738  2.49642
     5      1      5 -0.23040000   -1.246 -0.21560 -0.74448
     6      1      6 -0.37510000   -0.741  0.40391 -2.02906
     7      1      7 0.06610000   -1.638  1.22570 -2.86585
     8      1      8 -0.32750000   -1.454  1.33103 -4.28265
     9      1      9 0.58910000   -1.410  2.67412 -4.53852
    10      1     10 -0.37560000   -1.431  3.17088 -5.65166
    11      1     11 -0.40600000   -1.339  3.37786 -3.35229
    12      1     12 0.14140000   -0.765  2.54485 -2.29379
    13      1     13 -0.19710000   -0.067  3.66014 -1.53054
    14      1     14 0.02670000   -1.386  1.83302 -1.03960
    15      1     15 -0.25580000   -2.597  2.50778 -0.42027
    16      1     16 0.10950000    1.393  0.06397  0.41514
    17      1     17 0.10950000    1.388  1.81763  0.62024
    18      1     18 0.10950000    1.432  1.11857 -0.99966
    19      1     19 0.12270000   -2.336 -0.32862 -0.66688
    20      1     20 0.12270000   -0.809 -1.19683 -0.51816
    21      1     21 0.22930000   -0.889 -0.48539 -2.65213
    22      1     22 0.15810000   -2.720  1.13672 -2.67143
    23      1     23 0.12070000    0.647  4.16720 -2.18967
    24      1     24 0.12070000    0.494  3.36860 -0.64653
    25      1     25 0.12070000   -0.789  4.43021 -1.22336
    26      1     26 0.12460000   -3.154  3.11805 -1.13189
    27      1     27 0.12460000   -2.249  3.19789  0.36579
    28      1     28 0.12460000   -3.280  1.80077  0.05297

Bonds 

     1      1      2      1
     2      2      3      2
     3      3      4      3
     4      4      5      2
     5      5      6      5
     6      6      7      6
     7      7      8      7
     8      8      9      8
     9      9     10      9
    10     10     11      9
    11     11     12      7
    12     12     13     12
    13     13     14      2
    14     14     15     14
    15     15     16      1
    16     16     17      1
    17     17     18      1
    18     18     19      5
    19     19     20      5
    20     20     21      6
    21     21     22      7
    22     22     23     13
    23     23     24     13
    24     24     25     13
    25     25     26     15
    26     26     27     15
    27     27     28     15
    28     28     14      6
    29     29     12     11
    30     30     14     12

Angles 

     1      1      1      2      3
     2      2      2      3      4
     3      3      1      2      5
     4      4      2      5      6
     5      5      5      6      7
     6      6      6      7      8
     7      7      7      8      9
     8      8      8      9     10
     9      9      8      9     11
    10     10      6      7     12
    11     11      7     12     13
    12     12      1      2     14
    13     13      2     14     15
    14     14      2      1     16
    15     15      2      1     17
    16     16      2      1     18
    17     17      2      5     19
    18     18      2      5     20
    19     19      5      6     21
    20     20      6      7     22
    21     21     12     13     23
    22     22     12     13     24
    23     23     12     13     25
    24     24     14     15     26
    25     25     14     15     27
    26     26     14     15     28
    27     27      7      6     14
    28     28     27     15     28
    29     29      7     12     11
    30     30     11     12     14
    31     31      3      2     14
    32     32     13     12     14
    33     33      5      6     14
    34     34     24     13     25
    35     35      8      7     12
    36     36      6      5     19
    37     37     16      1     18
    38     38     12     14     15
    39     39     10      9     11
    40     40      7     12     14
    41     41     23     13     24
    42     42     26     15     28
    43     43     19      5     20
    44     44     12      7     22
    45     45      6      5     20
    46     46      2     14      6
    47     47      3      2      5
    48     48      9     11     12
    49     49      6     14     15
    50     50      8      7     22
    51     51     14      6     21
    52     52      5      2     14
    53     53     16      1     17
    54     54     17      1     18
    55     55     23     13     25
    56     56     26     15     27
    57     57     11     12     13
    58     58      2     14     12
    59     59      6     14     12
    60     60      7      6     21

Dihedrals

     1      1      4      3      2      1 
     2      2      6      5      2      1 
     3      3      7      6      5      2 
     4      4      8      7      6      5 
     5      5      9      8      7      6 
     6      6     10      9      8      7 
     7      7     16      1      2      3 
     8      8     23     13     12      7 
     9      9     26     15     14      2 
    10     10     15     14      2      3 
    11     11     23     13     12     11 
    12     12     12     14      2      1 
    13     13     19      5      2     14 
    14     14     21      6      7     12 
    15     15     13     12      7      8 
    16     16     19      5      6      7 
    17     17     17      1      2      5 
    18     18     21      6     14      2 
    19     19     19      5      6     14 
    20     20     12     11      9      8 
    21     21      6      5      2      3 
    22     22     11     12     14      6 
    23     23     11      9      8      7 
    24     24     26     15     14     12 
    25     25     28     15     14     12 
    26     26     13     12     14      6 
    27     27     14      6      7      8 
    28     28      5      2      3      4 
    29     29     20      5      2     14 
    30     30     21      6     14     15 
    31     31      6     14      2      3 
    32     32     12     14      6      5 
    33     33     15     14     12     11 
    34     34     20      5      2      3 
    35     35     25     13     12     11 
    36     36     12      7      6      5 
    37     37     24     13     12      7 
    38     38     11     12      7      6 
    39     39     15     14      6      7 
    40     40     26     15     14      6 
    41     41     22      7      8      9 
    42     42     28     15     14      2 
    43     43     20      5      6      7 
    44     44     18      1      2     14 
    45     45     22      7     12     11 
    46     46     19      5      2      1 
    47     47     13     12     11      9 
    48     48     22      7      6      5 
    49     49      7     12     14      2 
    50     50     12     14      2      3 
    51     51     16      1      2     14 
    52     52     18      1      2      3 
    53     53     28     15     14      6 
    54     54     16      1      2      5 
    55     55     15     14     12      7 
    56     56     12      7      8      9 
    57     57     20      5      2      1 
    58     58     24     13     12     11 
    59     59     22      7      6     21 
    60     60     21      6      7      8 
    61     61     14     12     11      9 
    62     62     13     12      7      6 
    63     63     11     12      7      8 
    64     64     22      7     12     14 
    65     65     14     12      7      8 
    66     66     12     11      9     10 
    67     67     15     14      2      1 
    68     68     27     15     14     12 
    69     69     15     14      2      5 
    70     70      7      6     14      2 
    71     71     17      1      2      3 
    72     72     12     14      2      5 
    73     73     17      1      2     14 
    74     74     21      6      5      2 
    75     75     22      7     12     13 
    76     76     24     13     12     14 
    77     77     18      1      2      5 
    78     78     15     14      6      5 
    79     79     20      5      6     14 
    80     80     21      6      5     20 
    81     81     21      6      5     19 
    82     82     13     12     14      2 
    83     83     25     13     12      7 
    84     84     23     13     12     14 
    85     85     14      2      3      4 
    86     86     22      7      6     14 
    87     87     25     13     12     14 
    88     88     21      6     14     12 
    89     89     27     15     14      6 
    90     90      6     14      2      1 
    91     91     27     15     14      2 
    92     92     11     12     14      2 
    93     93      9     11     12      7 
    94     94     19      5      2      3 
    95     95     15     14     12     13 

Impropers

     1      1      2      1      3      5 
     2      2      9     10     11      8 
     3      3      7     12      6      8 
     4      4     12     11     13      7 
     5      5      2      1      3     14 
     6      6     14      2     15      6 
     7      7      1     17     16      2 
     8      8      1     18     16      2 
     9      9      5      2     19      6 
    10     10      5      2     20      6 
    11     11      6      5     21      7 
    12     12      7      8     22      6 
    13     13     13     12     23     24 
    14     14     13     25     12     23 
    15     15     15     26     27     14 
    16     16     15     26     28     14 
    17     17     12     14      7      6 
    18     18     12     14      7      6 
    19     19      2      5     14      6 
    20     20      2      5      6     14 
    21     21     12     14      7      6 
    22     22     12     14      7      6 
    23     23      2      5      6     14 
    24     24      2      5     14      6 

