LAMMPS data file Created by LigParGen - (Written by Leela S. Dodda)

      29 atoms
      30 bonds
      61 angles
      87 dihedrals
      23 impropers
 
      29 atom types
      30 bond types
      61 angle types
      87 dihedral types
      23 improper types
 
   -5.114910    44.885090 xlo xhi
   -1.325890    48.674110 ylo yhi
   -1.031640    48.968360 zlo zhi

Masses

       1     12.011  
       2     12.011  
       3     12.011  
       4     12.011  
       5     12.011  
       6     12.011  
       7     15.999  
       8     12.011  
       9     12.011  
      10     12.011  
      11     12.011  
      12      1.008  
      13      1.008  
      14      1.008  
      15      1.008  
      16      1.008  
      17      1.008  
      18      1.008  
      19      1.008  
      20      1.008  
      21      1.008  
      22      1.008  
      23      1.008  
      24      1.008  
      25      1.008  
      26      1.008  
      27      1.008  
      28      1.008  
      29      1.008  

Pair Coeffs 

       1      0.066  3.5000000 
       2      0.066  3.5000000 
       3      0.066  3.5000000 
       4      0.083  3.4500000 
       5      0.066  3.5000000 
       6      0.066  3.5000000 
       7      0.140  2.9000000 
       8      0.083  3.4500000 
       9      0.066  3.5000000 
      10      0.066  3.5000000 
      11      0.083  3.4500000 
      12      0.030  2.5000000 
      13      0.030  2.5000000 
      14      0.030  2.5000000 
      15      0.030  2.5000000 
      16      0.030  2.5000000 
      17      0.030  2.5000000 
      18      0.030  2.5000000 
      19      0.030  2.5000000 
      20      0.030  2.5000000 
      21      0.030  2.5000000 
      22      0.030  2.5000000 
      23      0.030  2.5000000 
      24      0.030  2.5000000 
      25      0.030  2.5000000 
      26      0.030  2.5000000 
      27      0.030  2.5000000 
      28      0.030  2.5000000 
      29      0.030  2.5000000 

Bond Coeffs 

       1   268.0000     1.5290 
       2   268.0000     1.5290 
       3   280.0000     1.5100 
       4   280.0000     1.5100 
       5   268.0000     1.5290 
       6   320.0000     1.4100 
       7   260.0000     1.5200 
       8   280.0000     1.5100 
       9   268.0000     1.5290 
      10   260.0000     1.5200 
      11   340.0000     1.0900 
      12   340.0000     1.0900 
      13   340.0000     1.0900 
      14   340.0000     1.0900 
      15   340.0000     1.0900 
      16   340.0000     1.0900 
      17   340.0000     1.0900 
      18   340.0000     1.0900 
      19   340.0000     1.0900 
      20   340.0000     1.0900 
      21   340.0000     1.0900 
      22   340.0000     1.0900 
      23   340.0000     1.0900 
      24   340.0000     1.0900 
      25   340.0000     1.0900 
      26   340.0000     1.0900 
      27   340.0000     1.0880 
      28   340.0000     1.0880 
      29   320.0000     1.4100 
      30   260.0000     1.5200 

Angle Coeffs 

       1     58.350    112.700
       2     58.350    112.700
       3     35.000    114.300
       4     58.350    112.700
       5     50.000    109.500
       6     37.500    117.200
       7     37.500    117.200
       8     58.350    112.700
       9     37.500    117.200
      10     37.500    110.700
      11     37.500    110.700
      12     37.500    110.700
      13     37.500    110.700
      14     37.500    110.700
      15     37.500    110.700
      16     37.500    110.700
      17     37.500    110.700
      18     37.500    110.700
      19     37.500    110.700
      20     37.500    110.700
      21     37.500    110.700
      22     37.500    110.700
      23     37.500    110.700
      24     37.500    110.700
      25     37.500    110.700
      26     37.500    117.200
      27     37.500    117.200
      28     33.000    107.800
      29     37.500    110.700
      30     33.000    107.800
      31     37.500    117.200
      32     37.500    110.700
      33     35.000    109.500
      34     33.000    107.800
      35     35.000    114.300
      36     33.000    107.800
      37     37.500    117.200
      38     33.000    107.800
      39     60.000    109.500
      40     33.000    107.800
      41     37.500    110.700
      42     30.000     83.000
      43     30.000     83.000
      44     37.500    117.200
      45     37.500    110.700
      46     50.000    109.500
      47     33.000    107.800
      48     37.500    117.200
      49     33.000    107.800
      50     37.500    110.700
      51     30.000     83.000
      52     50.000    109.500
      53     37.500    117.200
      54     50.000    109.500
      55     33.000    107.800
      56     37.500    110.700
      57     33.000    107.800
      58     37.500    110.700
      59     37.500    110.700
      60     33.000    107.800
      61     35.000    109.500

Dihedral Coeffs  

       1      1.300     -0.200      0.200      0.000 
       2      1.300     -0.200      0.200      0.000 
       3      1.300     -0.200      0.200      0.000 
       4      1.711     -0.500      0.663      0.000 
       5      0.000      0.000      0.000      0.000 
       6      0.000      0.000      0.300      0.000 
       7      0.000      0.000      0.300      0.000 
       8      0.000      0.000      0.000      0.000 
       9      0.000      0.000      0.000      0.000 
      10      0.000      0.000      0.000      0.000 
      11      0.000      0.000      0.300      0.000 
      12      0.000      0.000      0.300      0.000 
      13      0.000      0.000      0.300      0.000 
      14      0.000      0.000      0.468      0.000 
      15      0.000      0.000     -0.553      0.000 
      16      0.000      0.000      0.300      0.000 
      17      0.000      0.000      0.300      0.000 
      18      0.650     -0.250      0.670      0.000 
      19      0.000      0.000      0.300      0.000 
      20      0.000      0.000      0.300      0.000 
      21      0.000      0.000      0.000      0.000 
      22      0.000      0.000      0.300      0.000 
      23      0.000      0.000      0.000      0.000 
      24      0.000      0.000      0.000      0.000 
      25      0.000      0.000      0.300      0.000 
      26      0.000      0.000      0.760      0.000 
      27      0.000      0.000      0.300      0.000 
      28      0.000      0.000      0.300      0.000 
      29      0.000      0.000      0.300      0.000 
      30      0.000      0.000      0.300      0.000 
      31      0.000      0.000      0.300      0.000 
      32      0.000      0.000      0.000      0.000 
      33      0.000      0.000      0.468      0.000 
      34      0.000      0.000      0.300      0.000 
      35      0.000      0.000      0.300      0.000 
      36      0.000      0.000      0.000      0.000 
      37      0.000      0.000      0.000      0.000 
      38      0.000      0.000      0.760      0.000 
      39      0.000      0.000      0.000      0.000 
      40      0.000      0.000      0.468      0.000 
      41      0.000      0.000      0.000      0.000 
      42      0.000      0.000      0.300      0.000 
      43      0.650     -0.250      0.670      0.000 
      44      0.650     -0.250      0.670      0.000 
      45      0.000      0.000      0.300      0.000 
      46      0.000      0.000      0.000      0.000 
      47      0.000      0.000      0.300      0.000 
      48      0.000      0.000      0.300      0.000 
      49      0.000      0.000      0.300      0.000 
      50      0.000      0.000      0.300      0.000 
      51      0.000      0.000      0.300      0.000 
      52      0.000      0.000      0.300      0.000 
      53      0.000      0.000      0.000      0.000 
      54      0.000      0.000      0.000      0.000 
      55      0.000      0.000      0.300      0.000 
      56      0.000      0.000      0.468      0.000 
      57      0.000      0.000      0.000      0.000 
      58      0.000      0.000      0.000      0.000 
      59      0.000      0.000      0.300      0.000 
      60      0.000      0.000      0.300      0.000 
      61      0.000      0.000      0.300      0.000 
      62      0.000      0.000      0.300      0.000 
      63      0.000      0.000      0.300      0.000 
      64      0.650     -0.250      0.670      0.000 
      65      0.000      0.000      0.300      0.000 
      66      0.000      0.000      0.300      0.000 
      67      0.000      0.000      0.300      0.000 
      68      0.000      0.000      0.300      0.000 
      69      0.000      0.000      0.300      0.000 
      70      0.000      0.000      0.000      0.000 
      71      0.000      0.000      0.300      0.000 
      72      0.000      0.000      0.300      0.000 
      73      0.000      0.000      0.000      0.000 
      74      0.000      0.000      0.000      0.000 
      75      0.000      0.000      0.300      0.000 
      76      0.000      0.000      0.300      0.000 
      77      0.000      0.000      0.300      0.000 
      78      0.000      0.000      0.300      0.000 
      79      0.000      0.000      0.300      0.000 
      80      0.000      0.000      0.300      0.000 
      81      0.000      0.000      0.000      0.000 
      82      0.000      0.000      0.300      0.000 
      83      0.000      0.000      0.300      0.000 
      84      0.000      0.000      0.000      0.000 
      85      0.000      0.000      0.000      0.000 
      86      0.000      0.000      0.300      0.000 
      87      0.000      0.000      0.000      0.000 

Improper Coeffs 

       1      0.000      -1       2 
       2      0.000      -1       2 
       3      0.000      -1       2 
       4      0.000      -1       2 
       5      0.000      -1       2 
       6      0.000      -1       2 
       7      0.000      -1       2 
       8      0.000      -1       2 
       9      0.000      -1       2 
      10      0.000      -1       2 
      11      0.000      -1       2 
      12      0.000      -1       2 
      13      0.000      -1       2 
      14      0.000      -1       2 
      15      0.000      -1       2 
      16      0.000      -1       2 
      17      0.000      -1       2 
      18      0.000      -1       2 
      19      0.000      -1       2 
      20      0.000      -1       2 
      21      0.000      -1       2 
      22      0.000      -1       2 
      23      0.000      -1       2 

Atoms 

     1      1      1 -0.23840000    1.000  1.00000  0.00000
     2      1      2 -0.17820000   -0.518  1.00000  0.00000
     3      1      3 -0.12550000   -1.152  1.00000  1.40796
     4      1      4 -0.14000000   -2.651  0.90831  1.27948
     5      1      5 -0.18440000   -3.202 -0.38509  0.72479
     6      1      6 0.00110000   -4.325 -0.73784  1.68849
     7      1      7 -0.34600000   -4.846  0.51651  2.16315
     8      1      8 0.06840000   -3.740  1.45846  2.20059
     9      1      9 -0.12990000   -3.684  2.30962  3.44010
    10      1     10 -0.23460000   -4.000  1.56476  4.72646
    11      1     11 -0.25540000   -3.399  2.16933  0.92180
    12      1     12 0.08170000    1.368  1.04746 -1.03164
    13      1     13 0.08170000    1.398  0.08541  0.45133
    14      1     14 0.08170000    1.399  1.86391  0.53829
    15      1     15 0.08950000   -0.854  0.12183 -0.56678
    16      1     16 0.08950000   -0.870  1.88037 -0.55207
    17      1     17 0.09590000   -0.851  1.89898  1.95701
    18      1     18 0.09590000   -0.783  0.13578  1.97328
    19      1     19 0.10940000   -2.469 -1.19547  0.65775
    20      1     20 0.10940000   -3.605 -0.20716 -0.28142
    21      1     21 0.10190000   -3.933 -1.28784  2.55667
    22      1     22 0.10190000   -5.115 -1.32589  1.21702
    23      1     23 0.10070000   -4.448  3.09325  3.32418
    24      1     24 0.10070000   -2.720  2.81943  3.53185
    25      1     25 0.08590000   -4.974  1.06673  4.67629
    26      1     26 0.08590000   -4.042  2.27031  5.56786
    27      1     27 0.08590000   -3.242  0.80875  4.94441
    28      1     28 0.13260000   -2.862  3.11164  0.98949
    29      1     29 0.13260000   -4.128  2.15301  0.12109

Bonds 

     1      1      2      1
     2      2      3      2
     3      3      4      3
     4      4      5      4
     5      5      6      5
     6      6      7      6
     7      7      8      4
     8      8      9      8
     9      9     10      9
    10     10     11      4
    11     11     12      1
    12     12     13      1
    13     13     14      1
    14     14     15      2
    15     15     16      2
    16     16     17      3
    17     17     18      3
    18     18     19      5
    19     19     20      5
    20     20     21      6
    21     21     22      6
    22     22     23      9
    23     23     24      9
    24     24     25     10
    25     25     26     10
    26     26     27     10
    27     27     28     11
    28     28     29     11
    29     29      8      7
    30     30     11      8

Angles 

     1      1      1      2      3
     2      2      2      3      4
     3      3      3      4      5
     4      4      4      5      6
     5      5      5      6      7
     6      6      3      4      8
     7      7      4      8      9
     8      8      8      9     10
     9      9      3      4     11
    10     10      2      1     12
    11     11      2      1     13
    12     12      2      1     14
    13     13      1      2     15
    14     14      1      2     16
    15     15      2      3     17
    16     16      2      3     18
    17     17      4      5     19
    18     18      4      5     20
    19     19      5      6     21
    20     20      5      6     22
    21     21      8      9     23
    22     22      8      9     24
    23     23      9     10     25
    24     24      9     10     26
    25     25      9     10     27
    26     26      4     11     28
    27     27      4     11     29
    28     28     23      9     24
    29     29      3      2     15
    30     30     13      1     14
    31     31      8     11     28
    32     32      6      5     19
    33     33      7      6     22
    34     34     21      6     22
    35     35     28     11     29
    36     36     25     10     27
    37     37      8     11     29
    38     38     12      1     14
    39     39      6      7      8
    40     40     26     10     27
    41     41      3      2     16
    42     42      4     11      8
    43     43      4      8     11
    44     44      5      4      8
    45     45      4      3     18
    46     46      7      8      9
    47     47     19      5     20
    48     48      9      8     11
    49     49     12      1     13
    50     50      6      5     20
    51     51      8      4     11
    52     52      7      8     11
    53     53      5      4     11
    54     54      4      8      7
    55     55     25     10     26
    56     56     10      9     24
    57     57     15      2     16
    58     58      4      3     17
    59     59     10      9     23
    60     60     17      3     18
    61     61      7      6     21

Dihedrals

     1      1      4      3      2      1 
     2      2      5      4      3      2 
     3      3      6      5      4      3 
     4      4      7      6      5      4 
     5      5     10      9      8      4 
     6      6     12      1      2      3 
     7      7     25     10      9      8 
     8      8     28     11      4      8 
     9      9     29     11      4      8 
    10     10     29     11      8      9 
    11     11     17      3      2     16 
    12     12     18      3      2     15 
    13     13     27     10      9     23 
    14     14     19      5      6      7 
    15     15     10      9      8      7 
    16     16     22      6      5      4 
    17     17     25     10      9     23 
    18     18      9      8      7      6 
    19     19     17      3      4     11 
    20     20     23      9      8     11 
    21     21      9      8      4      5 
    22     22     13      1      2      3 
    23     23     11      4      3      2 
    24     24     11      4      5      6 
    25     25     27     10      9     24 
    26     26     21      6      7      8 
    27     27     16      2      3      4 
    28     28     15      2      1     12 
    29     29     20      5      4     11 
    30     30     21      6      5     20 
    31     31     20      5      4      3 
    32     32      8      4      5      6 
    33     33     20      5      6      7 
    34     34     24      9      8      4 
    35     35     17      3      2     15 
    36     36     28     11      8      4 
    37     37     28     11      8      7 
    38     38     22      6      7      8 
    39     39      7      8      4      3 
    40     40     24      9      8      7 
    41     41      7      8     11      4 
    42     42     16      2      1     14 
    43     43      6      7      8      4 
    44     44      8      7      6      5 
    45     45     19      5      4     11 
    46     46     11      8      9     10 
    47     47     26     10      9     23 
    48     48     25     10      9     24 
    49     49     15      2      3      4 
    50     50     17      3      4      8 
    51     51     18      3      2      1 
    52     52     23      9      8      4 
    53     53     28     11      8      9 
    54     54     29     11      4      5 
    55     55     18      3      4     11 
    56     56     23      9      8      7 
    57     57      8      4      3      2 
    58     58     28     11      4      5 
    59     59     18      3      4      5 
    60     60     19      5      4      3 
    61     61     27     10      9      8 
    62     62     24      9      8     11 
    63     63     17      3      4      5 
    64     64     11      8      7      6 
    65     65     26     10      9      8 
    66     66     15      2      1     13 
    67     67     16      2      1     12 
    68     68     18      3      2     16 
    69     69     18      3      4      8 
    70     70     28     11      4      3 
    71     71     21      6      5      4 
    72     72     22      6      5     20 
    73     73      9      8      4      3 
    74     74      7      8      4      5 
    75     75     21      6      5     19 
    76     76     22      6      5     19 
    77     77     19      5      4      8 
    78     78     26     10      9     24 
    79     79     16      2      1     13 
    80     80     15      2      1     14 
    81     81      9      8     11      4 
    82     82     17      3      2      1 
    83     83     14      1      2      3 
    84     84     29     11      8      7 
    85     85     29     11      4      3 
    86     86     20      5      4      8 
    87     87     29     11      8      4 

Impropers

     1      1      4      3      5      8 
     2      2      8      9      4      7 
     3      3      4     11      5      3 
     4      4      1      2     12     13 
     5      5      1      2     12     14 
     6      6      2      1      3     15 
     7      7      2      1      3     16 
     8      8      3     17      2      4 
     9      9      3     18      4      2 
    10     10      5     19      4      6 
    11     11      5      4     20      6 
    12     12      6      5     21      7 
    13     13      6      5     22      7 
    14     14      9     10     23      8 
    15     15      9     10      8     24 
    16     16     10      9     26     25 
    17     17     10      9     27     25 
    18     18      4     11      8      3 
    19     19      8     11      4      7 
    20     20      8     11      4      9 
    21     21      4     11      8      5 
    22     22      4     11      8      5 
    23     23      4     11      8      3 

