LAMMPS data file Created by LigParGen - (Written by Leela S. Dodda)

      34 atoms
      35 bonds
      72 angles
     106 dihedrals
      27 impropers
 
      34 atom types
      35 bond types
      72 angle types
     106 dihedral types
      27 improper types
 
   -3.425130    46.574870 xlo xhi
    0.057160    50.057160 ylo yhi
   -4.952550    45.047450 zlo zhi

Masses

       1     12.011  
       2     12.011  
       3     12.011  
       4     12.011  
       5     12.011  
       6     12.011  
       7     12.011  
       8     12.011  
       9     12.011  
      10     12.011  
      11     12.011  
      12     12.011  
      13      1.008  
      14      1.008  
      15      1.008  
      16      1.008  
      17      1.008  
      18      1.008  
      19      1.008  
      20      1.008  
      21      1.008  
      22      1.008  
      23      1.008  
      24      1.008  
      25      1.008  
      26      1.008  
      27      1.008  
      28      1.008  
      29      1.008  
      30      1.008  
      31      1.008  
      32      1.008  
      33      1.008  
      34      1.008  

Pair Coeffs 

       1      0.066  3.5000000 
       2      0.066  3.5000000 
       3      0.066  3.5000000 
       4      0.066  3.5000000 
       5      0.083  3.4500000 
       6      0.066  3.5000000 
       7      0.083  3.4500000 
       8      0.083  3.4500000 
       9      0.066  3.5000000 
      10      0.083  3.4500000 
      11      0.083  3.4500000 
      12      0.083  3.4500000 
      13      0.030  2.5000000 
      14      0.030  2.5000000 
      15      0.030  2.5000000 
      16      0.030  2.5000000 
      17      0.030  2.5000000 
      18      0.030  2.5000000 
      19      0.030  2.5000000 
      20      0.030  2.5000000 
      21      0.030  2.5000000 
      22      0.030  2.5000000 
      23      0.030  2.5000000 
      24      0.030  2.5000000 
      25      0.030  2.5000000 
      26      0.030  2.5000000 
      27      0.030  2.5000000 
      28      0.030  2.5000000 
      29      0.030  2.5000000 
      30      0.030  2.5000000 
      31      0.030  2.5000000 
      32      0.030  2.5000000 
      33      0.030  2.5000000 
      34      0.030  2.5000000 

Bond Coeffs 

       1   268.0000     1.5290 
       2   268.0000     1.5290 
       3   268.0000     1.5290 
       4   280.0000     1.5100 
       5   280.0000     1.5100 
       6   260.0000     1.5200 
       7   260.0000     1.5200 
       8   280.0000     1.5100 
       9   260.0000     1.5200 
      10   260.0000     1.5200 
      11   260.0000     1.5200 
      12   340.0000     1.0900 
      13   340.0000     1.0900 
      14   340.0000     1.0900 
      15   340.0000     1.0900 
      16   340.0000     1.0900 
      17   340.0000     1.0900 
      18   340.0000     1.0900 
      19   340.0000     1.0900 
      20   340.0000     1.0900 
      21   340.0000     1.0900 
      22   340.0000     1.0900 
      23   340.0000     1.0900 
      24   340.0000     1.0880 
      25   340.0000     1.0880 
      26   340.0000     1.0880 
      27   340.0000     1.0900 
      28   340.0000     1.0900 
      29   340.0000     1.0900 
      30   340.0000     1.0880 
      31   340.0000     1.0880 
      32   340.0000     1.0880 
      33   340.0000     1.0880 
      34   260.0000     1.5200 
      35   260.0000     1.5200 

Angle Coeffs 

       1     58.350    112.700
       2     58.350    112.700
       3     58.350    112.700
       4     35.000    114.300
       5     37.500    117.200
       6     30.000     83.000
       7     37.500    117.200
       8     37.500    117.200
       9     30.000     83.000
      10     30.000     83.000
      11     37.500    110.700
      12     37.500    110.700
      13     37.500    110.700
      14     37.500    110.700
      15     37.500    110.700
      16     37.500    110.700
      17     37.500    110.700
      18     37.500    110.700
      19     37.500    110.700
      20     37.500    110.700
      21     37.500    110.700
      22     37.500    110.700
      23     37.500    117.200
      24     37.500    117.200
      25     37.500    117.200
      26     37.500    110.700
      27     37.500    110.700
      28     37.500    110.700
      29     37.500    117.200
      30     37.500    117.200
      31     37.500    117.200
      32     37.500    117.200
      33     33.000    107.800
      34     33.000    107.800
      35     37.500    117.200
      36     33.000    107.800
      37     37.500    117.200
      38     37.500    117.200
      39     37.500    117.200
      40     37.500    117.200
      41     37.500    117.200
      42     37.500    117.200
      43     35.000    114.300
      44     33.000    107.800
      45     37.500    110.700
      46     30.000     83.000
      47     33.000    107.800
      48     30.000     83.000
      49     30.000     83.000
      50     30.000     83.000
      51     37.500    117.200
      52     37.500    117.200
      53     58.350    112.700
      54     30.000     83.000
      55     33.000    107.800
      56     35.000    114.300
      57     33.000    107.800
      58     33.000    107.800
      59     37.500    110.700
      60     37.500    110.700
      61     33.000    107.800
      62     37.500    117.200
      63     33.000    107.800
      64     33.000    107.800
      65     35.000    114.300
      66     37.500    110.700
      67     30.000     83.000
      68     33.000    107.800
      69     30.000     83.000
      70     33.000    107.800
      71     35.000    114.300
      72     30.000     83.000

Dihedral Coeffs  

       1      1.300     -0.200      0.200      0.000 
       2      1.300     -0.200      0.200      0.000 
       3      0.000      0.000      0.000      0.000 
       4      0.000      0.000      0.000      0.000 
       5      0.000      0.000      0.300      0.000 
       6      0.000      0.000      0.300      0.000 
       7      0.000      0.000      0.300      0.000 
       8      0.000      0.000      0.300      0.000 
       9      0.000      0.000      0.000      0.000 
      10      0.000      0.000      0.000      0.000 
      11      0.000      0.000      0.000      0.000 
      12      0.000      0.000      0.000      0.000 
      13      0.000      0.000      0.300      0.000 
      14      0.000      0.000      0.300      0.000 
      15      0.000      0.000      0.000      0.000 
      16      0.000      0.000      0.000      0.000 
      17      0.000      0.000      0.300      0.000 
      18      0.000      0.000      0.000      0.000 
      19      0.000      0.000      0.000      0.000 
      20      0.000      0.000      0.300      0.000 
      21      0.000      0.000      0.300      0.000 
      22      0.000      0.000      0.000      0.000 
      23      0.000      0.000      0.000      0.000 
      24      0.000      0.000      0.300      0.000 
      25      0.000      0.000      0.300      0.000 
      26      0.000      0.000      0.000      0.000 
      27      0.000      0.000      0.000      0.000 
      28      0.000      0.000      0.300      0.000 
      29      0.000      0.000      0.300      0.000 
      30      0.000      0.000      0.000      0.000 
      31      0.000      0.000      0.000      0.000 
      32      0.000      0.000      0.300      0.000 
      33      0.000      0.000      0.300      0.000 
      34      0.000      0.000      0.000      0.000 
      35      0.000      0.000      0.000      0.000 
      36      0.000      0.000      0.300      0.000 
      37      0.000      0.000      0.000      0.000 
      38      0.000      0.000      0.300      0.000 
      39      0.000      0.000      0.300      0.000 
      40      1.300     -0.200      0.200      0.000 
      41      0.000      0.000      0.000      0.000 
      42      0.000      0.000      0.000      0.000 
      43      0.000      0.000      0.300      0.000 
      44      0.000      0.000      0.000      0.000 
      45      0.000      0.000      0.300      0.000 
      46      0.000      0.000      0.300      0.000 
      47      0.000      0.000      0.000      0.000 
      48      0.000      0.000      0.000      0.000 
      49      0.000      0.000      0.000      0.000 
      50      0.000      0.000      0.300      0.000 
      51      0.000      0.000      0.300      0.000 
      52      0.000      0.000      0.000      0.000 
      53      0.000      0.000      0.300      0.000 
      54      0.000      0.000      0.300      0.000 
      55      0.000      0.000      0.000      0.000 
      56      0.000      0.000      0.300      0.000 
      57      0.000      0.000      0.000      0.000 
      58      0.000      0.000      0.300      0.000 
      59      0.000      0.000      0.000      0.000 
      60      0.000      0.000      0.000      0.000 
      61      0.000      0.000      0.000      0.000 
      62      0.000      0.000      0.300      0.000 
      63      0.000      0.000      0.000      0.000 
      64      0.000      0.000      0.300      0.000 
      65      0.000      0.000      0.000      0.000 
      66      0.000      0.000      0.000      0.000 
      67      0.000      0.000      0.000      0.000 
      68      0.000      0.000      0.300      0.000 
      69      0.000      0.000      0.300      0.000 
      70      0.000      0.000      0.000      0.000 
      71      0.000      0.000      0.000      0.000 
      72      0.000      0.000      0.300      0.000 
      73      0.000      0.000      0.300      0.000 
      74      0.000      0.000      0.300      0.000 
      75      0.000      0.000      0.300      0.000 
      76      0.000      0.000      0.000      0.000 
      77      0.000      0.000      0.000      0.000 
      78      0.000      0.000      0.300      0.000 
      79      0.000      0.000      0.300      0.000 
      80      0.000      0.000      0.300      0.000 
      81      0.000      0.000      0.000      0.000 
      82      0.000      0.000      0.000      0.000 
      83      0.000      0.000      0.000      0.000 
      84      0.000      0.000      0.000      0.000 
      85      0.000      0.000      0.300      0.000 
      86      0.000      0.000      0.000      0.000 
      87      0.000      0.000      0.000      0.000 
      88      0.000      0.000      0.000      0.000 
      89      0.000      0.000      0.300      0.000 
      90      0.000      0.000      0.000      0.000 
      91      0.000      0.000      0.300      0.000 
      92      0.000      0.000      0.300      0.000 
      93      0.000      0.000      0.000      0.000 
      94      0.000      0.000      0.300      0.000 
      95      0.000      0.000      0.000      0.000 
      96      0.000      0.000      0.000      0.000 
      97      0.000      0.000      0.000      0.000 
      98      0.000      0.000      0.300      0.000 
      99      0.000      0.000      0.300      0.000 
     100      0.000      0.000      0.000      0.000 
     101      0.000      0.000      0.300      0.000 
     102      0.000      0.000      0.300      0.000 
     103      0.000      0.000      0.300      0.000 
     104      0.000      0.000      0.000      0.000 
     105      0.000      0.000      0.300      0.000 
     106      0.000      0.000      0.000      0.000 

Improper Coeffs 

       1      0.000      -1       2 
       2      0.000      -1       2 
       3      0.000      -1       2 
       4      0.000      -1       2 
       5      0.000      -1       2 
       6      0.000      -1       2 
       7      0.000      -1       2 
       8      0.000      -1       2 
       9      0.000      -1       2 
      10      0.000      -1       2 
      11      0.000      -1       2 
      12      0.000      -1       2 
      13      0.000      -1       2 
      14      0.000      -1       2 
      15      0.000      -1       2 
      16      0.000      -1       2 
      17      0.000      -1       2 
      18      0.000      -1       2 
      19      0.000      -1       2 
      20      0.000      -1       2 
      21      0.000      -1       2 
      22      0.000      -1       2 
      23      0.000      -1       2 
      24      0.000      -1       2 
      25      0.000      -1       2 
      26      0.000      -1       2 
      27      0.000      -1       2 

Atoms 

     1      1      1 -0.23430000    1.000  1.00000  0.00000
     2      1      2 -0.11480000   -0.530  1.00000  0.00000
     3      1      3 -0.23900000   -1.001  1.00000  1.46162
     4      1      4 -0.13870000   -1.167  2.18894 -0.76336
     5      1      5 -0.03040000   -0.796  2.29476 -2.27171
     6      1      6 -0.22160000   -1.215  1.03623 -3.04096
     7      1      7 -0.18320000    0.644  2.82879 -2.58960
     8      1      8 -0.11140000    0.074  4.26285 -2.50592
     9      1      9 -0.22650000    0.767  5.27630 -3.38791
    10      1     10 -0.12810000   -1.201  3.60660 -2.93992
    11      1     11 -0.22640000   -1.839  3.77981 -4.29349
    12      1     12 -0.23310000   -2.560  4.21349 -3.04029
    13      1     13 0.08130000    1.398  0.24911  0.69118
    14      1     14 0.08130000    1.398  1.97352  0.30792
    15      1     15 0.08130000    1.393  0.74200 -0.98751
    16      1     16 0.09640000   -0.864  0.05716 -0.44684
    17      1     17 0.08100000   -0.656  1.89417  1.98681
    18      1     18 0.08100000   -0.610  0.12594  1.98953
    19      1     19 0.08100000   -2.097  0.96470  1.51762
    20      1     20 0.09190000   -0.916  3.11711 -0.23595
    21      1     21 0.09190000   -2.260  2.09221 -0.68547
    22      1     22 0.08350000   -0.717  0.14262 -2.65464
    23      1     23 0.08350000   -0.955  1.10218 -4.10305
    24      1     24 0.08350000   -2.295  0.88018 -2.96830
    25      1     25 0.10230000    1.015  2.54149 -3.58344
    26      1     26 0.10230000    1.452  2.65505 -1.87921
    27      1     27 0.12050000    0.010  4.65345 -1.48231
    28      1     28 0.08310000    0.892  4.91677 -4.41443
    29      1     29 0.08310000    1.764  5.49454 -2.98889
    30      1     30 0.08310000    0.206  6.21549 -3.41463
    31      1     31 0.12450000   -2.222  2.91562 -4.82149
    32      1     32 0.12450000   -1.464  4.55528 -4.95255
    33      1     33 0.12330000   -3.425  3.62830 -2.74942
    34      1     34 0.12330000   -2.669  5.27954 -2.87831

Bonds 

     1      1      2      1
     2      2      3      2
     3      3      4      2
     4      4      5      4
     5      5      6      5
     6      6      7      5
     7      7      8      7
     8      8      9      8
     9      9     10      5
    10     10     11     10
    11     11     12     10
    12     12     13      1
    13     13     14      1
    14     14     15      1
    15     15     16      2
    16     16     17      3
    17     17     18      3
    18     18     19      3
    19     19     20      4
    20     20     21      4
    21     21     22      6
    22     22     23      6
    23     23     24      6
    24     24     25      7
    25     25     26      7
    26     26     27      8
    27     27     28      9
    28     28     29      9
    29     29     30      9
    30     30     31     11
    31     31     32     11
    32     32     33     12
    33     33     34     12
    34     34     10      8
    35     35     12     11

Angles 

     1      1      1      2      3
     2      2      1      2      4
     3      3      2      4      5
     4      4      4      5      6
     5      5      4      5      7
     6      6      5      7      8
     7      7      7      8      9
     8      8      4      5     10
     9      9      5     10     11
    10     10      5     10     12
    11     11      2      1     13
    12     12      2      1     14
    13     13      2      1     15
    14     14      1      2     16
    15     15      2      3     17
    16     16      2      3     18
    17     17      2      3     19
    18     18      2      4     20
    19     19      2      4     21
    20     20      5      6     22
    21     21      5      6     23
    22     22      5      6     24
    23     23      5      7     25
    24     24      5      7     26
    25     25      7      8     27
    26     26      8      9     28
    27     27      8      9     29
    28     28      8      9     30
    29     29     10     11     31
    30     30     10     11     32
    31     31     10     12     33
    32     32     10     12     34
    33     33     29      9     30
    34     34     13      1     14
    35     35     12     11     32
    36     36     22      6     24
    37     37      6      5     10
    38     38     11     12     33
    39     39     12     11     31
    40     40     10      8     27
    41     41      9      8     10
    42     42      8      7     26
    43     43     31     11     32
    44     44     28      9     30
    45     45      3      2     16
    46     46      5     10      8
    47     47     14      1     15
    48     48      8     10     11
    49     49     10     11     12
    50     50      7      5     10
    51     51      8      7     25
    52     52      6      5      7
    53     53      3      2      4
    54     54      7      8     10
    55     55     18      3     19
    56     56     25      7     26
    57     57     28      9     29
    58     58     23      6     24
    59     59      5      4     21
    60     60      5      4     20
    61     61     17      3     19
    62     62     11     12     34
    63     63     22      6     23
    64     64     17      3     18
    65     65     33     12     34
    66     66      4      2     16
    67     67     10     12     11
    68     68     13      1     15
    69     69     11     10     12
    70     70     20      4     21
    71     71      9      8     27
    72     72      8     10     12

Dihedrals

     1      1      5      4      2      1 
     2      2      6      5      4      2 
     3      3      8      7      5      4 
     4      4      9      8      7      5 
     5      5     13      1      2      3 
     6      6     17      3      2      1 
     7      7     22      6      5      4 
     8      8     28      9      8      7 
     9      9     31     11     10     12 
    10     10     32     11     10     12 
    11     11     33     12     10     11 
    12     12     34     12     10     11 
    13     13     23      6      5      4 
    14     14     17      3      2     16 
    15     15     25      7      5      6 
    16     16     12     10      5      7 
    17     17     16      2      1     14 
    18     18      7      5      4      2 
    19     19     10      5      4      2 
    20     20     28      9      8     10 
    21     21     22      6      5     10 
    22     22     31     11     10      8 
    23     23     12     10      8      7 
    24     24     30      9      8     10 
    25     25     19      3      2     16 
    26     26     27      8     10     11 
    27     27     26      7      5      6 
    28     28     29      9      8      7 
    29     29     23      6      5      7 
    30     30     12     10      5      4 
    31     31     27      8      7     25 
    32     32     17      3      2      4 
    33     33     20      4      2      1 
    34     34     25      7      5     10 
    35     35     26      7      8     10 
    36     36     19      3      2      1 
    37     37     26      7      5      4 
    38     38     21      4      2      3 
    39     39     21      4      5     10 
    40     40      5      4      2      3 
    41     41     34     12     11     32 
    42     42     33     12     11     10 
    43     43     21      4      2     16 
    44     44     34     12     10      5 
    45     45     30      9      8     27 
    46     46     30      9      8      7 
    47     47     25      7      5      4 
    48     48     27      8      7     26 
    49     49     33     12     10      5 
    50     50     20      4      2     16 
    51     51     20      4      2      3 
    52     52      8     10      5      4 
    53     53     18      3      2      1 
    54     54     24      6      5      7 
    55     55     34     12     11     10 
    56     56     20      4      5      6 
    57     57     27      8     10     12 
    58     58     29      9      8     10 
    59     59     27      8     10      5 
    60     60     34     12     11     31 
    61     61     33     12     11     32 
    62     62     24      6      5      4 
    63     63     11     10      5      4 
    64     64     22      6      5      7 
    65     65     12     10      8      9 
    66     66     32     11     10      8 
    67     67     32     11     10      5 
    68     68     21      4      2      1 
    69     69     29      9      8     27 
    70     70     12     10      5      6 
    71     71     11     10      5      7 
    72     72     15      1      2      3 
    73     73     14      1      2      4 
    74     74     20      4      5     10 
    75     75     18      3      2     16 
    76     76     11     10      8      7 
    77     77     27      8      7      5 
    78     78     16      2      4      5 
    79     79     28      9      8     27 
    80     80     19      3      2      4 
    81     81     26      7      5     10 
    82     82     26      7      8      9 
    83     83     34     12     10      8 
    84     84     25      7      8     10 
    85     85     24      6      5     10 
    86     86     33     12     11     31 
    87     87      8      7      5      6 
    88     88     32     11     12     10 
    89     89     16      2      1     13 
    90     90      8     10      5      6 
    91     91     20      4      5      7 
    92     92     21      4      5      6 
    93     93     11     10      8      9 
    94     94     18      3      2      4 
    95     95     33     12     10      8 
    96     96     31     11     10      5 
    97     97     31     11     12     10 
    98     98     14      1      2      3 
    99     99     13      1      2      4 
   100    100      9      8     10      5 
   101    101     21      4      5      7 
   102    102     15      1      2      4 
   103    103     16      2      1     15 
   104    104     25      7      8      9 
   105    105     23      6      5     10 
   106    106     11     10      5      6 

Impropers

     1      1      2      1      3      4 
     2      2      5      4      6      7 
     3      3      5     10      4      6 
     4      4     10     11      5      8 
     5      5     10     12      5      8 
     6      6      1      2     13     14 
     7      7      1      2     13     15 
     8      8      2      1      3     16 
     9      9      3     17     18      2 
    10     10      3     17      2     19 
    11     11      4      2     20      5 
    12     12      4      2     21      5 
    13     13      6      5     23     22 
    14     14      6     22      5     24 
    15     15      7     25      5      8 
    16     16      7     26      5      8 
    17     17      8      9     27      7 
    18     18      9     28     29      8 
    19     19      9     28     30      8 
    20     20     10      5      7      8 
    21     21     10     11     12      5 
    22     22     10     11     12      5 
    23     23     10      5      7      8 
    24     24     10      5      7      8 
    25     25     10     11     12      8 
    26     26     10      5      7      8 
    27     27     10     11     12      8 

