LAMMPS data file Created by LigParGen - (Written by Leela S. Dodda)

      17 atoms
      16 bonds
      30 angles
      36 dihedrals
      10 impropers
 
      17 atom types
      16 bond types
      30 angle types
      36 dihedral types
      10 improper types
 
   -3.807100    46.192900 xlo xhi
   -0.449320    49.550680 ylo yhi
   -1.027420    48.972580 zlo zhi

Masses

       1     12.011  
       2     12.011  
       3     12.011  
       4     12.011  
       5     35.450  
       6     35.450  
       7     12.011  
       8     18.998  
       9     18.998  
      10     18.998  
      11      1.008  
      12      1.008  
      13      1.008  
      14      1.008  
      15      1.008  
      16      1.008  
      17      1.008  

Pair Coeffs 

       1      0.066  3.5000000 
       2      0.066  3.5000000 
       3      0.066  3.5000000 
       4      0.066  3.5000000 
       5      0.300  3.4000000 
       6      0.300  3.4000000 
       7      0.066  3.5000000 
       8      0.060  2.9000000 
       9      0.060  2.9000000 
      10      0.060  2.9000000 
      11      0.030  2.5000000 
      12      0.030  2.5000000 
      13      0.030  2.5000000 
      14      0.030  2.5000000 
      15      0.030  2.5000000 
      16      0.030  2.5000000 
      17      0.030  2.5000000 

Bond Coeffs 

       1   268.0000     1.5290 
       2   268.0000     1.5290 
       3   268.0000     1.5290 
       4   245.0000     1.7810 
       5   245.0000     1.7810 
       6   268.0000     1.5290 
       7   367.0000     1.3600 
       8   367.0000     1.3600 
       9   367.0000     1.3600 
      10   340.0000     1.0900 
      11   340.0000     1.0900 
      12   340.0000     1.0900 
      13   340.0000     1.0900 
      14   340.0000     1.0900 
      15   340.0000     1.0900 
      16   340.0000     1.0900 

Angle Coeffs 

       1     58.350    112.700
       2     58.350    112.700
       3     69.000    109.800
       4     69.000    109.800
       5     58.350    112.700
       6     50.000    109.500
       7     50.000    109.500
       8     50.000    109.500
       9     37.500    110.700
      10     37.500    110.700
      11     37.500    110.700
      12     37.500    110.700
      13     37.500    110.700
      14     37.500    110.700
      15     37.500    110.700
      16     78.000    111.700
      17     37.500    110.700
      18     33.000    107.800
      19     69.000    109.800
      20     37.500    110.700
      21     77.000    109.100
      22     69.000    109.800
      23     77.000    109.100
      24     77.000    109.100
      25     33.000    107.800
      26     33.000    107.800
      27     33.000    107.800
      28     37.500    110.700
      29     37.500    110.700
      30     33.000    107.800

Dihedral Coeffs  

       1      1.300     -0.200      0.200      0.000 
       2      0.000      0.000      0.400      0.000 
       3      0.000      0.000      0.000      0.000 
       4      0.000      0.000      0.300      0.000 
       5      0.000      0.000      0.400      0.000 
       6      0.000      0.000      0.300      0.000 
       7      0.000      0.000      0.300      0.000 
       8      0.000      0.000      0.300      0.000 
       9      0.000      0.000      0.300      0.000 
      10      0.000      0.000      0.000      0.000 
      11      0.000      0.000      0.400      0.000 
      12      0.000      0.000      0.300      0.000 
      13      0.000      0.000      0.300      0.000 
      14      0.000      0.000      0.400      0.000 
      15      0.000      0.000      0.300      0.000 
      16      0.000      0.000      0.300      0.000 
      17      0.000      0.000      0.000      0.000 
      18      0.000      0.000      0.000      0.000 
      19      0.000      0.000      0.000      0.000 
      20      0.000      0.000      0.300      0.000 
      21      0.000      0.000      0.300      0.000 
      22      0.000      0.000      0.400      0.000 
      23      0.000      0.000      0.300      0.000 
      24      0.000      0.000      0.300      0.000 
      25      0.000      0.000      0.300      0.000 
      26      0.000      0.000      0.300      0.000 
      27      0.000      0.000      0.000      0.000 
      28      1.300     -0.200      0.200      0.000 
      29      0.000      0.000      0.000      0.000 
      30      0.000      0.000      0.300      0.000 
      31      0.000      0.000      0.000      0.000 
      32      0.000      0.000      0.400      0.000 
      33      0.000      0.000      0.300      0.000 
      34      0.000      0.000      0.300      0.000 
      35      0.000      0.000      0.000      0.000 
      36      0.000      0.000      0.300      0.000 

Improper Coeffs 

       1      0.000      -1       2 
       2      0.000      -1       2 
       3      0.000      -1       2 
       4      0.000      -1       2 
       5      0.000      -1       2 
       6      0.000      -1       2 
       7      0.000      -1       2 
       8      0.000      -1       2 
       9      0.000      -1       2 
      10      0.000      -1       2 

Atoms 

     1      1      1 -0.24010000    1.000  1.00000  0.00000
     2      1      2 -0.17680000   -0.522  1.00000  0.00000
     3      1      3 -0.18130000   -1.071  1.00000  1.43379
     4      1      4 0.22600000   -2.614  0.99825  1.58604
     5      1      5 -0.18610000   -3.300  2.44912  0.73774
     6      1      6 -0.18610000   -3.298 -0.44932  0.73364
     7      1      7 0.43930000   -3.012  0.99858  3.09131
     8      1      8 -0.14360000   -1.922  0.92054  3.89982
     9      1      9 -0.14360000   -3.675  2.12136  3.46314
    10      1     10 -0.14360000   -3.807 -0.04538  3.42983
    11      1     11 0.08820000    1.378  0.99870 -1.02742
    12      1     12 0.08820000    1.392  0.11160  0.50661
    13      1     13 0.08820000    1.392  1.88819  0.50487
    14      1     14 0.10800000   -0.867  0.11635 -0.54690
    15      1     15 0.10800000   -0.868  1.88201 -0.54877
    16      1     16 0.12770000   -0.667  1.87711  1.95687
    17      1     17 0.12770000   -0.668  0.12006  1.95293

Bonds 

     1      1      2      1
     2      2      3      2
     3      3      4      3
     4      4      5      4
     5      5      6      4
     6      6      7      4
     7      7      8      7
     8      8      9      7
     9      9     10      7
    10     10     11      1
    11     11     12      1
    12     12     13      1
    13     13     14      2
    14     14     15      2
    15     15     16      3
    16     16     17      3

Angles 

     1      1      1      2      3
     2      2      2      3      4
     3      3      3      4      5
     4      4      3      4      6
     5      5      3      4      7
     6      6      4      7      8
     7      7      4      7      9
     8      8      4      7     10
     9      9      2      1     11
    10     10      2      1     12
    11     11      2      1     13
    12     12      1      2     14
    13     13      1      2     15
    14     14      2      3     16
    15     15      2      3     17
    16     16      5      4      6
    17     17      3      2     14
    18     18     11      1     13
    19     19      5      4      7
    20     20      3      2     15
    21     21      8      7     10
    22     22      6      4      7
    23     23      9      7     10
    24     24      8      7      9
    25     25     11      1     12
    26     26     12      1     13
    27     27     14      2     15
    28     28      4      3     16
    29     29      4      3     17
    30     30     16      3     17

Dihedrals

     1      1      4      3      2      1 
     2      2      5      4      3      2 
     3      3      8      7      4      3 
     4      4     11      1      2      3 
     5      5     16      3      4      6 
     6      6     15      2      3      4 
     7      7     14      2      1     13 
     8      8     15      2      1     12 
     9      9     17      3      2     14 
    10     10     10      7      4      5 
    11     11     17      3      4      6 
    12     12     16      3      4      7 
    13     13     17      3      2     15 
    14     14      6      4      3      2 
    15     15     14      2      1     11 
    16     16     12      1      2      3 
    17     17      9      7      4      3 
    18     18      8      7      4      6 
    19     19      9      7      4      5 
    20     20     16      3      2      1 
    21     21     14      2      3      4 
    22     22     17      3      4      5 
    23     23     17      3      2      1 
    24     24     17      3      4      7 
    25     25     16      3      2     14 
    26     26     13      1      2      3 
    27     27      8      7      4      5 
    28     28      7      4      3      2 
    29     29      9      7      4      6 
    30     30     16      3      2     15 
    31     31     10      7      4      6 
    32     32     16      3      4      5 
    33     33     15      2      1     11 
    34     34     14      2      1     12 
    35     35     10      7      4      3 
    36     36     15      2      1     13 

Impropers

     1      1      4      3      5      6 
     2      2      4      3      5      7 
     3      3      7      9      4      8 
     4      4      7     10      4      8 
     5      5      1      2     11     12 
     6      6      1      2     11     13 
     7      7      2      1      3     14 
     8      8      2      1      3     15 
     9      9      3      2      4     16 
    10     10      3     17      2      4 

