LAMMPS data file Created by LigParGen - (Written by Leela S. Dodda)

      40 atoms
      39 bonds
      72 angles
      88 dihedrals
      23 impropers
 
      40 atom types
      39 bond types
      72 angle types
      88 dihedral types
      23 improper types
 
   -7.780640    42.219360 xlo xhi
   -1.404700    48.595300 ylo yhi
   -1.040400    48.959600 zlo zhi

Masses

       1     12.011  
       2     15.999  
       3     12.011  
       4     12.011  
       5     15.999  
       6     12.011  
       7     15.999  
       8     15.999  
       9     12.011  
      10     12.011  
      11     12.011  
      12     12.011  
      13     12.011  
      14     12.011  
      15     32.060  
      16     12.011  
      17     15.999  
      18     15.999  
      19      1.008  
      20      1.008  
      21      1.008  
      22      1.008  
      23      1.008  
      24      1.008  
      25      1.008  
      26      1.008  
      27      1.008  
      28      1.008  
      29      1.008  
      30      1.008  
      31      1.008  
      32      1.008  
      33      1.008  
      34      1.008  
      35      1.008  
      36      1.008  
      37      1.008  
      38      1.008  
      39      1.008  
      40      1.008  

Pair Coeffs 

       1      0.066  3.5000000 
       2      0.140  2.9000000 
       3      0.066  3.5000000 
       4      0.066  3.5000000 
       5      0.140  2.9000000 
       6      0.070  3.5500000 
       7      0.210  2.9600000 
       8      0.140  2.9000000 
       9      0.066  3.5000000 
      10      0.066  3.5000000 
      11      0.066  3.5000000 
      12      0.066  3.5000000 
      13      0.066  3.5000000 
      14      0.066  3.5000000 
      15      0.250  3.5500000 
      16      0.066  3.5000000 
      17      0.170  2.9600000 
      18      0.170  2.9600000 
      19      0.030  2.5000000 
      20      0.030  2.5000000 
      21      0.030  2.5000000 
      22      0.030  2.5000000 
      23      0.030  2.5000000 
      24      0.030  2.5000000 
      25      0.030  2.5000000 
      26      0.030  2.5000000 
      27      0.030  2.5000000 
      28      0.030  2.5000000 
      29      0.030  2.5000000 
      30      0.030  2.5000000 
      31      0.030  2.5000000 
      32      0.030  2.5000000 
      33      0.030  2.5000000 
      34      0.030  2.5000000 
      35      0.030  2.5000000 
      36      0.030  2.5000000 
      37      0.030  2.5000000 
      38      0.030  2.5000000 
      39      0.030  2.5000000 
      40      0.030  2.5000000 

Bond Coeffs 

       1   320.0000     1.4100 
       2   320.0000     1.4100 
       3   268.0000     1.5290 
       4   320.0000     1.4100 
       5   214.0000     1.3270 
       6   570.0000     1.2290 
       7   214.0000     1.3270 
       8   320.0000     1.4100 
       9   268.0000     1.5290 
      10   268.0000     1.5290 
      11   268.0000     1.5290 
      12   268.0000     1.5290 
      13   268.0000     1.5290 
      14   340.0000     1.7700 
      15   340.0000     1.7700 
      16   700.0000     1.4400 
      17   700.0000     1.4400 
      18   340.0000     1.0900 
      19   340.0000     1.0900 
      20   340.0000     1.0900 
      21   340.0000     1.0900 
      22   340.0000     1.0900 
      23   340.0000     1.0900 
      24   340.0000     1.0900 
      25   340.0000     1.0900 
      26   340.0000     1.0900 
      27   340.0000     1.0900 
      28   340.0000     1.0900 
      29   340.0000     1.0900 
      30   340.0000     1.0900 
      31   340.0000     1.0900 
      32   340.0000     1.0900 
      33   340.0000     1.0900 
      34   340.0000     1.0900 
      35   340.0000     1.0900 
      36   340.0000     1.0900 
      37   340.0000     1.0900 
      38   340.0000     1.0900 
      39   340.0000     1.0900 

Angle Coeffs 

       1     60.000    109.500
       2     50.000    109.500
       3     50.000    109.500
       4     83.000    116.900
       5     83.000    123.400
       6     69.900    118.180
       7     83.000    116.900
       8     50.000    109.500
       9     50.000    109.500
      10     58.350    112.700
      11     58.350    112.700
      12     58.350    112.700
      13     50.000    108.600
      14     62.000    102.000
      15     74.000    108.900
      16     74.000    108.900
      17     35.000    109.500
      18     35.000    109.500
      19     35.000    109.500
      20     35.000    109.500
      21     35.000    109.500
      22     37.500    110.700
      23     37.500    110.700
      24     35.000    109.500
      25     37.500    110.700
      26     37.500    110.700
      27     37.500    110.700
      28     37.500    110.700
      29     37.500    110.700
      30     37.500    110.700
      31     37.500    110.700
      32     37.500    110.700
      33     37.500    110.700
      34     37.500    110.700
      35     37.500    110.700
      36     35.000    109.500
      37     35.000    109.500
      38     35.000    109.500
      39     33.000    107.800
      40     33.000    107.800
      41     33.000    107.800
      42     33.000    107.800
      43     33.000    107.800
      44     33.000    107.800
      45     35.000    109.500
      46     37.500    110.700
      47     37.500    110.700
      48     37.500    110.700
      49     33.000    107.800
      50     37.500    110.700
      51     37.500    110.700
      52     37.500    110.700
      53     33.000    107.800
      54     37.500    110.700
      55     33.000    107.800
      56     33.000    107.800
      57     33.000    107.800
      58     35.000    109.500
      59     83.000    123.400
      60     33.000    107.800
      61     74.000    108.900
      62     33.000    107.800
      63     58.350    112.700
      64     35.000    109.500
      65     58.350    112.700
      66     33.000    107.800
      67     35.000    109.500
      68     33.000    107.800
      69     74.000    108.900
      70     37.500    110.700
      71     33.000    107.800
      72    104.000    119.000

Dihedral Coeffs  

       1      0.650     -0.250      0.670      0.000 
       2     -0.550      0.000      0.000      0.000 
       3     -1.220     -0.126      0.422      0.000 
       4      0.000      5.124      0.000      0.000 
       5      4.669      5.124      0.000      0.000 
       6     -1.220     -0.126      0.422      0.000 
       7      1.711     -0.500      0.663      0.000 
       8      1.300     -0.200      0.200      0.000 
       9      1.262     -0.198      0.465      0.000 
      10      0.000      0.000      0.000      0.000 
      11      0.000      0.000      0.760      0.000 
      12      0.000      0.000      0.468      0.000 
      13      0.000      0.000      0.300      0.000 
      14      0.000      0.000      0.350      0.000 
      15      0.000      0.000      0.350      0.000 
      16      0.000      0.000      0.300      0.000 
      17      0.000      0.000      0.300      0.000 
      18      0.000      0.000      0.300      0.000 
      19      0.000      0.000      0.300      0.000 
      20      0.000      0.000      0.300      0.000 
      21     -1.220     -0.126      0.422      0.000 
      22      4.669      5.124      0.000      0.000 
      23      1.300     -0.200      0.200      0.000 
      24      0.000      0.000      0.350      0.000 
      25      0.000      0.000      0.198      0.000 
      26      0.000      0.000      0.350      0.000 
      27      0.000      0.000      0.300      0.000 
      28      0.000      0.000      0.350      0.000 
      29      0.000      0.000      0.468      0.000 
      30      0.000      0.000      0.300      0.000 
      31      0.000      0.000      0.000      0.000 
      32      0.000      0.000      0.300      0.000 
      33      0.000      0.000      0.350      0.000 
      34      0.000      0.000      0.350      0.000 
      35      0.000      0.000      0.300      0.000 
      36      0.000      5.124      0.000      0.000 
      37      0.000      0.000      0.468      0.000 
      38      0.000      0.000      0.300      0.000 
      39      0.000      0.000      0.350      0.000 
      40      0.000      0.000      0.198      0.000 
      41      0.000      0.000      0.300      0.000 
      42      0.000      0.000      0.198      0.000 
      43      0.000      0.000      0.350      0.000 
      44      0.000      0.000      0.468      0.000 
      45      0.000      0.000      0.350      0.000 
      46      1.711     -0.500      0.663      0.000 
      47      0.000      0.000      0.300      0.000 
      48      0.000      0.000      0.300      0.000 
      49      0.000      0.000      0.760      0.000 
      50      0.000      0.000      0.300      0.000 
      51      0.000      0.000      0.300      0.000 
      52      0.000      0.000      0.300      0.000 
      53      1.300     -0.200      0.200      0.000 
      54      0.000      0.000      0.350      0.000 
      55      0.000      0.000      0.350      0.000 
      56      0.000      0.000      0.300      0.000 
      57      0.000      0.000      0.350      0.000 
      58      0.000      0.000      0.350      0.000 
      59      0.000      0.000      0.468      0.000 
      60      0.000      0.000      0.300      0.000 
      61      1.300     -0.200      0.200      0.000 
      62      0.000      0.000      0.300      0.000 
      63      0.000      0.000      0.300      0.000 
      64      0.000      0.000      0.760      0.000 
      65      0.000      0.000      0.300      0.000 
      66      0.000      0.000      0.300      0.000 
      67      0.000      0.000      0.300      0.000 
      68      0.000      0.000      0.300      0.000 
      69      0.000      0.000      0.300      0.000 
      70      0.000      0.000      0.760      0.000 
      71      0.000      0.000      0.452      0.000 
      72      0.000      0.000      0.760      0.000 
      73      0.000      0.000      0.300      0.000 
      74      0.000      0.000      0.300      0.000 
      75      0.000      0.000      0.000      0.000 
      76      0.000      0.000      0.452      0.000 
      77      0.000      0.000      0.300      0.000 
      78      0.000      0.000      0.300      0.000 
      79      0.000      0.000      0.468      0.000 
      80      0.000      0.000      0.300      0.000 
      81      0.000      0.000      0.300      0.000 
      82      0.000      0.000      0.468      0.000 
      83      0.000      0.000      0.468      0.000 
      84      0.000      0.000      0.300      0.000 
      85      0.000      0.000      0.350      0.000 
      86      0.000      0.000      0.300      0.000 
      87      0.000      0.000      0.300      0.000 
      88      0.000      0.000      0.300      0.000 

Improper Coeffs 

       1     10.500      -1       2 
       2      0.000      -1       2 
       3      0.000      -1       2 
       4      0.000      -1       2 
       5      0.000      -1       2 
       6      0.000      -1       2 
       7      0.000      -1       2 
       8      0.000      -1       2 
       9      0.000      -1       2 
      10      0.000      -1       2 
      11      0.000      -1       2 
      12      0.000      -1       2 
      13      0.000      -1       2 
      14      0.000      -1       2 
      15      0.000      -1       2 
      16      0.000      -1       2 
      17      0.000      -1       2 
      18      0.000      -1       2 
      19      0.000      -1       2 
      20      0.000      -1       2 
      21      0.000      -1       2 
      22      0.000      -1       2 
      23      0.000      -1       2 

Atoms 

     1      1      1 -0.04600000    1.000  1.00000  0.00000
     2      1      2 -0.38660000   -0.417  1.00000  0.00000
     3      1      3 -0.02010000   -0.965  1.00000  1.32053
     4      1      4 0.02140000   -2.477  0.99816  1.16585
     5      1      5 -0.32480000   -3.168  0.80367  2.39041
     6      1      6 0.58320000   -3.814  1.87846  2.89031
     7      1      7 -0.46640000   -3.358  3.00005  3.03061
     8      1      8 -0.34640000   -5.029  1.43954  3.27615
     9      1      9 0.09350000   -5.561  1.92693  4.50925
    10      1     10 -0.25940000   -6.817  2.74117  4.24187
    11      1     11 -0.10930000   -5.814  0.65856  5.38512
    12      1     12 -0.23690000   -6.810 -0.31069  4.70658
    13      1     13 -0.14960000   -4.507 -0.13812  5.64554
    14      1     14 -0.50830000   -3.449  0.65388  6.40629
    15      1     15 1.29770000   -1.971 -0.31603  6.67686
    16      1     16 -0.58520000   -0.923  0.81040  7.56334
    17      1     17 -0.56200000   -2.302 -1.40470  7.57562
    18      1     18 -0.56200000   -1.350 -0.56402  5.38994
    19      1     19 0.08450000    1.336  0.99868 -1.04040
    20      1     20 0.08450000    1.386  0.10374  0.49355
    21      1     21 0.08450000    1.378  1.90244  0.48865
    22      1     22 0.10120000   -0.635  1.88830  1.86959
    23      1     23 0.10120000   -0.632  0.11164  1.87130
    24      1     24 0.12240000   -2.762  0.14947  0.53406
    25      1     25 0.12240000   -2.821  1.89672  0.63900
    26      1     26 0.11460000   -4.838  2.57811  5.01941
    27      1     27 0.10320000   -7.558  2.18421  3.66269
    28      1     28 0.10320000   -6.570  3.62817  3.64825
    29      1     29 0.10320000   -7.275  3.06940  5.18143
    30      1     30 0.11160000   -6.240  0.96854  6.33929
    31      1     31 0.09220000   -6.434 -0.67374  3.74256
    32      1     32 0.09220000   -7.781  0.16211  4.53303
    33      1     33 0.09220000   -6.985 -1.18578  5.34033
    34      1     34 0.12300000   -4.085 -0.50139  4.70013
    35      1     35 0.12300000   -4.753 -1.04052  6.22092
    36      1     36 0.15490000   -3.827  0.95472  7.38748
    37      1     37 0.15490000   -3.129  1.53965  5.85204
    38      1     38 0.16610000   -1.399  1.06004  8.51323
    39      1     39 0.16610000   -0.776  1.70569  6.95632
    40      1     40 0.16610000    0.034  0.31589  7.74082

Bonds 

     1      1      2      1
     2      2      3      2
     3      3      4      3
     4      4      5      4
     5      5      6      5
     6      6      7      6
     7      7      8      6
     8      8      9      8
     9      9     10      9
    10     10     11      9
    11     11     12     11
    12     12     13     11
    13     13     14     13
    14     14     15     14
    15     15     16     15
    16     16     17     15
    17     17     18     15
    18     18     19      1
    19     19     20      1
    20     20     21      1
    21     21     22      3
    22     22     23      3
    23     23     24      4
    24     24     25      4
    25     25     26      9
    26     26     27     10
    27     27     28     10
    28     28     29     10
    29     29     30     11
    30     30     31     12
    31     31     32     12
    32     32     33     12
    33     33     34     13
    34     34     35     13
    35     35     36     14
    36     36     37     14
    37     37     38     16
    38     38     39     16
    39     39     40     16

Angles 

     1      1      1      2      3
     2      2      2      3      4
     3      3      3      4      5
     4      4      4      5      6
     5      5      5      6      7
     6      6      5      6      8
     7      7      6      8      9
     8      8      8      9     10
     9      9      8      9     11
    10     10      9     11     12
    11     11      9     11     13
    12     12     11     13     14
    13     13     13     14     15
    14     14     14     15     16
    15     15     14     15     17
    16     16     14     15     18
    17     17      2      1     19
    18     18      2      1     20
    19     19      2      1     21
    20     20      2      3     22
    21     21      2      3     23
    22     22      3      4     24
    23     23      3      4     25
    24     24      8      9     26
    25     25      9     10     27
    26     26      9     10     28
    27     27      9     10     29
    28     28      9     11     30
    29     29     11     12     31
    30     30     11     12     32
    31     31     11     12     33
    32     32     11     13     34
    33     33     11     13     35
    34     34     13     14     36
    35     35     13     14     37
    36     36     15     16     38
    37     37     15     16     39
    38     38     15     16     40
    39     39     19      1     20
    40     40     27     10     28
    41     41     31     12     33
    42     42     38     16     40
    43     43     31     12     32
    44     44     39     16     40
    45     45      5      4     24
    46     46     14     13     35
    47     47      4      3     22
    48     48     10      9     26
    49     49     34     13     35
    50     50     13     11     30
    51     51      4      3     23
    52     52     12     11     30
    53     53     24      4     25
    54     54     14     13     34
    55     55     19      1     21
    56     56     27     10     29
    57     57     32     12     33
    58     58      5      4     25
    59     59      7      6      8
    60     60     28     10     29
    61     61     16     15     18
    62     62     22      3     23
    63     63     10      9     11
    64     64     15     14     37
    65     65     12     11     13
    66     66     36     14     37
    67     67     15     14     36
    68     68     20      1     21
    69     69     16     15     17
    70     70     11      9     26
    71     71     38     16     39
    72     72     17     15     18

Dihedrals

     1      1      4      3      2      1 
     2      2      5      4      3      2 
     3      3      6      5      4      3 
     4      4      7      6      5      4 
     5      5      9      8      6      5 
     6      6     10      9      8      6 
     7      7     12     11      9      8 
     8      8     14     13     11      9 
     9      9     15     14     13     11 
    10     10     16     15     14     13 
    11     11     19      1      2      3 
    12     12     27     10      9      8 
    13     13     31     12     11      9 
    14     14     38     16     15     14 
    15     15     37     14     15     18 
    16     16     26      9     11     12 
    17     17     24      4      3     23 
    18     18     25      4      3     22 
    19     19     32     12     11     13 
    20     20     34     13     11     12 
    21     21     11      9      8      6 
    22     22      8      6      5      4 
    23     23     13     11      9     10 
    24     24     36     14     15     16 
    25     25     25      4      5      6 
    26     26     39     16     15     17 
    27     27     30     11      9     10 
    28     28     38     16     15     18 
    29     29     23      3      4      5 
    30     30     28     10      9     26 
    31     31     17     15     14     13 
    32     32     35     13     11     12 
    33     33     37     14     15     16 
    34     34     36     14     15     17 
    35     35     27     10      9     26 
    36     36      9      8      6      7 
    37     37     28     10      9      8 
    38     38     37     14     13     11 
    39     39     39     16     15     14 
    40     40     24      4      5      6 
    41     41     34     13     11      9 
    42     42     26      9      8      6 
    43     43     38     16     15     17 
    44     44     29     10      9      8 
    45     45     40     16     15     18 
    46     46     13     11      9      8 
    47     47     24      4      3     22 
    48     48     29     10      9     11 
    49     49     21      1      2      3 
    50     50     34     13     11     30 
    51     51     31     12     11     13 
    52     52     26      9     11     13 
    53     53     14     13     11     12 
    54     54     40     16     15     17 
    55     55     39     16     15     18 
    56     56     29     10      9     26 
    57     57     36     14     15     18 
    58     58     37     14     15     17 
    59     59     24      4      3      2 
    60     60     25      4      3     23 
    61     61     12     11      9     10 
    62     62     35     13     11     30 
    63     63     30     11      9     26 
    64     64     23      3      2      1 
    65     65     36     14     13     11 
    66     66     37     14     13     35 
    67     67     27     10      9     11 
    68     68     35     13     11      9 
    69     69     36     14     13     34 
    70     70     20      1      2      3 
    71     71     35     13     14     15 
    72     72     22      3      2      1 
    73     73     33     12     11      9 
    74     74     31     12     11     30 
    75     75     18     15     14     13 
    76     76     34     13     14     15 
    77     77     37     14     13     34 
    78     78     36     14     13     35 
    79     79     30     11      9      8 
    80     80     32     12     11     30 
    81     81     32     12     11      9 
    82     82     25      4      3      2 
    83     83     22      3      4      5 
    84     84     33     12     11     13 
    85     85     40     16     15     14 
    86     86     30     11     13     14 
    87     87     33     12     11     30 
    88     88     28     10      9     11 

Impropers

     1      1      6      5      7      8 
     2      2      9     10     11      8 
     3      3     11      9     12     13 
     4      4     15     17     14     16 
     5      5     15     18     14     16 
     6      6      1      2     19     20 
     7      7      1      2     19     21 
     8      8      3      2      4     22 
     9      9      3      2      4     23 
    10     10      4      3      5     24 
    11     11      4     25      3      5 
    12     12      9     26     10      8 
    13     13     10      9     27     28 
    14     14     10      9     27     29 
    15     15     11      9     12     30 
    16     16     12     11     31     32 
    17     17     12     33     11     31 
    18     18     13     34     11     14 
    19     19     13     35     11     14 
    20     20     14     36     13     15 
    21     21     14     13     37     15 
    22     22     16     38     15     39 
    23     23     16     38     15     40 

