LAMMPS data file Created by LigParGen - (Written by Leela S. Dodda)

      33 atoms
      32 bonds
      61 angles
      78 dihedrals
      20 impropers
 
      33 atom types
      32 bond types
      61 angle types
      78 dihedral types
      20 improper types
 
   -8.586810    41.413190 xlo xhi
   -2.530900    47.469100 ylo yhi
   -1.023780    48.976220 zlo zhi

Masses

       1     12.011  
       2     12.011  
       3     12.011  
       4     32.060  
       5     12.011  
       6     12.011  
       7     12.011  
       8     12.011  
       9     12.011  
      10     12.011  
      11     12.011  
      12      1.008  
      13      1.008  
      14      1.008  
      15      1.008  
      16      1.008  
      17      1.008  
      18      1.008  
      19      1.008  
      20      1.008  
      21      1.008  
      22      1.008  
      23      1.008  
      24      1.008  
      25      1.008  
      26      1.008  
      27      1.008  
      28      1.008  
      29      1.008  
      30      1.008  
      31      1.008  
      32      1.008  
      33      1.008  

Pair Coeffs 

       1      0.066  3.5000000 
       2      0.066  3.5000000 
       3      0.066  3.5000000 
       4      0.355  3.6000000 
       5      0.066  3.5000000 
       6      0.066  3.5000000 
       7      0.066  3.5000000 
       8      0.066  3.5000000 
       9      0.066  3.5000000 
      10      0.066  3.5000000 
      11      0.066  3.5000000 
      12      0.030  2.5000000 
      13      0.030  2.5000000 
      14      0.030  2.5000000 
      15      0.030  2.5000000 
      16      0.030  2.5000000 
      17      0.030  2.5000000 
      18      0.030  2.5000000 
      19      0.030  2.5000000 
      20      0.030  2.5000000 
      21      0.030  2.5000000 
      22      0.030  2.5000000 
      23      0.030  2.5000000 
      24      0.030  2.5000000 
      25      0.030  2.5000000 
      26      0.030  2.5000000 
      27      0.030  2.5000000 
      28      0.030  2.5000000 
      29      0.030  2.5000000 
      30      0.030  2.5000000 
      31      0.030  2.5000000 
      32      0.030  2.5000000 
      33      0.030  2.5000000 

Bond Coeffs 

       1   268.0000     1.5290 
       2   268.0000     1.5290 
       3   222.0000     1.8100 
       4   222.0000     1.8100 
       5   268.0000     1.5290 
       6   268.0000     1.5290 
       7   268.0000     1.5290 
       8   268.0000     1.5290 
       9   268.0000     1.5290 
      10   268.0000     1.5290 
      11   340.0000     1.0900 
      12   340.0000     1.0900 
      13   340.0000     1.0900 
      14   340.0000     1.0900 
      15   340.0000     1.0900 
      16   340.0000     1.0900 
      17   340.0000     1.0900 
      18   340.0000     1.0900 
      19   340.0000     1.0900 
      20   340.0000     1.0900 
      21   340.0000     1.0900 
      22   340.0000     1.0900 
      23   340.0000     1.0900 
      24   340.0000     1.0900 
      25   340.0000     1.0900 
      26   340.0000     1.0900 
      27   340.0000     1.0900 
      28   340.0000     1.0900 
      29   340.0000     1.0900 
      30   340.0000     1.0900 
      31   340.0000     1.0900 
      32   340.0000     1.0900 

Angle Coeffs 

       1     58.350    112.700
       2     50.000    114.700
       3     62.000     98.900
       4     50.000    114.700
       5     50.000    114.700
       6     58.350    112.700
       7     58.350    112.700
       8     58.350    112.700
       9     58.350    112.700
      10     37.500    110.700
      11     37.500    110.700
      12     37.500    110.700
      13     37.500    110.700
      14     37.500    110.700
      15     37.500    110.700
      16     37.500    110.700
      17     35.000    109.500
      18     37.500    110.700
      19     37.500    110.700
      20     37.500    110.700
      21     37.500    110.700
      22     37.500    110.700
      23     37.500    110.700
      24     37.500    110.700
      25     37.500    110.700
      26     37.500    110.700
      27     37.500    110.700
      28     37.500    110.700
      29     37.500    110.700
      30     37.500    110.700
      31     37.500    110.700
      32     33.000    107.800
      33     37.500    110.700
      34     37.500    110.700
      35     33.000    107.800
      36     33.000    107.800
      37     33.000    107.800
      38     37.500    110.700
      39     33.000    107.800
      40     33.000    107.800
      41     33.000    107.800
      42     33.000    107.800
      43     33.000    107.800
      44     37.500    110.700
      45     33.000    107.800
      46     33.000    107.800
      47     37.500    110.700
      48     33.000    107.800
      49     35.000    109.500
      50     58.350    112.700
      51     33.000    107.800
      52     37.500    110.700
      53     37.500    110.700
      54     37.500    110.700
      55     35.000    109.500
      56     37.500    110.700
      57     33.000    107.800
      58     33.000    107.800
      59     58.350    112.700
      60     37.500    110.700
      61     33.000    107.800

Dihedral Coeffs  

       1      2.619     -0.620      0.258      0.000 
       2      0.925     -0.576      0.677      0.000 
       3      0.925     -0.576      0.677      0.000 
       4      2.619     -0.620      0.258      0.000 
       5      1.300     -0.200      0.200      0.000 
       6      1.300     -0.200      0.200      0.000 
       7      0.000      0.000      0.300      0.000 
       8      0.000      0.000      0.452      0.000 
       9      0.000      0.000      0.300      0.000 
      10      0.000      0.000      0.300      0.000 
      11      0.000      0.000      0.452      0.000 
      12      0.000      0.000      0.452      0.000 
      13      1.300     -0.200      0.200      0.000 
      14      0.000      0.000      0.300      0.000 
      15      0.000      0.000      0.300      0.000 
      16      0.000      0.000      0.300      0.000 
      17      0.000      0.000      0.300      0.000 
      18      0.000      0.000      0.300      0.000 
      19      0.000      0.000      0.300      0.000 
      20      0.000      0.000      0.300      0.000 
      21      0.000      0.000      0.300      0.000 
      22      0.000      0.000      0.300      0.000 
      23      0.000      0.000      0.300      0.000 
      24      0.000      0.000      0.300      0.000 
      25      0.000      0.000      0.300      0.000 
      26      0.000      0.000      0.300      0.000 
      27      0.000      0.000      0.452      0.000 
      28      0.000      0.000      0.300      0.000 
      29      0.000      0.000      0.300      0.000 
      30      0.000      0.000      0.300      0.000 
      31      0.000      0.000      0.452      0.000 
      32      0.000      0.000      0.300      0.000 
      33      0.000      0.000      0.300      0.000 
      34      0.000      0.000      0.300      0.000 
      35      0.000      0.000      0.647      0.000 
      36      0.000      0.000      0.300      0.000 
      37      0.000      0.000      0.300      0.000 
      38      0.000      0.000      0.300      0.000 
      39      0.000      0.000      0.300      0.000 
      40      0.000      0.000      0.300      0.000 
      41      0.000      0.000      0.300      0.000 
      42      0.000      0.000      0.300      0.000 
      43      0.000      0.000      0.300      0.000 
      44      0.000      0.000      0.300      0.000 
      45      1.300     -0.200      0.200      0.000 
      46      0.000      0.000      0.300      0.000 
      47      0.925     -0.576      0.677      0.000 
      48      0.000      0.000      0.300      0.000 
      49      0.000      0.000      0.647      0.000 
      50      0.000      0.000      0.300      0.000 
      51      0.000      0.000      0.300      0.000 
      52      0.000      0.000      0.300      0.000 
      53      0.000      0.000      0.300      0.000 
      54      1.300     -0.200      0.200      0.000 
      55      0.000      0.000      0.300      0.000 
      56      0.000      0.000      0.300      0.000 
      57      0.000      0.000      0.300      0.000 
      58      0.000      0.000      0.647      0.000 
      59      0.000      0.000      0.300      0.000 
      60      0.000      0.000      0.452      0.000 
      61      0.000      0.000      0.300      0.000 
      62      0.000      0.000      0.300      0.000 
      63      0.000      0.000      0.300      0.000 
      64      0.000      0.000      0.300      0.000 
      65      0.000      0.000      0.452      0.000 
      66      0.000      0.000      0.300      0.000 
      67      0.000      0.000      0.300      0.000 
      68      0.000      0.000      0.300      0.000 
      69      0.000      0.000      0.300      0.000 
      70      0.000      0.000      0.300      0.000 
      71      0.000      0.000      0.300      0.000 
      72      0.000      0.000      0.300      0.000 
      73      0.000      0.000      0.300      0.000 
      74      0.000      0.000      0.300      0.000 
      75      0.000      0.000      0.300      0.000 
      76      0.000      0.000      0.300      0.000 
      77      0.000      0.000      0.300      0.000 
      78      0.000      0.000      0.300      0.000 

Improper Coeffs 

       1      0.000      -1       2 
       2      0.000      -1       2 
       3      0.000      -1       2 
       4      0.000      -1       2 
       5      0.000      -1       2 
       6      0.000      -1       2 
       7      0.000      -1       2 
       8      0.000      -1       2 
       9      0.000      -1       2 
      10      0.000      -1       2 
      11      0.000      -1       2 
      12      0.000      -1       2 
      13      0.000      -1       2 
      14      0.000      -1       2 
      15      0.000      -1       2 
      16      0.000      -1       2 
      17      0.000      -1       2 
      18      0.000      -1       2 
      19      0.000      -1       2 
      20      0.000      -1       2 

Atoms 

     1      1      1 -0.23900000    1.000  1.00000  0.00000
     2      1      2 -0.16760000   -0.522  1.00000  0.00000
     3      1      3 -0.08050000   -1.071  1.00000  1.42458
     4      1      4 -0.39010000   -2.893  1.11038  1.40050
     5      1      5 -0.00990000   -3.255  0.94813  3.19428
     6      1      6 -0.24070000   -2.710  2.15518  3.96062
     7      1      7 -0.15370000   -4.776  0.85282  3.44581
     8      1      8 -0.11350000   -5.512 -0.37009  2.85762
     9      1      9 -0.23390000   -4.974 -1.69150  3.41485
    10      1     10 -0.17460000   -7.040 -0.25606  3.07308
    11      1     11 -0.23760000   -7.493 -0.18625  4.52512
    12      1     12 0.08360000    1.382  1.00129 -1.02378
    13      1     13 0.08360000    1.391  0.11124  0.50927
    14      1     14 0.08360000    1.391  1.88670  0.50835
    15      1     15 0.10460000   -0.877  0.11812 -0.54724
    16      1     16 0.10460000   -0.867  1.88902 -0.54303
    17      1     17 0.10930000   -0.666  1.86128  1.96112
    18      1     18 0.10930000   -0.773  0.08436  1.94420
    19      1     19 0.11840000   -2.763  0.04137  3.56149
    20      1     20 0.09040000   -3.192  3.08659  3.64611
    21      1     21 0.09040000   -1.628  2.27197  3.84696
    22      1     22 0.09040000   -2.896  2.03573  5.03470
    23      1     23 0.09920000   -5.258  1.76623  3.07138
    24      1     24 0.09920000   -4.927  0.85411  4.53288
    25      1     25 0.11310000   -5.361 -0.39058  1.77152
    26      1     26 0.08130000   -4.912 -1.67384  4.50815
    27      1     27 0.08130000   -3.970 -1.89656  3.02610
    28      1     28 0.08130000   -5.615 -2.53090  3.12238
    29      1     29 0.08830000   -7.530 -1.11533  2.59503
    30      1     30 0.08830000   -7.405  0.63623  2.55068
    31      1     31 0.08030000   -7.135 -1.04178  5.10241
    32      1     32 0.08030000   -8.587 -0.18749  4.57197
    33      1     33 0.08030000   -7.146  0.73181  5.00831

Bonds 

     1      1      2      1
     2      2      3      2
     3      3      4      3
     4      4      5      4
     5      5      6      5
     6      6      7      5
     7      7      8      7
     8      8      9      8
     9      9     10      8
    10     10     11     10
    11     11     12      1
    12     12     13      1
    13     13     14      1
    14     14     15      2
    15     15     16      2
    16     16     17      3
    17     17     18      3
    18     18     19      5
    19     19     20      6
    20     20     21      6
    21     21     22      6
    22     22     23      7
    23     23     24      7
    24     24     25      8
    25     25     26      9
    26     26     27      9
    27     27     28      9
    28     28     29     10
    29     29     30     10
    30     30     31     11
    31     31     32     11
    32     32     33     11

Angles 

     1      1      1      2      3
     2      2      2      3      4
     3      3      3      4      5
     4      4      4      5      6
     5      5      4      5      7
     6      6      5      7      8
     7      7      7      8      9
     8      8      7      8     10
     9      9      8     10     11
    10     10      2      1     12
    11     11      2      1     13
    12     12      2      1     14
    13     13      1      2     15
    14     14      1      2     16
    15     15      2      3     17
    16     16      2      3     18
    17     17      4      5     19
    18     18      5      6     20
    19     19      5      6     21
    20     20      5      6     22
    21     21      5      7     23
    22     22      5      7     24
    23     23      7      8     25
    24     24      8      9     26
    25     25      8      9     27
    26     26      8      9     28
    27     27      8     10     29
    28     28      8     10     30
    29     29     10     11     31
    30     30     10     11     32
    31     31     10     11     33
    32     32     23      7     24
    33     33      9      8     25
    34     34      3      2     15
    35     35     13      1     14
    36     36     26      9     28
    37     37     15      2     16
    38     38      6      5     19
    39     39     21      6     22
    40     40     20      6     22
    41     41     26      9     27
    42     42     31     11     32
    43     43     27      9     28
    44     44      3      2     16
    45     45     32     11     33
    46     46     12      1     14
    47     47      8      7     23
    48     48     31     11     33
    49     49      4      3     18
    50     50      6      5      7
    51     51     12      1     13
    52     52     10      8     25
    53     53      7      5     19
    54     54     11     10     29
    55     55      4      3     17
    56     56      8      7     24
    57     57     20      6     21
    58     58     17      3     18
    59     59      9      8     10
    60     60     11     10     30
    61     61     29     10     30

Dihedrals

     1      1      4      3      2      1 
     2      2      5      4      3      2 
     3      3      6      5      4      3 
     4      4      8      7      5      4 
     5      5      9      8      7      5 
     6      6     11     10      8      7 
     7      7     12      1      2      3 
     8      8     20      6      5      4 
     9      9     26      9      8      7 
    10     10     31     11     10      8 
    11     11     16      2      3      4 
    12     12     24      7      5      4 
    13     13     10      8      7      5 
    14     14     28      9      8     10 
    15     15     13      1      2      3 
    16     16     26      9      8     25 
    17     17     18      3      2      1 
    18     18     32     11     10     29 
    19     19     23      7      8     10 
    20     20     15      2      1     12 
    21     21     29     10      8      9 
    22     22     24      7      8      9 
    23     23     23      7      8      9 
    24     24     25      8      7     23 
    25     25     31     11     10     30 
    26     26     25      8     10     11 
    27     27     22      6      5      4 
    28     28     27      9      8      7 
    29     29     25      8      7      5 
    30     30     22      6      5     19 
    31     31     15      2      3      4 
    32     32     24      7      5     19 
    33     33     30     10      8     25 
    34     34     27      9      8     25 
    35     35     18      3      4      5 
    36     36     23      7      5      6 
    37     37     33     11     10      8 
    38     38     20      6      5     19 
    39     39     30     10      8      9 
    40     40     29     10      8      7 
    41     41     21      6      5     19 
    42     42     30     10      8      7 
    43     43     31     11     10     29 
    44     44     18      3      2     15 
    45     45      8      7      5      6 
    46     46     32     11     10     30 
    47     47      7      5      4      3 
    48     48     20      6      5      7 
    49     49     19      5      4      3 
    50     50     16      2      1     13 
    51     51     15      2      1     14 
    52     52     28      9      8     25 
    53     53     19      5      7      8 
    54     54     11     10      8      9 
    55     55     22      6      5      7 
    56     56     25      8      7     24 
    57     57     28      9      8      7 
    58     58     17      3      4      5 
    59     59     17      3      2      1 
    60     60     23      7      5      4 
    61     61     24      7      8     10 
    62     62     23      7      5     19 
    63     63     14      1      2      3 
    64     64     33     11     10     29 
    65     65     21      6      5      4 
    66     66     24      7      5      6 
    67     67     27      9      8     10 
    68     68     17      3      2     15 
    69     69     18      3      2     16 
    70     70     26      9      8     10 
    71     71     17      3      2     16 
    72     72     16      2      1     14 
    73     73     29     10      8     25 
    74     74     21      6      5      7 
    75     75     16      2      1     12 
    76     76     33     11     10     30 
    77     77     15      2      1     13 
    78     78     32     11     10      8 

Impropers

     1      1      5      4      6      7 
     2      2      8      9     10      7 
     3      3      1      2     12     13 
     4      4      1      2     12     14 
     5      5      2      1      3     15 
     6      6      2      1      3     16 
     7      7      3     17      2      4 
     8      8      3     18      4      2 
     9      9      5     19      4      6 
    10     10      6      5     20     21 
    11     11      6     20      5     22 
    12     12      7      5     23      8 
    13     13      7      8      5     24 
    14     14      8     25      9      7 
    15     15      9     26     27      8 
    16     16      9     26     28      8 
    17     17     10     11     29      8 
    18     18     10     11     30      8 
    19     19     11     10     31     32 
    20     20     11     33     10     31 

