LAMMPS data file Created by LigParGen - (Written by Leela S. Dodda)

      35 atoms
      37 bonds
      78 angles
     128 dihedrals
      25 impropers
 
      35 atom types
      37 bond types
      78 angle types
     128 dihedral types
      25 improper types
 
   -2.956290    47.043710 xlo xhi
    0.008100    50.008100 ylo yhi
   -3.000980    46.999020 zlo zhi

Masses

       1     12.011  
       2     12.011  
       3     12.011  
       4     12.011  
       5     12.011  
       6     12.011  
       7     12.011  
       8     12.011  
       9     12.011  
      10     12.011  
      11     12.011  
      12     12.011  
      13     12.011  
      14      1.008  
      15      1.008  
      16      1.008  
      17      1.008  
      18      1.008  
      19      1.008  
      20      1.008  
      21      1.008  
      22      1.008  
      23      1.008  
      24      1.008  
      25      1.008  
      26      1.008  
      27      1.008  
      28      1.008  
      29      1.008  
      30      1.008  
      31      1.008  
      32      1.008  
      33      1.008  
      34      1.008  
      35      1.008  

Pair Coeffs 

       1      0.066  3.5000000 
       2      0.066  3.5000000 
       3      0.066  3.5000000 
       4      0.066  3.5000000 
       5      0.066  3.5000000 
       6      0.066  3.5000000 
       7      0.066  3.5000000 
       8      0.066  3.5000000 
       9      0.066  3.5000000 
      10      0.083  3.4500000 
      11      0.083  3.4500000 
      12      0.083  3.4500000 
      13      0.066  3.5000000 
      14      0.030  2.5000000 
      15      0.030  2.5000000 
      16      0.030  2.5000000 
      17      0.030  2.5000000 
      18      0.030  2.5000000 
      19      0.030  2.5000000 
      20      0.030  2.5000000 
      21      0.030  2.5000000 
      22      0.030  2.5000000 
      23      0.030  2.5000000 
      24      0.030  2.5000000 
      25      0.030  2.5000000 
      26      0.030  2.5000000 
      27      0.030  2.5000000 
      28      0.030  2.5000000 
      29      0.030  2.5000000 
      30      0.030  2.5000000 
      31      0.030  2.5000000 
      32      0.030  2.5000000 
      33      0.030  2.5000000 
      34      0.030  2.5000000 
      35      0.030  2.5000000 

Bond Coeffs 

       1   268.0000     1.5290 
       2   268.0000     1.5290 
       3   268.0000     1.5290 
       4   268.0000     1.5290 
       5   268.0000     1.5290 
       6   268.0000     1.5290 
       7   268.0000     1.5290 
       8   268.0000     1.5290 
       9   280.0000     1.5100 
      10   260.0000     1.5200 
      11   280.0000     1.5100 
      12   280.0000     1.5100 
      13   340.0000     1.0900 
      14   340.0000     1.0900 
      15   340.0000     1.0900 
      16   340.0000     1.0900 
      17   340.0000     1.0900 
      18   340.0000     1.0900 
      19   340.0000     1.0900 
      20   340.0000     1.0900 
      21   340.0000     1.0900 
      22   340.0000     1.0900 
      23   340.0000     1.0900 
      24   340.0000     1.0900 
      25   340.0000     1.0900 
      26   340.0000     1.0900 
      27   340.0000     1.0900 
      28   340.0000     1.0900 
      29   340.0000     1.0880 
      30   340.0000     1.0880 
      31   340.0000     1.0880 
      32   340.0000     1.0900 
      33   340.0000     1.0900 
      34   340.0000     1.0900 
      35   268.0000     1.5290 
      36   260.0000     1.5200 
      37   260.0000     1.5200 

Angle Coeffs 

       1     58.350    112.700
       2     58.350    112.700
       3     58.350    112.700
       4     58.350    112.700
       5     58.350    112.700
       6     58.350    112.700
       7     58.350    112.700
       8     58.350    112.700
       9     37.500    117.200
      10     58.350    112.700
      11     35.000    114.300
      12     37.500    110.700
      13     37.500    110.700
      14     37.500    110.700
      15     37.500    110.700
      16     37.500    110.700
      17     37.500    110.700
      18     37.500    110.700
      19     37.500    110.700
      20     37.500    110.700
      21     37.500    110.700
      22     37.500    110.700
      23     37.500    110.700
      24     37.500    110.700
      25     37.500    110.700
      26     37.500    110.700
      27     37.500    110.700
      28     35.000    114.300
      29     37.500    117.200
      30     37.500    117.200
      31     37.500    110.700
      32     37.500    110.700
      33     37.500    110.700
      34     37.500    110.700
      35     37.500    117.200
      36     33.000    107.800
      37     58.350    112.700
      38     58.350    112.700
      39     37.500    117.200
      40     37.500    110.700
      41     33.000    107.800
      42     37.500    117.200
      43     33.000    107.800
      44     35.000    114.300
      45     37.500    110.700
      46     37.500    110.700
      47     33.000    107.800
      48     37.500    117.200
      49     33.000    107.800
      50     37.500    117.200
      51     37.500    110.700
      52     37.500    110.700
      53     37.500    117.200
      54     37.500    110.700
      55     33.000    107.800
      56     37.500    110.700
      57     58.350    112.700
      58     33.000    107.800
      59     33.000    107.800
      60     30.000     83.000
      61     33.000    107.800
      62     37.500    117.200
      63     58.350    112.700
      64     33.000    107.800
      65     33.000    107.800
      66     37.500    110.700
      67     58.350    112.700
      68     58.350    112.700
      69     37.500    110.700
      70     37.500    110.700
      71     37.500    117.200
      72     37.500    110.700
      73     30.000     83.000
      74     58.350    112.700
      75     33.000    107.800
      76     33.000    107.800
      77     37.500    117.200
      78     30.000     83.000

Dihedral Coeffs  

       1      1.300     -0.200      0.200      0.000 
       2      1.300     -0.200      0.200      0.000 
       3      1.300     -0.200      0.200      0.000 
       4      1.300     -0.200      0.200      0.000 
       5      1.300     -0.200      0.200      0.000 
       6      0.000      0.000      0.000      0.000 
       7      0.000      0.000      0.300      0.000 
       8      0.000      0.000      0.300      0.000 
       9      0.000      0.000      0.000      0.000 
      10      0.000      0.000      0.000      0.000 
      11      0.000      0.000      0.300      0.000 
      12      0.000      0.000      0.300      0.000 
      13      0.000      0.000      0.300      0.000 
      14      0.000      0.000      0.000      0.000 
      15      0.000      0.000      0.300      0.000 
      16      0.000      0.000      0.000      0.000 
      17      1.300     -0.200      0.200      0.000 
      18      0.000      0.000      0.300      0.000 
      19      0.000      0.000      0.000      0.000 
      20      0.000      0.000      0.300      0.000 
      21      0.000      0.000      0.000      0.000 
      22      0.000      0.000      0.000      0.000 
      23      0.000      0.000      0.300      0.000 
      24      1.300     -0.200      0.200      0.000 
      25      1.300     -0.200      0.200      0.000 
      26      0.000      0.000      0.300      0.000 
      27      1.300     -0.200      0.200      0.000 
      28      0.000      0.000      0.300      0.000 
      29      0.000      0.000      0.000      0.000 
      30      0.000      0.000      0.000      0.000 
      31      0.000      0.000      0.300      0.000 
      32      0.000      0.000      0.000      0.000 
      33      1.300     -0.200      0.200      0.000 
      34      0.000      0.000      0.300      0.000 
      35      0.000      0.000      0.300      0.000 
      36      0.000      0.000      0.300      0.000 
      37      0.000      0.000      0.300      0.000 
      38      0.000      0.000      0.300      0.000 
      39      0.000      0.000      0.300      0.000 
      40      0.000      0.000      0.300      0.000 
      41      0.000      0.000      0.300      0.000 
      42      0.000      0.000      0.300      0.000 
      43      0.000      0.000      0.300      0.000 
      44      0.000      0.000      0.000      0.000 
      45      0.000      0.000      0.300      0.000 
      46      0.000      0.000      0.300      0.000 
      47      0.000      0.000      0.300      0.000 
      48      0.000      0.000      0.300      0.000 
      49      0.000      0.000      0.300      0.000 
      50      0.000      0.000      0.000      0.000 
      51      0.000      0.000      0.300      0.000 
      52      0.000      0.000      0.300      0.000 
      53      0.000      0.000      0.300      0.000 
      54      0.000      0.000      0.300      0.000 
      55      0.000      0.000      0.300      0.000 
      56      0.000      0.000      0.300      0.000 
      57      0.000      0.000      0.000      0.000 
      58      0.000      0.000      0.300      0.000 
      59      0.000      0.000      0.300      0.000 
      60      0.000      0.000      0.300      0.000 
      61      1.300     -0.200      0.200      0.000 
      62      0.000      0.000      0.000      0.000 
      63      0.000      0.000      0.300      0.000 
      64      0.000      0.000      0.300      0.000 
      65      0.000      0.000      0.300      0.000 
      66      0.000      0.000      0.300      0.000 
      67      0.000      0.000      0.300      0.000 
      68      0.000      0.000      0.300      0.000 
      69      0.000      0.000      0.300      0.000 
      70      1.300     -0.200      0.200      0.000 
      71      0.000      0.000      0.300      0.000 
      72      0.000      0.000      0.300      0.000 
      73      0.000      0.000      0.300      0.000 
      74      0.000      0.000      0.300      0.000 
      75      0.000      0.000      0.000      0.000 
      76      0.000      0.000      0.000      0.000 
      77      0.000      0.000      0.300      0.000 
      78      0.000      0.000      0.000      0.000 
      79      0.000      0.000      0.300      0.000 
      80      0.000      0.000      0.300      0.000 
      81      0.000      0.000      0.000      0.000 
      82      0.000      0.000      0.300      0.000 
      83      0.000      0.000      0.000      0.000 
      84      0.000      0.000      0.000      0.000 
      85      0.000      0.000      0.000      0.000 
      86      0.000      0.000      0.300      0.000 
      87      0.000      0.000      0.000      0.000 
      88      1.300     -0.200      0.200      0.000 
      89      1.300     -0.200      0.200      0.000 
      90      0.000      0.000      0.300      0.000 
      91      0.000      0.000      0.000      0.000 
      92      1.300     -0.200      0.200      0.000 
      93      0.000      0.000      0.000      0.000 
      94      0.000      0.000      0.000      0.000 
      95      0.000      0.000      0.300      0.000 
      96      0.000      0.000      0.300      0.000 
      97      0.000      0.000      0.300      0.000 
      98      0.000      0.000      0.300      0.000 
      99      0.000      0.000      0.300      0.000 
     100      0.000      0.000      0.300      0.000 
     101      0.000      0.000      0.300      0.000 
     102      0.000      0.000      0.000      0.000 
     103      0.000      0.000      0.300      0.000 
     104      0.000      0.000      0.300      0.000 
     105      0.000      0.000      0.300      0.000 
     106      0.000      0.000      0.300      0.000 
     107      0.000      0.000      0.300      0.000 
     108      0.000      0.000      0.300      0.000 
     109      0.000      0.000      0.300      0.000 
     110      0.000      0.000      0.300      0.000 
     111      0.000      0.000      0.300      0.000 
     112      0.000      0.000      0.000      0.000 
     113      0.000      0.000      0.300      0.000 
     114      0.000      0.000      0.300      0.000 
     115      0.000      0.000      0.300      0.000 
     116      0.000      0.000      0.300      0.000 
     117      1.300     -0.200      0.200      0.000 
     118      0.000      0.000      0.300      0.000 
     119      0.000      0.000      0.300      0.000 
     120      0.000      0.000      0.000      0.000 
     121      0.000      0.000      0.000      0.000 
     122      0.000      0.000      0.300      0.000 
     123      0.000      0.000      0.300      0.000 
     124      0.000      0.000      0.300      0.000 
     125      1.300     -0.200      0.200      0.000 
     126      0.000      0.000      0.300      0.000 
     127      0.000      0.000      0.300      0.000 
     128      0.000      0.000      0.300      0.000 

Improper Coeffs 

       1      0.000      -1       2 
       2      0.000      -1       2 
       3      0.000      -1       2 
       4      0.000      -1       2 
       5      0.000      -1       2 
       6      0.000      -1       2 
       7      0.000      -1       2 
       8      0.000      -1       2 
       9      0.000      -1       2 
      10      0.000      -1       2 
      11      0.000      -1       2 
      12      0.000      -1       2 
      13      0.000      -1       2 
      14      0.000      -1       2 
      15      0.000      -1       2 
      16      0.000      -1       2 
      17      0.000      -1       2 
      18      0.000      -1       2 
      19      0.000      -1       2 
      20      0.000      -1       2 
      21      0.000      -1       2 
      22      0.000      -1       2 
      23      0.000      -1       2 
      24      0.000      -1       2 
      25      0.000      -1       2 

Atoms 

     1      1      1 -0.24050000    1.000  1.00000  0.00000
     2      1      2 -0.10230000   -0.538  1.00000  0.00000
     3      1      3 -0.18560000   -1.179  1.00000  1.45955
     4      1      4 -0.08700000   -1.575  2.35028  2.21142
     5      1      5 -0.22940000   -1.212  3.58274  1.40605
     6      1      6 -0.14790000   -2.070  3.83896  0.15990
     7      1      7 -0.02600000   -0.993  3.56055 -0.91872
     8      1      8 -0.22270000   -1.237  4.18837 -2.28801
     9      1      9 -0.15060000   -1.039  2.00052 -1.08564
    10      1     10 -0.21940000    0.273  4.26071 -0.26660
    11      1     11 -0.19610000    0.128  5.63918  0.30406
    12      1     12 -0.06400000    0.010  4.47155  1.25734
    13      1     13 -0.20120000    1.043  4.41346  2.33501
    14      1     14 0.08220000    1.387  0.06939  0.42130
    15      1     15 0.08220000    1.423  1.83046  0.56492
    16      1     16 0.08220000    1.381  1.06182 -1.02984
    17      1     17 0.08620000   -0.805  0.00810 -0.39661
    18      1     18 0.08590000   -0.474  0.46825  2.11728
    19      1     19 0.08590000   -2.076  0.37176  1.43073
    20      1     20 0.09130000   -1.098  2.36706  3.19856
    21      1     21 0.09130000   -2.657  2.33034  2.39305
    22      1     22 0.12470000   -0.461  2.87921  1.08342
    23      1     23 0.09810000   -2.435  4.87065  0.12813
    24      1     24 0.09810000   -2.956  3.19039  0.09307
    25      1     25 0.08310000   -2.224  3.93625 -2.68629
    26      1     26 0.08310000   -0.486  3.81914 -3.00098
    27      1     27 0.08310000   -1.132  5.27733 -2.27230
    28      1     28 0.08370000   -0.539  1.73713 -2.02794
    29      1     29 0.08370000   -2.092  1.73068 -1.26671
    30      1     30 0.13890000    1.231  3.91580 -0.61948
    31      1     31 0.12400000   -0.746  6.23265  0.09042
    32      1     32 0.12400000    1.028  6.24968  0.35689
    33      1     33 0.08700000    0.961  3.50251  2.94160
    34      1     34 0.08700000    0.906  5.26752  3.01558
    35      1     35 0.08700000    2.061  4.44845  1.92948

Bonds 

     1      1      2      1
     2      2      3      2
     3      3      4      3
     4      4      5      4
     5      5      6      5
     6      6      7      6
     7      7      8      7
     8      8      9      2
     9      9     10      7
    10     10     11     10
    11     11     12      5
    12     12     13     12
    13     13     14      1
    14     14     15      1
    15     15     16      1
    16     16     17      2
    17     17     18      3
    18     18     19      3
    19     19     20      4
    20     20     21      4
    21     21     22      5
    22     22     23      6
    23     23     24      6
    24     24     25      8
    25     25     26      8
    26     26     27      8
    27     27     28      9
    28     28     29      9
    29     29     30     10
    30     30     31     11
    31     31     32     11
    32     32     33     13
    33     33     34     13
    34     34     35     13
    35     35      9      7
    36     36     12     10
    37     37     12     11

Angles 

     1      1      1      2      3
     2      2      2      3      4
     3      3      3      4      5
     4      4      4      5      6
     5      5      5      6      7
     6      6      6      7      8
     7      7      1      2      9
     8      8      6      7     10
     9      9      7     10     11
    10     10      4      5     12
    11     11      5     12     13
    12     12      2      1     14
    13     13      2      1     15
    14     14      2      1     16
    15     15      1      2     17
    16     16      2      3     18
    17     17      2      3     19
    18     18      3      4     20
    19     19      3      4     21
    20     20      4      5     22
    21     21      5      6     23
    22     22      5      6     24
    23     23      7      8     25
    24     24      7      8     26
    25     25      7      8     27
    26     26      2      9     28
    27     27      2      9     29
    28     28      7     10     30
    29     29     10     11     31
    30     30     10     11     32
    31     31     12     13     33
    32     32     12     13     34
    33     33     12     13     35
    34     34      7      9     29
    35     35      5     12     10
    36     36     33     13     34
    37     37      9      7     10
    38     38      2      9      7
    39     39     12     10     30
    40     40      7      6     24
    41     41     25      8     27
    42     42     12     11     32
    43     43     14      1     16
    44     44     31     11     32
    45     45      6      5     22
    46     46      3      2     17
    47     47     33     13     35
    48     48     12     11     31
    49     49     34     13     35
    50     50      7     10     12
    51     51      4      3     19
    52     52      7      6     23
    53     53     10     12     13
    54     54      9      2     17
    55     55     25      8     26
    56     56      4      3     18
    57     57      8      7      9
    58     58     15      1     16
    59     59     14      1     15
    60     60     10     11     12
    61     61     18      3     19
    62     62      5     12     11
    63     63      6      5     12
    64     64     28      9     29
    65     65     23      6     24
    66     66      5      4     20
    67     67      3      2      9
    68     68      6      7      9
    69     69      5      4     21
    70     70     12      5     22
    71     71     11     12     13
    72     72      7      9     28
    73     73     10     12     11
    74     74      8      7     10
    75     75     20      4     21
    76     76     26      8     27
    77     77     11     10     30
    78     78     11     10     12

Dihedrals

     1      1      4      3      2      1 
     2      2      5      4      3      2 
     3      3      6      5      4      3 
     4      4      7      6      5      4 
     5      5      8      7      6      5 
     6      6     11     10      7      6 
     7      7     14      1      2      3 
     8      8     25      8      7      6 
     9      9     31     11     10     12 
    10     10     32     11     10     12 
    11     11     33     13     12      5 
    12     12     23      6      7      8 
    13     13     23      6      5      4 
    14     14     32     11     12     13 
    15     15     33     13     12     10 
    16     16     12     10      7      6 
    17     17     13     12      5      6 
    18     18     24      6      5     22 
    19     19     10     12      5      4 
    20     20     29      9      7      8 
    21     21     11     10      7      9 
    22     22     12     10      7      8 
    23     23     30     10      7      9 
    24     24      9      7      6      5 
    25     25     12      5      4      3 
    26     26     20      4      3     18 
    27     27      9      2      3      4 
    28     28     29      9      2      1 
    29     29     31     11     10      7 
    30     30     32     11     10      7 
    31     31     29      9      2      3 
    32     32     13     12     10     11 
    33     33      7      9      2      3 
    34     34     28      9      7      6 
    35     35     18      3      2     17 
    36     36     24      6      7      9 
    37     37     23      6      7     10 
    38     38     29      9      2     17 
    39     39     28      9      2      1 
    40     40     24      6      7     10 
    41     41     17      2      1     16 
    42     42     30     10      7      6 
    43     43     17      2      3      4 
    44     44     11     12      5      4 
    45     45     26      8      7     10 
    46     46     27      8      7      9 
    47     47     28      9      7      8 
    48     48     28      9      2      3 
    49     49     19      3      2      1 
    50     50     30     10     12      5 
    51     51     27      8      7     10 
    52     52     35     13     12      5 
    53     53     30     10      7      8 
    54     54     18      3      2      9 
    55     55     17      2      9      7 
    56     56     23      6      5     12 
    57     57     32     11     10     30 
    58     58     21      4      3     19 
    59     59     17      2      1     15 
    60     60     15      1      2      9 
    61     61     10      7      9      2 
    62     62     10     12      5      6 
    63     63     28      9      7     10 
    64     64     22      5     12     13 
    65     65     27      8      7      6 
    66     66     33     13     12     11 
    67     67     22      5     12     10 
    68     68     19      3      2      9 
    69     69     22      5      4      3 
    70     70      7      9      2      1 
    71     71     21      4      5     12 
    72     72     34     13     12     10 
    73     73     18      3      2      1 
    74     74     35     13     12     10 
    75     75     31     11     10     30 
    76     76      7     10     12      5 
    77     77     20      4      5      6 
    78     78     31     11     12     13 
    79     79     21      4      3      2 
    80     80     18      3      4      5 
    81     81     11     10      7      8 
    82     82     24      6      5      4 
    83     83     31     11     12      5 
    84     84     12     10      7      9 
    85     85     30     10     12     13 
    86     86     22      5      6      7 
    87     87     11     12      5      6 
    88     88     10      7      6      5 
    89     89     13     12      5      4 
    90     90     24      6      5     12 
    91     91     32     11     12      5 
    92     92      8      7      9      2 
    93     93     13     12     11     10 
    94     94     30     10     11     12 
    95     95     16      1      2      9 
    96     96     15      1      2      3 
    97     97     23      6      7      9 
    98     98     24      6      7      8 
    99     99     17      2      1     14 
   100    100     34     13     12      5 
   101    101     29      9      7      6 
   102    102     13     12     10      7 
   103    103     26      8      7      6 
   104    104     35     13     12     11 
   105    105     22      5      4     20 
   106    106     29      9      7     10 
   107    107     14      1      2      9 
   108    108     23      6      5     22 
   109    109     28      9      2     17 
   110    110     26      8      7      9 
   111    111     25      8      7     10 
   112    112     32     11     12     10 
   113    113     19      3      2     17 
   114    114     20      4      3     19 
   115    115     21      4      3     18 
   116    116     20      4      3      2 
   117    117     12      5      6      7 
   118    118     21      4      5      6 
   119    119     19      3      4      5 
   120    120     30     10     12     11 
   121    121     31     11     12     10 
   122    122     20      4      5     12 
   123    123     16      1      2      3 
   124    124     25      8      7      9 
   125    125      6      7      9      2 
   126    126     34     13     12     11 
   127    127     22      5     12     11 
   128    128     22      5      4     21 

Impropers

     1      1      2      9      3      1 
     2      2      7     10      6      8 
     3      3      5      4     12      6 
     4      4     12      5     13     10 
     5      5      1      2     14     15 
     6      6      1      2     14     16 
     7      7      2     17      3      1 
     8      8      3     18      4      2 
     9      9      3      2     19      4 
    10     10      4      3     20      5 
    11     11      4      5      3     21 
    12     12      5      4     22      6 
    13     13      6      7      5     23 
    14     14      6      5      7     24 
    15     15      8     25     26      7 
    16     16      8     25     27      7 
    17     17      9      2     28      7 
    18     18      9      2     29      7 
    19     19     10     11     30      7 
    20     20     13     33     34     12 
    21     21     13     33     35     12 
    22     22     10     11     12      7 
    23     23     12     10     11      5 
    24     24     10     11     12      7 
    25     25     12     10     11      5 

