LAMMPS data file Created by LigParGen - (Written by Leela S. Dodda)

      41 atoms
      40 bonds
      76 angles
     105 dihedrals
      25 impropers
 
      41 atom types
      40 bond types
      76 angle types
     105 dihedral types
      25 improper types
 
  -10.345280    39.654720 xlo xhi
   -1.874860    48.125140 ylo yhi
   -1.025760    48.974240 zlo zhi

Masses

       1     12.011  
       2     12.011  
       3     12.011  
       4     12.011  
       5     14.007  
       6     12.011  
       7     12.011  
       8     12.011  
       9     12.011  
      10     12.011  
      11     12.011  
      12     12.011  
      13     12.011  
      14     12.011  
      15     12.011  
      16     15.999  
      17      1.008  
      18      1.008  
      19      1.008  
      20      1.008  
      21      1.008  
      22      1.008  
      23      1.008  
      24      1.008  
      25      1.008  
      26      1.008  
      27      1.008  
      28      1.008  
      29      1.008  
      30      1.008  
      31      1.008  
      32      1.008  
      33      1.008  
      34      1.008  
      35      1.008  
      36      1.008  
      37      1.008  
      38      1.008  
      39      1.008  
      40      1.008  
      41      1.008  

Pair Coeffs 

       1      0.066  3.5000000 
       2      0.066  3.5000000 
       3      0.066  3.5000000 
       4      0.066  3.3000000 
       5      0.170  3.2000000 
       6      0.066  3.5000000 
       7      0.066  3.5000000 
       8      0.066  3.5000000 
       9      0.066  3.5000000 
      10      0.066  3.5000000 
      11      0.066  3.5000000 
      12      0.066  3.5000000 
      13      0.066  3.5000000 
      14      0.070  3.5500000 
      15      0.066  3.5000000 
      16      0.210  2.9600000 
      17      0.030  2.5000000 
      18      0.030  2.5000000 
      19      0.030  2.5000000 
      20      0.030  2.5000000 
      21      0.030  2.5000000 
      22      0.030  2.5000000 
      23      0.030  2.5000000 
      24      0.030  2.5000000 
      25      0.030  2.5000000 
      26      0.030  2.5000000 
      27      0.030  2.5000000 
      28      0.030  2.5000000 
      29      0.030  2.5000000 
      30      0.030  2.5000000 
      31      0.030  2.5000000 
      32      0.030  2.5000000 
      33      0.030  2.5000000 
      34      0.030  2.5000000 
      35      0.030  2.5000000 
      36      0.030  2.5000000 
      37      0.030  2.5000000 
      38      0.030  2.5000000 
      39      0.030  2.5000000 
      40      0.030  2.5000000 
      41      0.030  2.5000000 

Bond Coeffs 

       1   268.0000     1.5290 
       2   268.0000     1.5290 
       3   390.0000     1.4700 
       4   650.0000     1.1570 
       5   268.0000     1.5290 
       6   268.0000     1.5290 
       7   268.0000     1.5290 
       8   268.0000     1.5290 
       9   268.0000     1.5290 
      10   268.0000     1.5290 
      11   268.0000     1.5290 
      12   268.0000     1.5290 
      13   317.0000     1.5220 
      14   317.0000     1.5220 
      15   570.0000     1.2290 
      16   340.0000     1.0900 
      17   340.0000     1.0900 
      18   340.0000     1.0900 
      19   340.0000     1.0900 
      20   340.0000     1.0900 
      21   340.0000     1.0900 
      22   340.0000     1.0900 
      23   340.0000     1.0900 
      24   340.0000     1.0900 
      25   340.0000     1.0900 
      26   340.0000     1.0900 
      27   340.0000     1.0900 
      28   340.0000     1.0900 
      29   340.0000     1.0900 
      30   340.0000     1.0900 
      31   340.0000     1.0900 
      32   340.0000     1.0900 
      33   340.0000     1.0900 
      34   340.0000     1.0900 
      35   340.0000     1.0900 
      36   340.0000     1.0900 
      37   340.0000     1.0900 
      38   340.0000     1.0900 
      39   340.0000     1.0900 
      40   340.0000     1.0900 

Angle Coeffs 

       1     58.350    112.700
       2     58.350    112.700
       3    150.000    180.000
       4     58.350    112.700
       5     58.350    112.700
       6     58.350    112.700
       7     58.350    112.700
       8     58.350    112.700
       9     58.350    112.700
      10     58.350    112.700
      11     58.350    112.700
      12     63.000    111.100
      13     70.000    116.000
      14     80.000    120.400
      15     37.500    110.700
      16     37.500    110.700
      17     37.500    110.700
      18     37.500    110.700
      19     37.500    110.700
      20     37.500    110.700
      21     37.500    110.700
      22     37.500    110.700
      23     37.500    110.700
      24     37.500    110.700
      25     37.500    110.700
      26     37.500    110.700
      27     37.500    110.700
      28     37.500    110.700
      29     37.500    110.700
      30     37.500    110.700
      31     37.500    110.700
      32     37.500    110.700
      33     37.500    110.700
      34     37.500    110.700
      35     37.500    110.700
      36     37.500    110.700
      37     35.000    109.500
      38     35.000    109.500
      39     35.000    109.500
      40     33.000    107.800
      41     37.500    110.700
      42     37.500    110.700
      43     33.000    107.800
      44     37.500    110.700
      45     33.000    107.800
      46     37.500    110.700
      47     33.000    107.800
      48     37.500    110.700
      49     37.500    110.700
      50     35.000    109.500
      51     37.500    110.700
      52     37.500    110.700
      53     35.000    108.500
      54     37.500    110.700
      55     58.350    112.700
      56     37.500    110.700
      57     33.000    107.800
      58     33.000    107.800
      59     33.000    107.800
      60     33.000    107.800
      61     37.500    110.700
      62     80.000    120.400
      63     33.000    107.800
      64     33.000    107.800
      65     37.500    110.700
      66     33.000    107.800
      67     35.000    109.500
      68     33.000    107.800
      69     33.000    107.800
      70     58.350    112.700
      71     33.000    107.800
      72     58.350    112.700
      73     33.000    107.800
      74     33.000    107.800
      75     33.000    107.800
      76     37.500    110.700

Dihedral Coeffs  

       1      0.000     -0.650      0.000      0.000 
       2      0.000      0.000      0.000      0.000 
       3      1.300     -0.200      0.200      0.000 
       4      1.300     -0.200      0.200      0.000 
       5      1.300     -0.200      0.200      0.000 
       6      1.300     -0.200      0.200      0.000 
       7      1.300     -0.200      0.200      0.000 
       8     -2.060     -0.313      0.315      0.000 
       9      1.454     -0.144     -0.775      0.000 
      10      0.000      0.000      0.300      0.000 
      11      0.000      0.000      0.300      0.000 
      12      0.000      0.000      0.300      0.000 
      13      0.000      0.000      0.275      0.000 
      14      0.000      0.000      0.300      0.000 
      15      0.000      0.000      0.300      0.000 
      16      0.000      0.000      0.300      0.000 
      17      0.000      0.000      0.000      0.000 
      18      0.000      0.000      0.300      0.000 
      19      0.000      0.000      0.300      0.000 
      20      0.000      0.000      0.300      0.000 
      21      0.000      0.000      0.000      0.000 
      22      0.000      0.000      0.300      0.000 
      23      0.000      0.000      0.300      0.000 
      24      0.000      0.000      0.300      0.000 
      25      1.300     -0.200      0.200      0.000 
      26      0.000      0.000      0.275      0.000 
      27      0.000      0.000      0.300      0.000 
      28      0.000      0.000      0.300      0.000 
      29      1.300     -0.200      0.200      0.000 
      30      0.000      0.000      0.300      0.000 
      31      0.000      0.000      0.300      0.000 
      32      0.000      0.000      0.300      0.000 
      33      0.000      0.000      0.300      0.000 
      34      0.000      0.000     -0.100      0.000 
      35      0.000      0.000      0.366      0.000 
      36      0.000      0.000      0.300      0.000 
      37      0.000      0.000      0.300      0.000 
      38      0.000      0.000      0.300      0.000 
      39      0.000      0.000      0.300      0.000 
      40      0.000      0.000      0.300      0.000 
      41      0.000      0.000      0.000      0.000 
      42      0.000      0.000      0.300      0.000 
      43      0.000      0.000      0.300      0.000 
      44      0.000      0.000      0.300      0.000 
      45      0.000      0.000      0.300      0.000 
      46      0.000      0.000      0.300      0.000 
      47      0.000      0.000      0.300      0.000 
      48      0.000      0.000      0.300      0.000 
      49      0.000      0.000      0.300      0.000 
      50      0.000      0.000      0.300      0.000 
      51      0.000      0.000      0.300      0.000 
      52      0.000      0.000      0.300      0.000 
      53      0.000      0.000      0.300      0.000 
      54      1.300     -0.200      0.200      0.000 
      55      0.000      0.000      0.300      0.000 
      56      0.000      0.000      0.300      0.000 
      57      0.000      0.000      0.300      0.000 
      58      0.000      0.000      0.300      0.000 
      59      0.000      0.000      0.000      0.000 
      60      0.000      0.000      0.275      0.000 
      61      0.000      0.000      0.300      0.000 
      62      0.000      0.000      0.300      0.000 
      63      0.000      0.000      0.300      0.000 
      64      0.000      0.000      0.300      0.000 
      65      0.000      0.000      0.000      0.000 
      66      0.000      0.000      0.300      0.000 
      67      0.000      0.000      0.300      0.000 
      68      0.000      0.000      0.300      0.000 
      69      0.000      0.000      0.300      0.000 
      70      0.000      0.000      0.300      0.000 
      71     -2.060     -0.313      0.315      0.000 
      72      0.000      0.000      0.300      0.000 
      73      0.000      0.000      0.275      0.000 
      74      0.000      0.000      0.300      0.000 
      75      0.000      0.000      0.300      0.000 
      76      0.000      0.000      0.300      0.000 
      77      0.000      0.000      0.300      0.000 
      78      1.300     -0.200      0.200      0.000 
      79      0.000      0.000      0.300      0.000 
      80      0.000      0.000      0.000      0.000 
      81      0.000     -0.650      0.000      0.000 
      82      0.000      0.000      0.300      0.000 
      83      0.000      0.000      0.366      0.000 
      84      0.000      0.000      0.300      0.000 
      85      0.000      0.000      0.300      0.000 
      86      0.000      0.000      0.366      0.000 
      87      0.000      0.000      0.275      0.000 
      88      0.000      0.000      0.000      0.000 
      89      0.000      0.000      0.366      0.000 
      90      0.000      0.000      0.300      0.000 
      91      0.000      0.000      0.300      0.000 
      92      0.000      0.000      0.300      0.000 
      93      0.000      0.000      0.300      0.000 
      94      0.000      0.000      0.300      0.000 
      95      0.000      0.000      0.300      0.000 
      96      0.000      0.000      0.300      0.000 
      97      1.300     -0.200      0.200      0.000 
      98      0.000      0.000      0.000      0.000 
      99      0.000      0.000      0.300      0.000 
     100      0.000      0.000      0.300      0.000 
     101      0.000      0.000      0.300      0.000 
     102      0.000      0.000      0.300      0.000 
     103      0.000      0.000      0.300      0.000 
     104      0.000      0.000      0.300      0.000 
     105      0.000      0.000      0.300      0.000 

Improper Coeffs 

       1      0.000      -1       2 
       2      0.000      -1       2 
       3      0.000      -1       2 
       4     10.500      -1       2 
       5      0.000      -1       2 
       6      0.000      -1       2 
       7      0.000      -1       2 
       8      0.000      -1       2 
       9      0.000      -1       2 
      10      0.000      -1       2 
      11      0.000      -1       2 
      12      0.000      -1       2 
      13      0.000      -1       2 
      14      0.000      -1       2 
      15      0.000      -1       2 
      16      0.000      -1       2 
      17      0.000      -1       2 
      18      0.000      -1       2 
      19      0.000      -1       2 
      20      0.000      -1       2 
      21      0.000      -1       2 
      22      0.000      -1       2 
      23      0.000      -1       2 
      24      0.000      -1       2 
      25      0.000      -1       2 

Atoms 

     1      1      1 -0.24500000    1.000  1.00000  0.00000
     2      1      2 -0.17680000   -0.526  1.00000  0.00000
     3      1      3 0.02540000   -1.127  1.00000  1.41759
     4      1      4 0.13980000   -0.700  2.25464  2.16192
     5      1      5 -0.40330000   -0.347  3.29641  2.77833
     6      1      6 -0.17920000   -2.647  0.92134  1.36916
     7      1      7 -0.18610000   -3.251  0.91926  2.77989
     8      1      8 -0.17610000   -4.766  0.90575  2.69200
     9      1      9 -0.10470000   -5.468  0.90093  4.06456
    10      1     10 -0.23680000   -5.115  2.15559  4.87884
    11      1     11 -0.09230000   -7.014  0.73155  3.92246
    12      1     12 -0.23890000   -7.657  1.86958  3.11844
    13      1     13 -0.23780000   -7.350 -0.65310  3.33062
    14      1     14 0.36560000   -8.830 -0.91992  3.14912
    15      1     15 -0.30090000   -9.701 -0.96272  4.37089
    16      1     16 -0.45430000   -9.304 -1.09858  2.02374
    17      1     17 0.08970000    1.376  0.93375 -1.02576
    18      1     18 0.08970000    1.393  0.14708  0.56203
    19      1     19 0.08970000    1.404  1.92088  0.43856
    20      1     20 0.10280000   -0.870  0.10920 -0.53842
    21      1     21 0.10280000   -0.878  1.87382 -0.56250
    22      1     22 0.13340000   -0.737  0.13310  1.96623
    23      1     23 0.10530000   -2.952  0.00699  0.84415
    24      1     24 0.10530000   -3.052  1.76828  0.79917
    25      1     25 0.09880000   -2.925  1.81367  3.31770
    26      1     26 0.09880000   -2.891  0.04673  3.33841
    27      1     27 0.09330000   -5.043  0.01698  2.11860
    28      1     28 0.09330000   -5.085  1.77674  2.10927
    29      1     29 0.09410000   -5.091  0.04008  4.63371
    30      1     30 0.08590000   -5.338  3.07386  4.32595
    31      1     31 0.08590000   -4.051  2.17653  5.13498
    32      1     32 0.08590000   -5.669  2.17677  5.82274
    33      1     33 0.09640000   -7.444  0.77426  4.93200
    34      1     34 0.08770000   -7.259  1.93313  2.10139
    35      1     35 0.08770000   -7.500  2.83525  3.60910
    36      1     36 0.08770000   -8.739  1.73312  3.03263
    37      1     37 0.11830000   -6.946 -1.44567  3.97245
    38      1     38 0.11830000   -6.895 -0.78415  2.34393
    39      1     39 0.11690000   -9.095 -0.97242  5.27902
    40      1     40 0.11690000  -10.302 -1.87486  4.34556
    41      1     41 0.11690000  -10.345 -0.08123  4.37745

Bonds 

     1      1      2      1
     2      2      3      2
     3      3      4      3
     4      4      5      4
     5      5      6      3
     6      6      7      6
     7      7      8      7
     8      8      9      8
     9      9     10      9
    10     10     11      9
    11     11     12     11
    12     12     13     11
    13     13     14     13
    14     14     15     14
    15     15     16     14
    16     16     17      1
    17     17     18      1
    18     18     19      1
    19     19     20      2
    20     20     21      2
    21     21     22      3
    22     22     23      6
    23     23     24      6
    24     24     25      7
    25     25     26      7
    26     26     27      8
    27     27     28      8
    28     28     29      9
    29     29     30     10
    30     30     31     10
    31     31     32     10
    32     32     33     11
    33     33     34     12
    34     34     35     12
    35     35     36     12
    36     36     37     13
    37     37     38     13
    38     38     39     15
    39     39     40     15
    40     40     41     15

Angles 

     1      1      1      2      3
     2      2      2      3      4
     3      3      3      4      5
     4      4      2      3      6
     5      5      3      6      7
     6      6      6      7      8
     7      7      7      8      9
     8      8      8      9     10
     9      9      8      9     11
    10     10      9     11     12
    11     11      9     11     13
    12     12     11     13     14
    13     13     13     14     15
    14     14     13     14     16
    15     15      2      1     17
    16     16      2      1     18
    17     17      2      1     19
    18     18      1      2     20
    19     19      1      2     21
    20     20      2      3     22
    21     21      3      6     23
    22     22      3      6     24
    23     23      6      7     25
    24     24      6      7     26
    25     25      7      8     27
    26     26      7      8     28
    27     27      8      9     29
    28     28      9     10     30
    29     29      9     10     31
    30     30      9     10     32
    31     31      9     11     33
    32     32     11     12     34
    33     33     11     12     35
    34     34     11     12     36
    35     35     11     13     37
    36     36     11     13     38
    37     37     14     15     39
    38     38     14     15     40
    39     39     14     15     41
    40     40     37     13     38
    41     41      9      8     28
    42     42      6      3     22
    43     43     17      1     19
    44     44      3      2     20
    45     45     30     10     31
    46     46      7      6     24
    47     47     23      6     24
    48     48     11      9     29
    49     49      3      2     21
    50     50     14     13     37
    51     51     10      9     29
    52     52      8      7     25
    53     53      4      3     22
    54     54      7      6     23
    55     55     10      9     11
    56     56      8      7     26
    57     57     31     10     32
    58     58     39     15     40
    59     59     17      1     18
    60     60     35     12     36
    61     61     13     11     33
    62     62     15     14     16
    63     63     39     15     41
    64     64     40     15     41
    65     65      9      8     27
    66     66     27      8     28
    67     67     14     13     38
    68     68     25      7     26
    69     69     34     12     35
    70     70      4      3      6
    71     71     20      2     21
    72     72     12     11     13
    73     73     30     10     32
    74     74     34     12     36
    75     75     18      1     19
    76     76     12     11     33

Dihedrals

     1      1      4      3      2      1 
     2      2      5      4      3      2 
     3      3      7      6      3      2 
     4      4      8      7      6      3 
     5      5      9      8      7      6 
     6      6     10      9      8      7 
     7      7     12     11      9      8 
     8      8     14     13     11      9 
     9      9     15     14     13     11 
    10     10     17      1      2      3 
    11     11     30     10      9      8 
    12     12     34     12     11      9 
    13     13     39     15     14     13 
    14     14     23      6      7      8 
    15     15     27      8      9     11 
    16     16     28      8      9     10 
    17     17     39     15     14     16 
    18     18     36     12     11     13 
    19     19     37     13     11      9 
    20     20     32     10      9     11 
    21     21     38     13     14     16 
    22     22     21      2      1     17 
    23     23     20      2      1     18 
    24     24     19      1      2      3 
    25     25     13     11      9     10 
    26     26     40     15     14     13 
    27     27     22      3      2     21 
    28     28     36     12     11      9 
    29     29     11      9      8      7 
    30     30     25      7      6     23 
    31     31     24      6      3      2 
    32     32     29      9      8      7 
    33     33     38     13     11      9 
    34     34     33     11     13     14 
    35     35     23      6      3      4 
    36     36     35     12     11     33 
    37     37     27      8      7     26 
    38     38     28      8      7     25 
    39     39     37     13     11     12 
    40     40     23      6      3      2 
    41     41     16     14     13     11 
    42     42     28      8      7     26 
    43     43     34     12     11     33 
    44     44     21      2      3      6 
    45     45     32     10      9      8 
    46     46     23      6      3     22 
    47     47     26      7      6      3 
    48     48     38     13     11     12 
    49     49     20      2      1     19 
    50     50     21      2      1     18 
    51     51     27      8      7      6 
    52     52     29      9      8     28 
    53     53     26      7      6     24 
    54     54     13     11      9      8 
    55     55     29      9     11     13 
    56     56     27      8      9     10 
    57     57     30     10      9     29 
    58     58     24      6      3     22 
    59     59     37     13     14     16 
    60     60     38     13     14     15 
    61     61     38     13     11     33 
    62     62     18      1      2      3 
    63     63     36     12     11     33 
    64     64     33     11      9     29 
    65     65     40     15     14     16 
    66     66     22      3      6      7 
    67     67     35     12     11      9 
    68     68     31     10      9     11 
    69     69     26      7      6     23 
    70     70     28      8      9     11 
    71     71     14     13     11     12 
    72     72     20      2      1     17 
    73     73     41     15     14     13 
    74     74     22      3      2     20 
    75     75     30     10      9     11 
    76     76     33     11      9      8 
    77     77     29      9     11     12 
    78     78     12     11      9     10 
    79     79     29      9      8     27 
    80     80      6      3      4      5 
    81     81      7      6      3      4 
    82     82     33     11      9     10 
    83     83     20      2      3      4 
    84     84     24      6      7      8 
    85     85     34     12     11     13 
    86     86     21      2      3      4 
    87     87     37     13     14     15 
    88     88     41     15     14     16 
    89     89     24      6      3      4 
    90     90     26      7      8      9 
    91     91     22      3      2      1 
    92     92     31     10      9      8 
    93     93     27      8      7     25 
    94     94     20      2      3      6 
    95     95     21      2      1     19 
    96     96     35     12     11     13 
    97     97      6      3      2      1 
    98     98     22      3      4      5 
    99     99     25      7      6     24 
   100    100     32     10      9     29 
   101    101     28      8      7      6 
   102    102     25      7      8      9 
   103    103     31     10      9     29 
   104    104     25      7      6      3 
   105    105     37     13     11     33 

Impropers

     1      1      3      2      4      6 
     2      2      9     10     11      8 
     3      3     11      9     12     13 
     4      4     14     13     15     16 
     5      5      1     18     17      2 
     6      6      1      2     19     17 
     7      7      2      1      3     20 
     8      8      2      1      3     21 
     9      9      3      2      4     22 
    10     10      6      3      7     23 
    11     11      6      3      7     24 
    12     12      7     25      6      8 
    13     13      7     26      6      8 
    14     14      8      9     27      7 
    15     15      8      9     28      7 
    16     16      9     10     29      8 
    17     17     10      9     30     31 
    18     18     10      9     30     32 
    19     19     11     33      9     12 
    20     20     12     34     35     11 
    21     21     12     34     11     36 
    22     22     13     11     37     14 
    23     23     13     11     38     14 
    24     24     15     39     14     40 
    25     25     15     41     39     14 

