LAMMPS data file Created by LigParGen - (Written by Leela S. Dodda)

      32 atoms
      34 bonds
      68 angles
     103 dihedrals
      21 impropers
 
      32 atom types
      34 bond types
      68 angle types
     103 dihedral types
      21 improper types
 
   -4.254700    45.745300 xlo xhi
   -2.667770    47.332230 ylo yhi
   -2.507100    47.492900 zlo zhi

Masses

       1     12.011  
       2     12.011  
       3     12.011  
       4     12.011  
       5     12.011  
       6     12.011  
       7     15.999  
       8     12.011  
       9     15.999  
      10     15.999  
      11     12.011  
      12     12.011  
      13     12.011  
      14     14.007  
      15     12.011  
      16      1.008  
      17      1.008  
      18      1.008  
      19      1.008  
      20      1.008  
      21      1.008  
      22      1.008  
      23      1.008  
      24      1.008  
      25      1.008  
      26      1.008  
      27      1.008  
      28      1.008  
      29      1.008  
      30      1.008  
      31      1.008  
      32      1.008  

Pair Coeffs 

       1      0.066  3.5000000 
       2      0.066  3.5000000 
       3      0.083  3.4500000 
       4      0.083  3.4500000 
       5      0.066  3.5000000 
       6      0.066  3.5000000 
       7      0.140  2.9000000 
       8      0.070  3.5500000 
       9      0.210  2.9600000 
      10      0.140  2.9000000 
      11      0.083  3.4500000 
      12      0.066  3.5000000 
      13      0.066  3.5000000 
      14      0.170  3.3000000 
      15      0.066  3.5000000 
      16      0.030  2.5000000 
      17      0.030  2.5000000 
      18      0.030  2.5000000 
      19      0.030  2.5000000 
      20      0.030  2.5000000 
      21      0.030  2.5000000 
      22      0.030  2.5000000 
      23      0.030  2.5000000 
      24      0.030  2.5000000 
      25      0.030  2.5000000 
      26      0.030  2.5000000 
      27      0.030  2.5000000 
      28      0.030  2.5000000 
      29      0.030  2.5000000 
      30      0.030  2.5000000 
      31      0.030  2.5000000 
      32      0.030  2.5000000 

Bond Coeffs 

       1   268.0000     1.5290 
       2   280.0000     1.5100 
       3   260.0000     1.5200 
       4   280.0000     1.5100 
       5   280.0000     1.5100 
       6   320.0000     1.4100 
       7   214.0000     1.3270 
       8   570.0000     1.2290 
       9   214.0000     1.3270 
      10   260.0000     1.5200 
      11   280.0000     1.5100 
      12   268.0000     1.5290 
      13   382.0000     1.4480 
      14   382.0000     1.4480 
      15   340.0000     1.0900 
      16   340.0000     1.0900 
      17   340.0000     1.0900 
      18   340.0000     1.0900 
      19   340.0000     1.0880 
      20   340.0000     1.0900 
      21   340.0000     1.0900 
      22   340.0000     1.0900 
      23   340.0000     1.0900 
      24   340.0000     1.0900 
      25   340.0000     1.0900 
      26   340.0000     1.0900 
      27   340.0000     1.0900 
      28   340.0000     1.0900 
      29   340.0000     1.0900 
      30   340.0000     1.0900 
      31   340.0000     1.0900 
      32   260.0000     1.5200 
      33   320.0000     1.4100 
      34   382.0000     1.4480 

Angle Coeffs 

       1     58.350    112.700
       2     37.500    117.200
       3     37.500    117.200
       4     37.500    117.200
       5     50.000    109.500
       6     83.000    116.900
       7     83.000    123.400
       8     69.900    118.180
       9     37.500    117.200
      10     37.500    117.200
      11     58.350    112.700
      12     56.200    109.470
      13     51.800    107.200
      14     37.500    110.700
      15     37.500    110.700
      16     37.500    110.700
      17     37.500    110.700
      18     35.000    114.300
      19     37.500    110.700
      20     37.500    110.700
      21     37.500    110.700
      22     37.500    110.700
      23     37.500    110.700
      24     37.500    110.700
      25     37.500    110.700
      26     37.500    110.700
      27     37.500    110.700
      28     35.000    109.500
      29     35.000    109.500
      30     35.000    109.500
      31     33.000    107.800
      32     33.000    107.800
      33     35.000    114.300
      34     30.000     83.000
      35     56.200    109.470
      36     56.200    109.470
      37     35.000    109.500
      38     56.200    109.470
      39     33.000    107.800
      40     33.000    107.800
      41     33.000    107.800
      42     33.000    107.800
      43     33.000    107.800
      44     35.000    109.500
      45     83.000    123.400
      46     51.800    107.200
      47     33.000    107.800
      48     30.000     83.000
      49     35.000    109.500
      50     83.000    116.900
      51     37.500    110.700
      52     50.000    109.500
      53     33.000    107.800
      54     37.500    117.200
      55     37.500    117.200
      56     33.000    107.800
      57     37.500    117.200
      58     33.000    107.800
      59     35.000    109.500
      60     50.000    109.500
      61     30.000     83.000
      62     37.500    117.200
      63     33.000    107.800
      64     51.800    107.200
      65     50.000    109.500
      66     37.500    110.700
      67     33.000    107.800
      68     37.500    117.200

Dihedral Coeffs  

       1      0.000      0.000      0.000      0.000 
       2      0.000      0.000      0.000      0.000 
       3      0.000      0.000      0.000      0.000 
       4     -1.220     -0.126      0.422      0.000 
       5      0.000      5.124      0.000      0.000 
       6      0.000      0.000      0.000      0.000 
       7      0.000      0.000      0.000      0.000 
       8      0.000      0.000      0.000      0.000 
       9      0.000      0.000      0.300      0.000 
      10      0.000      0.000      0.300      0.000 
      11      0.000      0.000      0.300      0.000 
      12      0.000      0.000      0.560      0.000 
      13     -1.013     -0.709      0.473      0.000 
      14      0.416     -0.128      0.695      0.000 
      15      0.000      0.000      0.560      0.000 
      16      0.416     -0.128      0.695      0.000 
      17      8.000      0.000      0.000      0.000 
      18      0.000      0.000      0.560      0.000 
      19      0.000      0.000      0.000      0.000 
      20      0.000      0.000      0.000      0.000 
      21      0.000      0.000      0.300      0.000 
      22      0.000      0.000      0.000      0.000 
      23      0.000      0.000      0.300      0.000 
      24      0.000      0.000      0.000      0.000 
      25     -1.013     -0.709      0.473      0.000 
      26      0.000      0.000      0.300      0.000 
      27      2.392     -0.674      0.550      0.000 
      28      0.000      0.000      0.198      0.000 
      29      0.000      0.000      0.300      0.000 
      30      0.000      0.000      0.000      0.000 
      31      0.416     -0.128      0.695      0.000 
      32      0.000      0.000      0.300      0.000 
      33      0.000      0.000      0.300      0.000 
      34      0.000      0.000      0.300      0.000 
      35      0.000      0.000      0.300      0.000 
      36      0.000      0.000      0.300      0.000 
      37      0.000      0.000      0.000      0.000 
      38      0.000      0.000      0.300      0.000 
      39      0.000      0.000      0.000      0.000 
      40      0.000      0.000      0.300      0.000 
      41      0.000      0.000      0.560      0.000 
      42      0.000      0.000      0.300      0.000 
      43     -1.013     -0.709      0.473      0.000 
      44      0.000      0.000      0.000      0.000 
      45      0.000      0.000      0.300      0.000 
      46     -1.220     -0.126      0.422      0.000 
      47      0.000      0.000      0.300      0.000 
      48      0.000      0.000      0.300      0.000 
      49      2.392     -0.674      0.550      0.000 
      50      0.416     -0.128      0.695      0.000 
      51      0.000      0.000      0.300      0.000 
      52      0.000      0.000      0.300      0.000 
      53     -1.013     -0.709      0.473      0.000 
      54      0.000      0.000      0.300      0.000 
      55      0.000      0.000      0.560      0.000 
      56      0.000      0.000      0.000      0.000 
      57      0.000      0.000      0.000      0.000 
      58      0.000      0.000      0.560      0.000 
      59      0.000      0.000      0.000      0.000 
      60      0.000      0.000      0.300      0.000 
      61      0.000      0.000      0.000      0.000 
      62      0.000      0.000      0.300      0.000 
      63      0.000      0.000      0.000      0.000 
      64      0.000      0.000      0.468      0.000 
      65      0.000      0.000      0.300      0.000 
      66      0.000      0.000      0.300      0.000 
      67      2.392     -0.674      0.550      0.000 
      68     -1.220     -0.126      0.422      0.000 
      69      0.000      0.000      0.000      0.000 
      70      0.416     -0.128      0.695      0.000 
      71      0.000      0.000      0.000      0.000 
      72      0.000      0.000      0.000      0.000 
      73      0.000      0.000      0.560      0.000 
      74      0.000      0.000     -0.553      0.000 
      75      0.000      0.000      0.300      0.000 
      76      0.000      0.000      0.198      0.000 
      77     -1.013     -0.709      0.473      0.000 
      78     -1.013     -0.709      0.473      0.000 
      79      0.000      0.000      0.000      0.000 
      80      4.669      5.124      0.000      0.000 
      81      0.000      0.000      0.300      0.000 
      82     -1.220     -0.126      0.422      0.000 
      83      0.000      0.000      0.560      0.000 
      84      0.000      0.000      0.560      0.000 
      85      0.000      0.000      0.000      0.000 
      86      0.416     -0.128      0.695      0.000 
      87      0.000      0.000      0.560      0.000 
      88      0.000      0.000      0.300      0.000 
      89      0.000      0.000      0.000      0.000 
      90      0.000      0.000      0.300      0.000 
      91      4.669      5.124      0.000      0.000 
      92      0.000      5.124      0.000      0.000 
      93      0.000      0.000      0.300      0.000 
      94      2.392     -0.674      0.550      0.000 
      95      0.000      0.000      0.300      0.000 
      96     -1.013     -0.709      0.473      0.000 
      97      0.000      0.000      0.300      0.000 
      98      0.000      0.000      0.300      0.000 
      99      0.416     -0.128      0.695      0.000 
     100      0.000      0.000      0.000      0.000 
     101      0.000      0.000      0.000      0.000 
     102      1.711     -0.500      0.663      0.000 
     103      0.416     -0.128      0.695      0.000 

Improper Coeffs 

       1      0.000      -1       2 
       2     10.500      -1       2 
       3      0.000      -1       2 
       4      0.000      -1       2 
       5      0.000      -1       2 
       6      0.000      -1       2 
       7      0.000      -1       2 
       8      0.000      -1       2 
       9      0.000      -1       2 
      10      0.000      -1       2 
      11      0.000      -1       2 
      12      0.000      -1       2 
      13      0.000      -1       2 
      14      0.000      -1       2 
      15      0.000      -1       2 
      16      0.000      -1       2 
      17      0.000      -1       2 
      18      0.000      -1       2 
      19      0.000      -1       2 
      20      0.000      -1       2 
      21      0.000      -1       2 

Atoms 

     1      1      1 -0.27660000    1.000  1.00000  0.00000
     2      1      2 0.13190000   -0.557  1.00000  0.00000
     3      1      3 -0.24340000   -1.001  1.00000  1.42832
     4      1      4 -0.09340000   -2.142  0.48553  2.35318
     5      1      5 -0.20780000   -3.583  0.23927  2.01280
     6      1      6 0.06110000   -1.936  0.87229  3.79325
     7      1      7 -0.37960000   -1.052 -0.00272  4.50611
     8      1      8 0.60700000    0.046 -0.55585  3.93536
     9      1      9 -0.38210000    1.053 -0.80076  4.58628
    10      1     10 -0.34890000   -0.064 -0.91058  2.62722
    11      1     11 0.06870000   -1.129 -0.45580  1.78956
    12      1     12 0.13560000   -1.229 -1.22568  0.46451
    13      1     13 -0.22880000   -2.520 -2.00294  0.20343
    14      1     14 -0.60850000   -1.138 -0.20170 -0.58925
    15      1     15 -0.03530000   -0.450 -0.69193 -1.77920
    16      1     16 0.09730000    1.394  1.85411  0.56443
    17      1     17 0.09730000    1.419  1.05129 -1.00907
    18      1     18 0.09730000    1.409  0.10315  0.48280
    19      1     19 0.13060000   -0.904  1.89454 -0.52098
    20      1     20 0.14520000   -0.353  1.69219  1.96892
    21      1     21 0.10280000   -4.255  0.82969  2.64770
    22      1     22 0.10280000   -3.834 -0.80895  2.22742
    23      1     23 0.10280000   -3.828  0.47159  0.97652
    24      1     24 0.12800000   -2.876  0.87879  4.35273
    25      1     25 0.12800000   -1.539  1.89326  3.86534
    26      1     26 0.12200000   -0.390 -1.92640  0.42495
    27      1     27 0.09470000   -3.358 -1.34548 -0.06237
    28      1     28 0.09470000   -2.820 -2.60667  1.06144
    29      1     29 0.09470000   -2.400 -2.66777 -0.66133
    30      1     30 0.08730000   -1.051 -1.45577 -2.28174
    31      1     31 0.08730000    0.528 -1.13932 -1.55659
    32      1     32 0.08730000   -0.297  0.11373 -2.50710

Bonds 

     1      1      2      1
     2      2      3      2
     3      3      4      3
     4      4      5      4
     5      5      6      4
     6      6      7      6
     7      7      8      7
     8      8      9      8
     9      9     10      8
    10     10     11      3
    11     11     12     11
    12     12     13     12
    13     13     14      2
    14     14     15     14
    15     15     16      1
    16     16     17      1
    17     17     18      1
    18     18     19      2
    19     19     20      3
    20     20     21      5
    21     21     22      5
    22     22     23      5
    23     23     24      6
    24     24     25      6
    25     25     26     12
    26     26     27     13
    27     27     28     13
    28     28     29     13
    29     29     30     15
    30     30     31     15
    31     31     32     15
    32     32     11      4
    33     33     11     10
    34     34     14     12

Angles 

     1      1      1      2      3
     2      2      2      3      4
     3      3      3      4      5
     4      4      3      4      6
     5      5      4      6      7
     6      6      6      7      8
     7      7      7      8      9
     8      8      7      8     10
     9      9      2      3     11
    10     10      3     11     12
    11     11     11     12     13
    12     12      1      2     14
    13     13      2     14     15
    14     14      2      1     16
    15     15      2      1     17
    16     16      2      1     18
    17     17      1      2     19
    18     18      2      3     20
    19     19      4      5     21
    20     20      4      5     22
    21     21      4      5     23
    22     22      4      6     24
    23     23      4      6     25
    24     24     11     12     26
    25     25     12     13     27
    26     26     12     13     28
    27     27     12     13     29
    28     28     14     15     30
    29     29     14     15     31
    30     30     14     15     32
    31     31     16      1     17
    32     32     28     13     29
    33     33      5      4      6
    34     34      4      3     11
    35     35     11     12     14
    36     36      3      2     14
    37     37      7      6     24
    38     38     13     12     14
    39     39     22      5     23
    40     40     30     15     32
    41     41     16      1     18
    42     42     30     15     31
    43     43     21      5     22
    44     44      7      6     25
    45     45      9      8     10
    46     46     12     14     15
    47     47     21      5     23
    48     48      3      4     11
    49     49     14      2     19
    50     50      8     10     11
    51     51      3      2     19
    52     52     10     11     12
    53     53     27     13     28
    54     54      4     11     12
    55     55      5      4     11
    56     56     17      1     18
    57     57      6      4     11
    58     58     24      6     25
    59     59     14     12     26
    60     60      4     11     10
    61     61      3     11      4
    62     62      4      3     20
    63     63     27     13     29
    64     64      2     14     12
    65     65      3     11     10
    66     66     13     12     26
    67     67     31     15     32
    68     68     11      3     20

Dihedrals

     1      1      4      3      2      1 
     2      2      5      4      3      2 
     3      3      7      6      4      3 
     4      4      8      7      6      4 
     5      5      9      8      7      6 
     6      6     11      3      2      4 
     7      7     12     11      3      4 
     8      8     13     12     11      3 
     9      9     16      1      2      3 
    10     10     21      5      4      3 
    11     11     27     13     12     11 
    12     12     30     15     14      2 
    13     13     29     13     12     14 
    14     14     15     14      2      3 
    15     15     19      2     14     15 
    16     16     12     14      2      1 
    17     17     14     12     11     10 
    18     18     30     15     14     12 
    19     19     11      4      6      7 
    20     20     10     11      4      6 
    21     21     24      6      4      5 
    22     22     12     11      3      2 
    23     23     20      3      2     19 
    24     24     10     11      3      4 
    25     25     28     13     12     14 
    26     26     19      2      3     11 
    27     27     14     12     11      3 
    28     28     25      6      7      8 
    29     29     28     13     12     26 
    30     30     10     11      3      2 
    31     31     15     14     12     11 
    32     32     26     12     11      4 
    33     33     27     13     12     26 
    34     34     29     13     12     26 
    35     35     24      6      4      3 
    36     36     28     13     12     11 
    37     37     12     11      4      5 
    38     38     23      5      4      6 
    39     39      6      4      3      2 
    40     40     20      3      2      1 
    41     41     19      2     14     12 
    42     42     19      2      1     17 
    43     43     18      1      2     14 
    44     44     20      3     11     12 
    45     45     29     13     12     11 
    46     46      8     10     11      4 
    47     47     25      6      4      5 
    48     48     22      5      4      3 
    49     49     14     12     11      4 
    50     50     12     14      2      3 
    51     51     26     12     11      3 
    52     52     22      5      4     11 
    53     53     16      1      2     14 
    54     54     18      1      2      3 
    55     55     32     15     14      2 
    56     56     20      3      4      5 
    57     57     11      3      2      1 
    58     58     31     15     14     12 
    59     59     20      3      4     11 
    60     60     23      5      4      3 
    61     61     12     11      4      6 
    62     62     19      2      1     16 
    63     63     10     11      4      3 
    64     64     26     12     11     10 
    65     65     24      6      4     11 
    66     66     19      2      1     18 
    67     67     14      2      3     11 
    68     68      8     10     11      3 
    69     69     20      3     11     10 
    70     70     15     14      2      1 
    71     71     10     11      4      5 
    72     72     12     11      4      3 
    73     73     32     15     14     12 
    74     74     13     12     11     10 
    75     75     17      1      2      3 
    76     76     24      6      7      8 
    77     77     17      1      2     14 
    78     78     20      3      2     14 
    79     79     20      3      4      6 
    80     80     11     10      8      7 
    81     81     19      2      3      4 
    82     82     12     11     10      8 
    83     83     26     12     14     15 
    84     84     31     15     14      2 
    85     85     20      3     11      4 
    86     86     13     12     14      2 
    87     87     26     12     14      2 
    88     88     25      6      4      3 
    89     89      5      4     11      3 
    90     90     21      5      4      6 
    91     91     10      8      7      6 
    92     92     11     10      8      9 
    93     93     25      6      4     11 
    94     94     14      2      3      4 
    95     95     22      5      4      6 
    96     96     27     13     12     14 
    97     97     21      5      4     11 
    98     98     23      5      4     11 
    99     99     11     12     14      2 
   100    100     13     12     11      4 
   101    101      6      4     11      3 
   102    102      7      6      4      5 
   103    103     15     14     12     13 

Impropers

     1      1      4      3      5      6 
     2      2      8      9     10      7 
     3      3      2      1      3     14 
     4      4     14      2     12     15 
     5      5      1     17     16      2 
     6      6      1     18     16      2 
     7      7      2      1     19      3 
     8      8      3      4      2     20 
     9      9      5     21      4     22 
    10     10      5     21      4     23 
    11     11      6      4      7     24 
    12     12      6     25      4      7 
    13     13     12     26     11     13 
    14     14     13     12     27     28 
    15     15     13     27     12     29 
    16     16     15     30     31     14 
    17     17     15     30     14     32 
    18     18      4     11      3      5 
    19     19      3     11      4      2 
    20     20      3     11      4      2 
    21     21      4     11      3      6 

