LAMMPS data file Created by LigParGen - (Written by Leela S. Dodda)

      35 atoms
      37 bonds
      78 angles
     123 dihedrals
      24 impropers
 
      35 atom types
      37 bond types
      78 angle types
     123 dihedral types
      24 improper types
 
   -7.075760    42.924240 xlo xhi
   -0.027910    49.972090 ylo yhi
   -4.141000    45.859000 zlo zhi

Masses

       1     12.011  
       2     12.011  
       3     12.011  
       4     12.011  
       5     12.011  
       6     12.011  
       7     12.011  
       8     12.011  
       9     12.011  
      10     12.011  
      11     12.011  
      12     12.011  
      13     12.011  
      14      1.008  
      15      1.008  
      16      1.008  
      17      1.008  
      18      1.008  
      19      1.008  
      20      1.008  
      21      1.008  
      22      1.008  
      23      1.008  
      24      1.008  
      25      1.008  
      26      1.008  
      27      1.008  
      28      1.008  
      29      1.008  
      30      1.008  
      31      1.008  
      32      1.008  
      33      1.008  
      34      1.008  
      35      1.008  

Pair Coeffs 

       1      0.066  3.5000000 
       2      0.083  3.4500000 
       3      0.083  3.4500000 
       4      0.083  3.4500000 
       5      0.066  3.5000000 
       6      0.066  3.5000000 
       7      0.083  3.4500000 
       8      0.083  3.4500000 
       9      0.083  3.4500000 
      10      0.083  3.4500000 
      11      0.083  3.4500000 
      12      0.083  3.4500000 
      13      0.083  3.4500000 
      14      0.030  2.5000000 
      15      0.030  2.5000000 
      16      0.030  2.5000000 
      17      0.030  2.5000000 
      18      0.030  2.5000000 
      19      0.030  2.5000000 
      20      0.030  2.5000000 
      21      0.030  2.5000000 
      22      0.030  2.5000000 
      23      0.030  2.5000000 
      24      0.030  2.5000000 
      25      0.030  2.5000000 
      26      0.030  2.5000000 
      27      0.030  2.5000000 
      28      0.030  2.5000000 
      29      0.030  2.5000000 
      30      0.030  2.5000000 
      31      0.030  2.5000000 
      32      0.030  2.5000000 
      33      0.030  2.5000000 
      34      0.030  2.5000000 
      35      0.030  2.5000000 

Bond Coeffs 

       1   280.0000     1.5100 
       2   260.0000     1.5200 
       3   260.0000     1.5200 
       4   280.0000     1.5100 
       5   268.0000     1.5290 
       6   280.0000     1.5100 
       7   260.0000     1.5200 
       8   260.0000     1.5200 
       9   280.0000     1.5100 
      10   260.0000     1.5200 
      11   260.0000     1.5200 
      12   260.0000     1.5200 
      13   340.0000     1.0900 
      14   340.0000     1.0900 
      15   340.0000     1.0900 
      16   340.0000     1.0880 
      17   340.0000     1.0880 
      18   340.0000     1.0880 
      19   340.0000     1.0880 
      20   340.0000     1.0900 
      21   340.0000     1.0900 
      22   340.0000     1.0900 
      23   340.0000     1.0880 
      24   340.0000     1.0880 
      25   340.0000     1.0880 
      26   340.0000     1.0880 
      27   340.0000     1.0880 
      28   340.0000     1.0880 
      29   340.0000     1.0880 
      30   340.0000     1.0880 
      31   340.0000     1.0880 
      32   340.0000     1.0880 
      33   340.0000     1.0880 
      34   340.0000     1.0880 
      35   260.0000     1.5200 
      36   260.0000     1.5200 
      37   260.0000     1.5200 

Angle Coeffs 

       1     37.500    117.200
       2     37.500    117.200
       3     37.500    117.200
       4     58.350    112.700
       5     58.350    112.700
       6     37.500    117.200
       7     37.500    117.200
       8     58.350    112.700
       9     37.500    117.200
      10     30.000     83.000
      11     37.500    117.200
      12     37.500    110.700
      13     37.500    110.700
      14     37.500    110.700
      15     35.000    114.300
      16     37.500    117.200
      17     37.500    117.200
      18     37.500    117.200
      19     37.500    110.700
      20     37.500    110.700
      21     37.500    110.700
      22     35.000    114.300
      23     37.500    117.200
      24     37.500    117.200
      25     37.500    117.200
      26     37.500    117.200
      27     35.000    114.300
      28     37.500    117.200
      29     37.500    117.200
      30     37.500    117.200
      31     37.500    117.200
      32     37.500    117.200
      33     37.500    117.200
      34     37.500    117.200
      35     37.500    117.200
      36     37.500    117.200
      37     37.500    117.200
      38     35.000    114.300
      39     37.500    117.200
      40     37.500    117.200
      41     33.000    107.800
      42     30.000     83.000
      43     37.500    117.200
      44     30.000     83.000
      45     37.500    117.200
      46     37.500    117.200
      47     37.500    110.700
      48     37.500    117.200
      49     35.000    114.300
      50     37.500    117.200
      51     30.000     83.000
      52     37.500    110.700
      53     37.500    117.200
      54     33.000    107.800
      55     33.000    107.800
      56     37.500    117.200
      57     30.000     83.000
      58     37.500    117.200
      59     35.000    114.300
      60     30.000     83.000
      61     30.000     83.000
      62     37.500    117.200
      63     37.500    110.700
      64     35.000    114.300
      65     35.000    114.300
      66     30.000     83.000
      67     37.500    117.200
      68     35.000    114.300
      69     37.500    117.200
      70     30.000     83.000
      71     35.000    114.300
      72     37.500    117.200
      73     33.000    107.800
      74     37.500    117.200
      75     58.350    112.700
      76     30.000     83.000
      77     37.500    117.200
      78     37.500    110.700

Dihedral Coeffs  

       1      0.000      0.000      0.000      0.000 
       2      0.000      0.000      0.000      0.000 
       3      0.000      0.000      0.000      0.000 
       4      1.300     -0.200      0.200      0.000 
       5      0.000      0.000      0.000      0.000 
       6      0.000      0.000      0.000      0.000 
       7      0.000      0.000      0.000      0.000 
       8      0.000      0.000      0.000      0.000 
       9      0.000      0.000      0.300      0.000 
      10      0.000      0.000      0.000      0.000 
      11      0.000      0.000      0.000      0.000 
      12      0.000      0.000      0.000      0.000 
      13      0.000      0.000      0.000      0.000 
      14      0.000      0.000      0.000      0.000 
      15      0.000      0.000      0.000      0.000 
      16      0.000      0.000      0.000      0.000 
      17      0.000      0.000      0.300      0.000 
      18      0.000      0.000      0.300      0.000 
      19      0.000      0.000      0.000      0.000 
      20      0.000      0.000      0.000      0.000 
      21      0.000      0.000      0.000      0.000 
      22      0.000      0.000      0.300      0.000 
      23      0.000      0.000      0.000      0.000 
      24      0.000      0.000      0.000      0.000 
      25      0.000      0.000      0.300      0.000 
      26      0.000      0.000      0.000      0.000 
      27      0.000      0.000      0.000      0.000 
      28      0.000      0.000      0.000      0.000 
      29      0.000      0.000      0.000      0.000 
      30      0.000      0.000      0.000      0.000 
      31      0.000      0.000      0.300      0.000 
      32      0.000      0.000      0.000      0.000 
      33      0.000      0.000      0.300      0.000 
      34      0.000      0.000      0.000      0.000 
      35      0.000      0.000      0.300      0.000 
      36      0.000      0.000      0.000      0.000 
      37      0.000      0.000      0.300      0.000 
      38      0.000      0.000      0.000      0.000 
      39      0.000      0.000      0.300      0.000 
      40      0.000      0.000      0.000      0.000 
      41      0.000      0.000      0.000      0.000 
      42      0.000      0.000      0.000      0.000 
      43      0.000      0.000      0.300      0.000 
      44      0.000      0.000      0.000      0.000 
      45      0.000      0.000      0.300      0.000 
      46      0.000      0.000      0.300      0.000 
      47      0.000      0.000      0.000      0.000 
      48      0.000      0.000      0.000      0.000 
      49      0.000      0.000      0.000      0.000 
      50      0.000      0.000      0.000      0.000 
      51      0.000      0.000      0.000      0.000 
      52      0.000      0.000      0.300      0.000 
      53      0.000      0.000      0.000      0.000 
      54      1.300     -0.200      0.200      0.000 
      55      0.000      0.000      0.000      0.000 
      56      0.000      0.000      0.000      0.000 
      57      0.000      0.000      0.000      0.000 
      58      0.000      0.000      0.000      0.000 
      59      0.000      0.000      0.300      0.000 
      60      0.000      0.000      0.000      0.000 
      61      0.000      0.000      0.000      0.000 
      62      0.000      0.000      0.300      0.000 
      63      0.000      0.000      0.000      0.000 
      64      0.000      0.000      0.000      0.000 
      65      0.000      0.000      0.300      0.000 
      66      0.000      0.000      0.000      0.000 
      67      0.000      0.000      0.300      0.000 
      68      0.000      0.000      0.000      0.000 
      69      0.000      0.000      0.000      0.000 
      70      0.000      0.000      0.000      0.000 
      71      0.000      0.000      0.000      0.000 
      72      0.000      0.000      0.000      0.000 
      73      0.000      0.000      0.300      0.000 
      74      0.000      0.000      0.000      0.000 
      75      0.000      0.000      0.000      0.000 
      76      0.000      0.000      0.000      0.000 
      77      0.000      0.000      0.300      0.000 
      78      0.000      0.000      0.000      0.000 
      79      0.000      0.000      0.000      0.000 
      80      0.000      0.000      0.000      0.000 
      81      0.000      0.000      0.000      0.000 
      82      0.000      0.000      0.000      0.000 
      83      0.000      0.000      0.000      0.000 
      84      0.000      0.000      0.000      0.000 
      85      0.000      0.000      0.000      0.000 
      86      0.000      0.000      0.000      0.000 
      87      0.000      0.000      0.300      0.000 
      88      0.000      0.000      0.300      0.000 
      89      0.000      0.000      0.300      0.000 
      90      0.000      0.000      0.300      0.000 
      91      0.000      0.000      0.300      0.000 
      92      0.000      0.000      0.000      0.000 
      93      0.000      0.000      0.000      0.000 
      94      0.000      0.000      0.300      0.000 
      95      0.000      0.000      0.000      0.000 
      96      0.000      0.000      0.000      0.000 
      97      0.000      0.000      0.300      0.000 
      98      0.000      0.000      0.000      0.000 
      99      0.000      0.000      0.000      0.000 
     100      0.000      0.000      0.300      0.000 
     101      0.000      0.000      0.000      0.000 
     102      0.000      0.000      0.000      0.000 
     103      0.000      0.000      0.000      0.000 
     104      0.000      0.000      0.000      0.000 
     105      0.000      0.000      0.000      0.000 
     106      0.000      0.000      0.000      0.000 
     107      0.000      0.000      0.000      0.000 
     108      0.000      0.000      0.000      0.000 
     109      0.000      0.000      0.000      0.000 
     110      0.000      0.000      0.000      0.000 
     111      0.000      0.000      0.000      0.000 
     112      0.000      0.000      0.000      0.000 
     113      0.000      0.000      0.300      0.000 
     114      0.000      0.000      0.000      0.000 
     115      0.000      0.000      0.300      0.000 
     116      0.000      0.000      0.300      0.000 
     117      0.000      0.000      0.000      0.000 
     118      0.000      0.000      0.000      0.000 
     119      0.000      0.000      0.000      0.000 
     120      0.000      0.000      0.000      0.000 
     121      0.000      0.000      0.000      0.000 
     122      0.000      0.000      0.000      0.000 
     123      0.000      0.000      0.000      0.000 

Improper Coeffs 

       1      0.000      -1       2 
       2      0.000      -1       2 
       3      0.000      -1       2 
       4      0.000      -1       2 
       5      0.000      -1       2 
       6      0.000      -1       2 
       7      0.000      -1       2 
       8      0.000      -1       2 
       9      0.000      -1       2 
      10      0.000      -1       2 
      11      0.000      -1       2 
      12      0.000      -1       2 
      13      0.000      -1       2 
      14      0.000      -1       2 
      15      0.000      -1       2 
      16      0.000      -1       2 
      17      0.000      -1       2 
      18      0.000      -1       2 
      19      0.000      -1       2 
      20      0.000      -1       2 
      21      0.000      -1       2 
      22      0.000      -1       2 
      23      0.000      -1       2 
      24      0.000      -1       2 

Atoms 

     1      1      1 -0.21020000    1.000  1.00000  0.00000
     2      1      2 -0.17540000   -0.492  1.00000  0.00000
     3      1      3 -0.24250000   -1.239  1.00000  1.30458
     4      1      4 -0.17770000   -1.257  2.23216  0.42413
     5      1      5 -0.06390000   -2.518  2.65476 -0.32212
     6      1      6 -0.14110000   -3.629  2.95835  0.70459
     7      1      7 -0.17830000   -4.966  3.33237  0.13383
     8      1      8 -0.23380000   -5.760  2.43678 -0.78692
     9      1      9 -0.24850000   -6.190  2.60171  0.64225
    10      1     10 -0.13000000   -2.177  3.89665 -1.15927
    11      1     11 -0.19430000   -1.089  3.69112 -2.25942
    12      1     12 -0.20780000   -1.806  4.80008 -3.05415
    13      1     13 -0.18410000   -3.098  4.35713 -2.33117
    14      1     14 0.08490000    1.374 -0.02791  0.05519
    15      1     15 0.08490000    1.412  1.55571  0.84846
    16      1     16 0.08490000    1.376  1.44974 -0.92387
    17      1     17 0.13170000   -0.889  0.38877 -0.80213
    18      1     18 0.12340000   -0.678  1.06662  2.23095
    19      1     19 0.12340000   -2.127  0.38343  1.37283
    20      1     20 0.13400000   -0.698  3.08392  0.79930
    21      1     21 0.10540000   -2.846  1.84050 -0.98048
    22      1     22 0.09170000   -3.302  3.77254  1.36515
    23      1     23 0.09170000   -3.754  2.08456  1.35575
    24      1     24 0.13040000   -5.052  4.40214 -0.01984
    25      1     25 0.12270000   -5.338  1.48510 -1.08669
    26      1     26 0.12270000   -6.376  2.90945 -1.54559
    27      1     27 0.12240000   -6.060  1.74512  1.29630
    28      1     28 0.12240000   -7.076  3.18581  0.85386
    29      1     29 0.11230000   -1.925  4.74250 -0.49975
    30      1     30 0.10000000   -1.120  2.71216 -2.75366
    31      1     31 0.10000000   -0.060  3.90717 -1.96023
    32      1     32 0.09900000   -1.797  4.69329 -4.14100
    33      1     33 0.09900000   -1.473  5.81146 -2.79029
    34      1     34 0.10040000   -3.629  3.54695 -2.84419
    35      1     35 0.10040000   -3.800  5.16277 -2.10327

Bonds 

     1      1      2      1
     2      2      3      2
     3      3      4      2
     4      4      5      4
     5      5      6      5
     6      6      7      6
     7      7      8      7
     8      8      9      7
     9      9     10      5
    10     10     11     10
    11     11     12     11
    12     12     13     10
    13     13     14      1
    14     14     15      1
    15     15     16      1
    16     16     17      2
    17     17     18      3
    18     18     19      3
    19     19     20      4
    20     20     21      5
    21     21     22      6
    22     22     23      6
    23     23     24      7
    24     24     25      8
    25     25     26      8
    26     26     27      9
    27     27     28      9
    28     28     29     10
    29     29     30     11
    30     30     31     11
    31     31     32     12
    32     32     33     12
    33     33     34     13
    34     34     35     13
    35     35      4      3
    36     36      9      8
    37     37     13     12

Angles 

     1      1      1      2      3
     2      2      1      2      4
     3      3      2      4      5
     4      4      4      5      6
     5      5      5      6      7
     6      6      6      7      8
     7      7      6      7      9
     8      8      4      5     10
     9      9      5     10     11
    10     10     10     11     12
    11     11      5     10     13
    12     12      2      1     14
    13     13      2      1     15
    14     14      2      1     16
    15     15      1      2     17
    16     16      2      3     18
    17     17      2      3     19
    18     18      2      4     20
    19     19      4      5     21
    20     20      5      6     22
    21     21      5      6     23
    22     22      6      7     24
    23     23      7      8     25
    24     24      7      8     26
    25     25      7      9     27
    26     26      7      9     28
    27     27      5     10     29
    28     28     10     11     30
    29     29     10     11     31
    30     30     11     12     32
    31     31     11     12     33
    32     32     10     13     34
    33     33     10     13     35
    34     34     12     13     34
    35     35     13     10     29
    36     36     12     11     31
    37     37      9      8     25
    38     38     30     11     31
    39     39      9      7     24
    40     40     13     12     33
    41     41     14      1     16
    42     42      2      4      3
    43     43     12     13     35
    44     44      2      3      4
    45     45      8      9     28
    46     46      3      2     17
    47     47     10      5     21
    48     48     13     12     32
    49     49     25      8     26
    50     50      4      3     19
    51     51      8      7      9
    52     52      7      6     23
    53     53     11     10     29
    54     54     15      1     16
    55     55     14      1     15
    56     56      4      3     18
    57     57      7      8      9
    58     58     12     11     30
    59     59     27      9     28
    60     60      3      2      4
    61     61      7      9      8
    62     62      4      2     17
    63     63      6      5     21
    64     64      5      4     20
    65     65     32     12     33
    66     66     10     13     12
    67     67      9      8     26
    68     68     34     13     35
    69     69      8      7     24
    70     70     11     12     13
    71     71     18      3     19
    72     72      3      4     20
    73     73     22      6     23
    74     74      8      9     27
    75     75      6      5     10
    76     76     11     10     13
    77     77      3      4      5
    78     78      7      6     22

Dihedrals

     1      1      4      2      1      3 
     2      2      5      4      2      3 
     3      3      6      5      4      2 
     4      4      7      6      5      4 
     5      5      8      7      6      5 
     6      6      9      7      6      8 
     7      7     11     10      5      4 
     8      8     12     11     10      5 
     9      9     14      1      2      3 
    10     10     18      3      2      4 
    11     11     19      3      2      4 
    12     12     20      4      2      3 
    13     13     25      8      7      9 
    14     14     26      8      7      9 
    15     15     27      9      7      8 
    16     16     28      9      7      8 
    17     17     22      6      7      9 
    18     18     23      6      7      8 
    19     19     20      4      2     17 
    20     20      5      4      2      1 
    21     21     30     11     10     13 
    22     22     23      6      5      4 
    23     23     18      3      4      2 
    24     24     33     12     13     10 
    25     25     23      6      5     21 
    26     26     17      2      4      3 
    27     27      9      7      6      5 
    28     28     34     13     10     11 
    29     29     19      3      4      2 
    30     30     10      5      4      2 
    31     31     22      6      5      4 
    32     32     20      4      3     18 
    33     33     22      6      5     10 
    34     34     35     13     10     11 
    35     35     21      5     10     11 
    36     36     26      8      9      7 
    37     37     24      7      6     23 
    38     38      5      4      3      2 
    39     39     21      5      4      3 
    40     40     28      9      7      6 
    41     41     18      3      2     17 
    42     42     35     13     12     32 
    43     43     29     10      5     21 
    44     44     25      8      7      6 
    45     45     17      2      1     16 
    46     46     24      7      6      5 
    47     47     17      2      3      4 
    48     48     31     11     10     13 
    49     49     19      3      2      1 
    50     50     27      9      8      7 
    51     51     30     11     10      5 
    52     52     22      6      5     21 
    53     53     34     13     10      5 
    54     54     10      5      6      7 
    55     55     33     12     11     10 
    56     56     27      9      7      6 
    57     57     35     13     12     33 
    58     58     30     11     12     13 
    59     59     17      2      1     15 
    60     60     29     10     11     12 
    61     61     24      7      8      9 
    62     62     22      6      7      8 
    63     63     28      9      7     24 
    64     64     27      9      7     24 
    65     65     21      5      6      7 
    66     66     13     10      5      6 
    67     67     29     10      5      6 
    68     68     10      5      4      3 
    69     69     18      3      2      1 
    70     70      6      5      4      3 
    71     71     32     12     13     10 
    72     72     25      8      9      7 
    73     73     20      4      5      6 
    74     74     31     11     12     13 
    75     75     27      9      8     25 
    76     76     18      3      4      5 
    77     77     24      7      6     22 
    78     78     30     11     10     29 
    79     79     26      8      7     24 
    80     80     28      9      8      7 
    81     81     20      4      3      2 
    82     82     17      2      4      5 
    83     83     27      9      8     26 
    84     84     28      9      8     25 
    85     85     28      9      8     26 
    86     86     12     13     10      5 
    87     87     21      5      4      2 
    88     88     15      1      2      3 
    89     89     14      1      2      4 
    90     90     16      1      2      4 
    91     91     23      6      7      9 
    92     92     25      8      7     24 
    93     93     20      4      5     10 
    94     94     17      2      1     14 
    95     95     19      3      2     17 
    96     96     34     13     12     32 
    97     97     21      5     10     13 
    98     98     26      8      7      6 
    99     99     35     13     12     11 
   100    100     23      6      5     10 
   101    101     24      7      9      8 
   102    102     31     11     10     29 
   103    103     33     12     11     31 
   104    104     29     10     13     12 
   105    105     32     12     11     10 
   106    106     35     13     10      5 
   107    107     20      4      3     19 
   108    108     34     13     12     33 
   109    109     35     13     10     29 
   110    110     19      3      4      5 
   111    111     32     12     11     30 
   112    112     31     11     10      5 
   113    113     21      5      4     20 
   114    114     20      4      2      1 
   115    115     15      1      2      4 
   116    116     16      1      2      3 
   117    117     34     13     10     29 
   118    118     29     10      5      4 
   119    119     33     12     11     30 
   120    120     32     12     11     31 
   121    121     34     13     12     11 
   122    122     13     10      5      4 
   123    123     11     10      5      6 

Impropers

     1      1      5     10      4      6 
     2      2     10     11     13      5 
     3      3      1      2     14     15 
     4      4      1      2     14     16 
     5      5      2     17      3      1 
     6      6      5      4     21      6 
     7      7      6      5     22      7 
     8      8      6      7      5     23 
     9      9      7      8      6     24 
    10     10     10     11     29      5 
    11     11     11     10     12     30 
    12     12     11     10     12     31 
    13     13     12     11     13     32 
    14     14     12     33     11     13 
    15     15     13     34     12     10 
    16     16     13     10     35     12 
    17     17      7      9      8      6 
    18     18      7      9      8      6 
    19     19     10     11     12     13 
    20     20      2      3      4      1 
    21     21     10     11     12     13 
    22     22     10     11     12     13 
    23     23     10     11     12     13 
    24     24      2      3      4      1 

