LAMMPS data file Created by LigParGen - (Written by Leela S. Dodda)

      28 atoms
      32 bonds
      72 angles
     130 dihedrals
      24 impropers
 
      28 atom types
      32 bond types
      72 angle types
     130 dihedral types
      24 improper types
 
   -4.356510    45.643490 xlo xhi
   -0.865280    49.134720 ylo yhi
   -3.533710    46.466290 zlo zhi

Masses

       1     12.011  
       2     12.011  
       3     12.011  
       4     12.011  
       5     12.011  
       6     12.011  
       7     12.011  
       8     12.011  
       9     12.011  
      10     12.011  
      11     12.011  
      12     12.011  
      13      1.008  
      14      1.008  
      15      1.008  
      16      1.008  
      17      1.008  
      18      1.008  
      19      1.008  
      20      1.008  
      21      1.008  
      22      1.008  
      23      1.008  
      24      1.008  
      25      1.008  
      26      1.008  
      27      1.008  
      28      1.008  

Pair Coeffs 

       1      0.066  3.5000000 
       2      0.083  3.4500000 
       3      0.083  3.4500000 
       4      0.083  3.4500000 
       5      0.066  3.5000000 
       6      0.083  3.4500000 
       7      0.083  3.4500000 
       8      0.066  3.5000000 
       9      0.066  3.5000000 
      10      0.083  3.4500000 
      11      0.083  3.4500000 
      12      0.083  3.4500000 
      13      0.030  2.5000000 
      14      0.030  2.5000000 
      15      0.030  2.5000000 
      16      0.030  2.5000000 
      17      0.030  2.5000000 
      18      0.030  2.5000000 
      19      0.030  2.5000000 
      20      0.030  2.5000000 
      21      0.030  2.5000000 
      22      0.030  2.5000000 
      23      0.030  2.5000000 
      24      0.030  2.5000000 
      25      0.030  2.5000000 
      26      0.030  2.5000000 
      27      0.030  2.5000000 
      28      0.030  2.5000000 

Bond Coeffs 

       1   280.0000     1.5100 
       2   260.0000     1.5200 
       3   260.0000     1.5200 
       4   280.0000     1.5100 
       5   280.0000     1.5100 
       6   260.0000     1.5200 
       7   280.0000     1.5100 
       8   268.0000     1.5290 
       9   260.0000     1.5200 
      10   260.0000     1.5200 
      11   260.0000     1.5200 
      12   340.0000     1.0900 
      13   340.0000     1.0900 
      14   340.0000     1.0900 
      15   340.0000     1.0880 
      16   340.0000     1.0880 
      17   340.0000     1.0880 
      18   340.0000     1.0900 
      19   340.0000     1.0900 
      20   340.0000     1.0880 
      21   340.0000     1.0880 
      22   340.0000     1.0900 
      23   340.0000     1.0900 
      24   340.0000     1.0900 
      25   340.0000     1.0900 
      26   340.0000     1.0880 
      27   340.0000     1.0880 
      28   260.0000     1.5200 
      29   260.0000     1.5200 
      30   280.0000     1.5100 
      31   260.0000     1.5200 
      32   260.0000     1.5200 

Angle Coeffs 

       1     37.500    117.200
       2     30.000     83.000
       3     37.500    117.200
       4     58.350    112.700
       5     37.500    117.200
       6     37.500    117.200
       7     58.350    112.700
       8     37.500    117.200
       9     37.500    117.200
      10     30.000     83.000
      11     37.500    110.700
      12     37.500    110.700
      13     37.500    110.700
      14     35.000    114.300
      15     37.500    117.200
      16     37.500    117.200
      17     37.500    110.700
      18     37.500    110.700
      19     35.000    114.300
      20     37.500    117.200
      21     37.500    110.700
      22     37.500    110.700
      23     37.500    110.700
      24     37.500    110.700
      25     37.500    117.200
      26     37.500    117.200
      27     37.500    117.200
      28     37.500    117.200
      29     33.000    107.800
      30     37.500    117.200
      31     33.000    107.800
      32     30.000     83.000
      33     33.000    107.800
      34     37.500    117.200
      35     37.500    117.200
      36     30.000     83.000
      37     37.500    117.200
      38     37.500    110.700
      39     30.000     83.000
      40     30.000     83.000
      41     33.000    107.800
      42     33.000    107.800
      43     30.000     83.000
      44     37.500    117.200
      45     30.000     83.000
      46     37.500    110.700
      47     37.500    110.700
      48     30.000     83.000
      49     37.500    117.200
      50     30.000     83.000
      51     30.000     83.000
      52     37.500    117.200
      53     30.000     83.000
      54     37.500    110.700
      55     37.500    117.200
      56     35.000    114.300
      57     37.500    117.200
      58     37.500    110.700
      59     37.500    110.700
      60     30.000     83.000
      61     37.500    117.200
      62     30.000     83.000
      63     37.500    117.200
      64     37.500    117.200
      65     58.350    112.700
      66     35.000    114.300
      67     33.000    107.800
      68     37.500    117.200
      69     37.500    117.200
      70     37.500    117.200
      71     30.000     83.000
      72     30.000     83.000

Dihedral Coeffs  

       1      0.000      0.000      0.000      0.000 
       2      0.000      0.000      0.000      0.000 
       3      0.000      0.000      0.000      0.000 
       4      0.000      0.000      0.000      0.000 
       5      0.000      0.000      0.000      0.000 
       6      0.000      0.000      0.000      0.000 
       7      0.000      0.000      0.000      0.000 
       8      0.000      0.000      0.000      0.000 
       9      0.000      0.000      0.300      0.000 
      10      0.000      0.000      0.000      0.000 
      11      0.000      0.000      0.000      0.000 
      12      0.000      0.000      0.000      0.000 
      13      0.000      0.000      0.000      0.000 
      14      0.000      0.000      0.000      0.000 
      15      0.000      0.000      0.300      0.000 
      16      0.000      0.000      0.000      0.000 
      17      0.000      0.000      0.000      0.000 
      18      0.000      0.000      0.000      0.000 
      19      0.000      0.000      0.000      0.000 
      20      0.000      0.000      0.300      0.000 
      21      1.300     -0.200      0.200      0.000 
      22      0.000      0.000      0.000      0.000 
      23      0.000      0.000      0.300      0.000 
      24      0.000      0.000      0.000      0.000 
      25      0.000      0.000      0.300      0.000 
      26      0.000      0.000      0.300      0.000 
      27      0.000      0.000      0.300      0.000 
      28      0.000      0.000      0.300      0.000 
      29      0.000      0.000      0.000      0.000 
      30      0.000      0.000      0.000      0.000 
      31      0.000      0.000      0.300      0.000 
      32      0.000      0.000      0.300      0.000 
      33      0.000      0.000      0.000      0.000 
      34      0.000      0.000      0.300      0.000 
      35      0.000      0.000      0.000      0.000 
      36      0.000      0.000      0.000      0.000 
      37      0.000      0.000      0.000      0.000 
      38      0.000      0.000      0.000      0.000 
      39      0.000      0.000      0.000      0.000 
      40      0.000      0.000      0.000      0.000 
      41      0.000      0.000      0.300      0.000 
      42      0.000      0.000      0.300      0.000 
      43      0.000      0.000      0.000      0.000 
      44      0.000      0.000      0.000      0.000 
      45      0.000      0.000      0.000      0.000 
      46      0.000      0.000      0.000      0.000 
      47      0.000      0.000      0.300      0.000 
      48      0.000      0.000      0.300      0.000 
      49      0.000      0.000      0.300      0.000 
      50      0.000      0.000      0.300      0.000 
      51      0.000      0.000      0.300      0.000 
      52      0.000      0.000      0.000      0.000 
      53      0.000      0.000      0.000      0.000 
      54      0.000      0.000      0.000      0.000 
      55      0.000      0.000      0.300      0.000 
      56      0.000      0.000      0.300      0.000 
      57      0.000      0.000      0.000      0.000 
      58      0.000      0.000      0.300      0.000 
      59      0.000      0.000      0.000      0.000 
      60      0.000      0.000      0.000      0.000 
      61      0.000      0.000      0.000      0.000 
      62      0.000      0.000      0.000      0.000 
      63      0.000      0.000      0.000      0.000 
      64      0.000      0.000      0.000      0.000 
      65      0.000      0.000      0.000      0.000 
      66      0.000      0.000      0.000      0.000 
      67      0.000      0.000      0.300      0.000 
      68      0.000      0.000      0.000      0.000 
      69      0.000      0.000      0.000      0.000 
      70      0.000      0.000      0.000      0.000 
      71      0.000      0.000      0.000      0.000 
      72      0.000      0.000      0.000      0.000 
      73      0.000      0.000      0.000      0.000 
      74      0.000      0.000      0.000      0.000 
      75      0.000      0.000      0.000      0.000 
      76      0.000      0.000      0.000      0.000 
      77      0.000      0.000      0.300      0.000 
      78      0.000      0.000      0.000      0.000 
      79      0.000      0.000      0.000      0.000 
      80      0.000      0.000      0.000      0.000 
      81      0.000      0.000      0.000      0.000 
      82      0.000      0.000      0.000      0.000 
      83      0.000      0.000      0.000      0.000 
      84      0.000      0.000      0.300      0.000 
      85      0.000      0.000      0.000      0.000 
      86      0.000      0.000      0.000      0.000 
      87      0.000      0.000      0.300      0.000 
      88      0.000      0.000      0.000      0.000 
      89      0.000      0.000      0.000      0.000 
      90      0.000      0.000      0.000      0.000 
      91      0.000      0.000      0.300      0.000 
      92      0.000      0.000      0.000      0.000 
      93      0.000      0.000      0.300      0.000 
      94      0.000      0.000      0.300      0.000 
      95      0.000      0.000      0.000      0.000 
      96      0.000      0.000      0.000      0.000 
      97      0.000      0.000      0.000      0.000 
      98      0.000      0.000      0.300      0.000 
      99      0.000      0.000      0.000      0.000 
     100      0.000      0.000      0.000      0.000 
     101      0.000      0.000      0.300      0.000 
     102      0.000      0.000      0.300      0.000 
     103      0.000      0.000      0.000      0.000 
     104      0.000      0.000      0.300      0.000 
     105      0.000      0.000      0.300      0.000 
     106      0.000      0.000      0.000      0.000 
     107      0.000      0.000      0.000      0.000 
     108      0.000      0.000      0.300      0.000 
     109      0.000      0.000      0.300      0.000 
     110      0.000      0.000      0.000      0.000 
     111      0.000      0.000      0.300      0.000 
     112      0.000      0.000      0.000      0.000 
     113      0.000      0.000      0.000      0.000 
     114      0.000      0.000      0.300      0.000 
     115      0.000      0.000      0.000      0.000 
     116      0.000      0.000      0.000      0.000 
     117      0.000      0.000      0.000      0.000 
     118      0.000      0.000      0.300      0.000 
     119      0.000      0.000      0.300      0.000 
     120      0.000      0.000      0.000      0.000 
     121      0.000      0.000      0.000      0.000 
     122      0.000      0.000      0.300      0.000 
     123      0.000      0.000      0.000      0.000 
     124      0.000      0.000      0.000      0.000 
     125      0.000      0.000      0.000      0.000 
     126      0.000      0.000      0.300      0.000 
     127      0.000      0.000      0.000      0.000 
     128      0.000      0.000      0.000      0.000 
     129      0.000      0.000      0.300      0.000 
     130      0.000      0.000      0.000      0.000 

Improper Coeffs 

       1      0.000      -1       2 
       2      0.000      -1       2 
       3      0.000      -1       2 
       4      0.000      -1       2 
       5      0.000      -1       2 
       6      0.000      -1       2 
       7      0.000      -1       2 
       8      0.000      -1       2 
       9      0.000      -1       2 
      10      0.000      -1       2 
      11      0.000      -1       2 
      12      0.000      -1       2 
      13      0.000      -1       2 
      14      0.000      -1       2 
      15      0.000      -1       2 
      16      0.000      -1       2 
      17      0.000      -1       2 
      18      0.000      -1       2 
      19      0.000      -1       2 
      20      0.000      -1       2 
      21      0.000      -1       2 
      22      0.000      -1       2 
      23      0.000      -1       2 
      24      0.000      -1       2 

Atoms 

     1      1      1 -0.20690000    1.000  1.00000  0.00000
     2      1      2 -0.11750000   -0.519  1.00000  0.00000
     3      1      3 -0.22230000   -1.187  1.00000  1.31743
     4      1      4 -0.12340000   -2.686  0.93834  1.30967
     5      1      5 -0.11370000   -3.247  0.07447  0.12382
     6      1      6 -0.13920000   -3.342  0.72496 -1.27731
     7      1      7 -0.19280000   -2.419  1.51109 -2.46361
     8      1      8 -0.14100000   -1.008  2.13823 -2.60954
     9      1      9 -0.13910000   -0.761  3.09394 -1.37093
    10      1     10 -0.02650000   -1.514  2.27901 -0.38652
    11      1     11 -0.18380000   -2.804  2.06704 -1.17160
    12      1     12 -0.17460000   -1.904  2.23883  1.01040
    13      1     13 0.08480000    1.384  0.26417  0.71570
    14      1     14 0.08480000    1.426  1.97447  0.24370
    15      1     15 0.08480000    1.368  0.69347 -0.98709
    16      1     16 0.10360000   -0.775  0.08561 -0.55706
    17      1     17 0.13890000   -0.571  1.00000  2.20239
    18      1     18 0.15440000   -3.199  0.81675  2.24981
    19      1     19 0.09630000   -4.264 -0.21285  0.41838
    20      1     20 0.09630000   -2.685 -0.86528  0.05077
    21      1     21 0.13500000   -4.357  0.56749 -1.63764
    22      1     22 0.13520000   -3.002  1.73358 -3.35384
    23      1     23 0.09710000   -0.934  2.72219 -3.53371
    24      1     24 0.09710000   -0.254  1.34602 -2.65205
    25      1     25 0.10100000   -1.237  4.06874 -1.54328
    26      1     26 0.10100000    0.296  3.26590 -1.16910
    27      1     27 0.12100000   -3.470  2.92479 -1.12459
    28      1     28 0.14970000   -1.878  3.11569  1.63387

Bonds 

     1      1      2      1
     2      2      3      2
     3      3      4      3
     4      4      5      4
     5      5      6      5
     6      6      7      6
     7      7      8      7
     8      8      9      8
     9      9     10      2
    10     10     11      6
    11     11     12      3
    12     12     13      1
    13     13     14      1
    14     14     15      1
    15     15     16      2
    16     16     17      3
    17     17     18      4
    18     18     19      5
    19     19     20      5
    20     20     21      6
    21     21     22      7
    22     22     23      8
    23     23     24      8
    24     24     25      9
    25     25     26      9
    26     26     27     11
    27     27     28     12
    28     28     12      4
    29     29     11      7
    30     30     10      9
    31     31     11     10
    32     32     12     10

Angles 

     1      1      1      2      3
     2      2      2      3      4
     3      3      3      4      5
     4      4      4      5      6
     5      5      5      6      7
     6      6      6      7      8
     7      7      7      8      9
     8      8      1      2     10
     9      9      5      6     11
    10     10      2      3     12
    11     11      2      1     13
    12     12      2      1     14
    13     13      2      1     15
    14     14      1      2     16
    15     15      2      3     17
    16     16      3      4     18
    17     17      4      5     19
    18     18      4      5     20
    19     19      5      6     21
    20     20      6      7     22
    21     21      7      8     23
    22     22      7      8     24
    23     23      8      9     25
    24     24      8      9     26
    25     25      6     11     27
    26     26      3     12     28
    27     27      8      7     11
    28     28      5      4     12
    29     29     13      1     14
    30     30      7     11     27
    31     31     23      8     24
    32     32     11     10     12
    33     33     25      9     26
    34     34     11      7     22
    35     35     11      6     21
    36     36      2     10     12
    37     37     12      4     18
    38     38      6      5     19
    39     39      3     12     10
    40     40      6     11     10
    41     41     19      5     20
    42     42     14      1     15
    43     43      6     11      7
    44     44      3      2     16
    45     45      7      6     11
    46     46      6      5     20
    47     47      9      8     24
    48     48      3     12      4
    49     49      9     10     12
    50     50      3      4     12
    51     51      2     10     11
    52     52      4     12     28
    53     53      6      7     11
    54     54     10      9     25
    55     55     12      3     17
    56     56      8      7     22
    57     57      2     10      9
    58     58      9      8     23
    59     59     10      9     26
    60     60      4      3     12
    61     61      9     10     11
    62     62      7     11     10
    63     63      4      3     17
    64     64     10     12     28
    65     65      8      9     10
    66     66      5      4     18
    67     67     13      1     15
    68     68     10     11     27
    69     69      7      6     21
    70     70     10      2     16
    71     71      4     12     10
    72     72      3      2     10

Dihedrals

     1      1      4      3      2      1 
     2      2      5      4      3      2 
     3      3      6      5      4      3 
     4      4      7      6      5      4 
     5      5      8      7      6      5 
     6      6      9      8      7      6 
     7      7     11      6      5      7 
     8      8     12      3      2      4 
     9      9     13      1      2      3 
    10     10     27     11      6      7 
    11     11     28     12      3      4 
    12     12     18      4     12     10 
    13     13     18      4      3      2 
    14     14     17      3      2     16 
    15     15     24      8      7     22 
    16     16     16      2     10     12 
    17     17     22      7      6     11 
    18     18     12     10     11      7 
    19     19     21      6      7     11 
    20     20     19      5      6      7 
    21     21     10      9      8      7 
    22     22     12      3      2      1 
    23     23     25      9     10      2 
    24     24     16      2     10      9 
    25     25     20      5      6      7 
    26     26     23      8      9     10 
    27     27     26      9      8      7 
    28     28     24      8      9     10 
    29     29     27     11     10      2 
    30     30     10     11      6      7 
    31     31     19      5      6     11 
    32     32     23      8      7     22 
    33     33     11     10      2      1 
    34     34     26      9      8     24 
    35     35     21      6      7      8 
    36     36      9     10      2      3 
    37     37     16      2      3      4 
    38     38     10     12      4      3 
    39     39     27     11     10     12 
    40     40     27     11      7     22 
    41     41     26      9     10     11 
    42     42     25      9     10     12 
    43     43     27     11      6      5 
    44     44      9     10      2      1 
    45     45     28     12      4      5 
    46     46     21      6     11     10 
    47     47     19      5      4     12 
    48     48     21      6      5     20 
    49     49     20      5      4      3 
    50     50     23      8      7      6 
    51     51     25      9     10     11 
    52     52     17      3      4     12 
    53     53      9     10     11      7 
    54     54     17      3      2     10 
    55     55     22      7      8      9 
    56     56     20      5      4     18 
    57     57     27     11      7      6 
    58     58     14      1      2     10 
    59     59      4     12     10      2 
    60     60     17      3      2      1 
    61     61      5      4     12      3 
    62     62     10     12      4      5 
    63     63     22      7      6      5 
    64     64     11     10      9      8 
    65     65     16      2      3     12 
    66     66     12      4      5      6 
    67     67     25      9      8     23 
    68     68     21      6     11      7 
    69     69     10     11      7      6 
    70     70     17      3     12     10 
    71     71     28     12      3      2 
    72     72     10     11      6      5 
    73     73     27     11     10      9 
    74     74     16      2     10     11 
    75     75     11      6      5      4 
    76     76     22      7      6     21 
    77     77     25      9      8      7 
    78     78      9     10     12      3 
    79     79     11     10     12      3 
    80     80      9     10     11      6 
    81     81     17      3     12      4 
    82     82     28     12      4      3 
    83     83     18      4     12      3 
    84     84     19      5      4      3 
    85     85     17      3      4      5 
    86     86     27     11      7      8 
    87     87     24      8      7      6 
    88     88     11     10      2      3 
    89     89      9     10     12      4 
    90     90     22      7     11     10 
    91     91     26      9      8     23 
    92     92     28     12      3     17 
    93     93     26      9     10      2 
    94     94     15      1      2      3 
    95     95     10     12      3      4 
    96     96     11     10     12      4 
    97     97      8      7     11      6 
    98     98     26      9     10     12 
    99     99     12     10     11      6 
   100    100     21      6      5      4 
   101    101     25      9      8     24 
   102    102     19      5      4     18 
   103    103     11      7      8      9 
   104    104     16      2      1     14 
   105    105     23      8      7     11 
   106    106     22      7     11      6 
   107    107      7     11     10      2 
   108    108     24      8      7     11 
   109    109     21      6      5     19 
   110    110     27     11      6     21 
   111    111     20      5      6     11 
   112    112     12     10      9      8 
   113    113     28     12     10      2 
   114    114     16      2      1     13 
   115    115     10     11      7      8 
   116    116     18      4      3     12 
   117    117      8      9     10      2 
   118    118     13      1      2     10 
   119    119     14      1      2      3 
   120    120     10      2      3      4 
   121    121     18      4      3     17 
   122    122     20      5      4     12 
   123    123      6     11     10      2 
   124    124     18      4      5      6 
   125    125     28     12     10      9 
   126    126     16      2      1     15 
   127    127     28     12     10     11 
   128    128     12     10      2      1 
   129    129     15      1      2     10 
   130    130     28     12      4     18 

Impropers

     1      1      2      1     10      3 
     2      2      1      2     13     14 
     3      3      1      2     13     15 
     4      4      2      1      3     16 
     5      5      3     17      2      4 
     6      6      4     18      3      5 
     7      7      5     19      4      6 
     8      8      5      4     20      6 
     9      9      6      5     21      7 
    10     10      7      8     22      6 
    11     11      8      9      7     23 
    12     12      8      9      7     24 
    13     13      9     25     10      8 
    14     14      9     26     10      8 
    15     15     10      3     12      2 
    16     16      6     11      7      5 
    17     17      3     12      4      2 
    18     18      6     11      7      5 
    19     19      2      3     12     10 
    20     20     10      3     12      2 
    21     21      3      4     12      2 
    22     22      4      3     12      5 
    23     23     10      3     12      2 
    24     24      7     11      6      8 

