LAMMPS data file Created by LigParGen - (Written by Leela S. Dodda)

      25 atoms
      24 bonds
      41 angles
      44 dihedrals
      13 impropers
 
      25 atom types
      24 bond types
      41 angle types
      44 dihedral types
      13 improper types
 
   -4.948910    45.051090 xlo xhi
    0.075940    50.075940 ylo yhi
   -1.039090    48.960910 zlo zhi

Masses

       1     12.011  
       2     15.999  
       3     12.011  
       4     15.999  
       5     15.999  
       6     12.011  
       7     12.011  
       8     15.999  
       9     12.011  
      10     15.999  
      11     12.011  
      12     12.011  
      13     12.011  
      14      1.008  
      15      1.008  
      16      1.008  
      17      1.008  
      18      1.008  
      19      1.008  
      20      1.008  
      21      1.008  
      22      1.008  
      23      1.008  
      24      1.008  
      25      1.008  

Pair Coeffs 

       1      0.066  3.5000000 
       2      0.140  2.9000000 
       3      0.070  3.5500000 
       4      0.210  2.9600000 
       5      0.140  2.9000000 
       6      0.066  3.5000000 
       7      0.070  3.5500000 
       8      0.210  2.9600000 
       9      0.070  3.5500000 
      10      0.210  2.9600000 
      11      0.066  3.5000000 
      12      0.066  3.5000000 
      13      0.066  3.5000000 
      14      0.030  2.5000000 
      15      0.030  2.5000000 
      16      0.030  2.5000000 
      17      0.030  2.5000000 
      18      0.030  2.5000000 
      19      0.030  2.5000000 
      20      0.030  2.5000000 
      21      0.030  2.5000000 
      22      0.030  2.5000000 
      23      0.030  2.5000000 
      24      0.030  2.5000000 
      25      0.030  2.5000000 

Bond Coeffs 

       1   320.0000     1.4100 
       2   214.0000     1.3270 
       3   570.0000     1.2290 
       4   214.0000     1.3270 
       5   320.0000     1.4100 
       6   317.0000     1.5220 
       7   570.0000     1.2290 
       8   350.0000     1.5100 
       9   570.0000     1.2290 
      10   317.0000     1.5220 
      11   268.0000     1.5290 
      12   268.0000     1.5290 
      13   340.0000     1.0900 
      14   340.0000     1.0900 
      15   340.0000     1.0900 
      16   340.0000     1.0900 
      17   340.0000     1.0900 
      18   340.0000     1.0900 
      19   340.0000     1.0900 
      20   340.0000     1.0900 
      21   340.0000     1.0900 
      22   340.0000     1.0900 
      23   340.0000     1.0900 
      24   340.0000     1.0900 

Angle Coeffs 

       1     83.000    116.900
       2     83.000    123.400
       3     69.900    118.180
       4     83.000    116.900
       5     50.000    109.500
       6     80.000    120.400
       7     80.000    117.200
       8     80.000    121.400
       9     80.000    117.200
      10     63.000    111.100
      11     63.000    111.100
      12     35.000    109.500
      13     35.000    109.500
      14     35.000    109.500
      15     35.000    109.500
      16     35.000    109.500
      17     35.000    109.500
      18     37.500    110.700
      19     37.500    110.700
      20     37.500    110.700
      21     37.500    110.700
      22     37.500    110.700
      23     37.500    110.700
      24     35.000    109.500
      25     33.000    107.800
      26     35.000    109.500
      27     33.000    107.800
      28     33.000    107.800
      29     33.000    107.800
      30     37.500    110.700
      31     37.500    110.700
      32     33.000    107.800
      33     33.000    107.800
      34     80.000    121.400
      35     33.000    107.800
      36     33.000    107.800
      37     80.000    120.400
      38     58.350    112.700
      39     33.000    107.800
      40     33.000    107.800
      41     83.000    123.400

Dihedral Coeffs  

       1      0.000      5.124      0.000      0.000 
       2      4.669      5.124      0.000      0.000 
       3     -1.220     -0.126      0.422      0.000 
       4      0.000      0.000      0.000      0.000 
       5      0.000      0.500      0.000      0.000 
       6      0.000      0.000      0.000      0.000 
       7      0.000      0.000      0.198      0.000 
       8      0.000      0.000     -0.100      0.000 
       9      0.000      0.000     -0.100      0.000 
      10      0.000      0.000     -0.100      0.000 
      11      0.000      0.000      0.300      0.000 
      12      0.700     -1.500      0.000      0.000 
      13      4.669      5.124      0.000      0.000 
      14      0.000      0.000      0.085      0.000 
      15      0.000      0.000      0.300      0.000 
      16      0.000      0.000      0.300      0.000 
      17      0.000      5.124      0.000      0.000 
      18      0.000      0.000      0.300      0.000 
      19     -6.180      0.000      0.000      0.000 
      20      0.000      0.000      0.198      0.000 
      21      0.000      0.000      0.000      0.000 
      22      0.000      0.500      0.000      0.000 
      23      0.000      0.000      0.300      0.000 
      24      0.000      0.000      0.198      0.000 
      25      0.000      0.000      0.000      0.000 
      26      0.000      0.000      0.000      0.000 
      27      0.000      0.000      0.085      0.000 
      28      0.000      0.000     -0.100      0.000 
      29      0.000      0.000     -0.100      0.000 
      30      0.000      0.000      0.300      0.000 
      31      0.000      0.000      0.300      0.000 
      32      0.000      0.000      0.300      0.000 
      33      0.000      0.000      0.198      0.000 
      34      0.000      0.000      0.300      0.000 
      35      0.000      0.000      0.300      0.000 
      36      0.000      0.000      0.000      0.000 
      37      0.000      0.000      0.085      0.000 
      38      0.000      0.000      0.198      0.000 
      39      0.000      0.000      0.300      0.000 
      40      0.000      0.000      0.300      0.000 
      41      1.600      3.200      0.000      0.000 
      42      0.000      0.000      0.000      0.000 
      43      0.000      0.000     -0.100      0.000 
      44      0.000      0.000      0.000      0.000 

Improper Coeffs 

       1     10.500      -1       2 
       2     10.500      -1       2 
       3     10.500      -1       2 
       4      0.000      -1       2 
       5      0.000      -1       2 
       6      0.000      -1       2 
       7      0.000      -1       2 
       8      0.000      -1       2 
       9      0.000      -1       2 
      10      0.000      -1       2 
      11      0.000      -1       2 
      12      0.000      -1       2 
      13      0.000      -1       2 

Atoms 

     1      1      1 -0.04450000    1.000  1.00000  0.00000
     2      1      2 -0.30660000   -0.426  1.00000  0.00000
     3      1      3 0.57410000   -0.977  1.00000  1.23743
     4      1      4 -0.49840000   -0.373  1.00000  2.29920
     5      1      5 -0.29440000   -2.327  0.99837  1.09803
     6      1      6 -0.02770000   -3.044  1.05789  2.32893
     7      1      7 0.29860000   -3.021  2.43506  2.96056
     8      1      8 -0.38260000   -2.465  3.42875  2.51230
     9      1      9 0.33480000   -3.770  2.53283  4.26804
    10      1     10 -0.41090000   -4.949  2.20026  4.27995
    11      1     11 -0.15480000   -2.964  2.98182  5.47293
    12      1     12 -0.23450000   -3.862  3.12354  6.70029
    13      1     13 -0.24200000   -1.845  1.98207  5.75119
    14      1     14 0.11000000    1.338  1.04780 -1.03909
    15      1     15 0.11000000    1.381  0.07594  0.44557
    16      1     16 0.11000000    1.387  1.87653  0.52961
    17      1     17 0.16280000   -2.648  0.32070  3.03831
    18      1     18 0.16280000   -4.083  0.79453  2.10848
    19      1     19 0.14710000   -2.536  3.96504  5.24461
    20      1     20 0.09550000   -4.363  2.17828  6.94018
    21      1     21 0.09550000   -4.641  3.87444  6.52693
    22      1     22 0.09550000   -3.282  3.43144  7.57634
    23      1     23 0.09980000   -2.249  0.97969  5.93329
    24      1     24 0.09980000   -1.262  2.28181  6.62757
    25      1     25 0.09980000   -1.158  1.90972  4.90245

Bonds 

     1      1      2      1
     2      2      3      2
     3      3      4      3
     4      4      5      3
     5      5      6      5
     6      6      7      6
     7      7      8      7
     8      8      9      7
     9      9     10      9
    10     10     11      9
    11     11     12     11
    12     12     13     11
    13     13     14      1
    14     14     15      1
    15     15     16      1
    16     16     17      6
    17     17     18      6
    18     18     19     11
    19     19     20     12
    20     20     21     12
    21     21     22     12
    22     22     23     13
    23     23     24     13
    24     24     25     13

Angles 

     1      1      1      2      3
     2      2      2      3      4
     3      3      2      3      5
     4      4      3      5      6
     5      5      5      6      7
     6      6      6      7      8
     7      7      6      7      9
     8      8      7      9     10
     9      9      7      9     11
    10     10      9     11     12
    11     11      9     11     13
    12     12      2      1     14
    13     13      2      1     15
    14     14      2      1     16
    15     15      5      6     17
    16     16      5      6     18
    17     17      9     11     19
    18     18     11     12     20
    19     19     11     12     21
    20     20     11     12     22
    21     21     11     13     23
    22     22     11     13     24
    23     23     11     13     25
    24     24      7      6     17
    25     25     20     12     22
    26     26      7      6     18
    27     27     20     12     21
    28     28     14      1     16
    29     29     17      6     18
    30     30     12     11     19
    31     31     13     11     19
    32     32     24     13     25
    33     33     23     13     25
    34     34      8      7      9
    35     35     15      1     16
    36     36     14      1     15
    37     37     10      9     11
    38     38     12     11     13
    39     39     23     13     24
    40     40     21     12     22
    41     41      4      3      5

Dihedrals

     1      1      4      3      2      1 
     2      2      6      5      3      2 
     3      3      7      6      5      3 
     4      4      8      7      6      5 
     5      5     10      9      7      6 
     6      6     12     11      9      7 
     7      7     14      1      2      3 
     8      8     20     12     11      9 
     9      9     23     13     11      9 
    10     10     22     12     11      9 
    11     11     24     13     11     19 
    12     12     11      9      7      6 
    13     13      5      3      2      1 
    14     14     19     11      9      7 
    15     15     24     13     11     12 
    16     16     23     13     11     19 
    17     17      6      5      3      4 
    18     18     22     12     11     19 
    19     19      9      7      6      5 
    20     20     17      6      5      3 
    21     21     13     11      9     10 
    22     22     11      9      7      8 
    23     23     23     13     11     12 
    24     24     18      6      5      3 
    25     25     19     11      9     10 
    26     26     13     11      9      7 
    27     27     18      6      7      9 
    28     28     24     13     11      9 
    29     29     21     12     11      9 
    30     30     22     12     11     13 
    31     31     21     12     11     13 
    32     32     25     13     11     12 
    33     33     16      1      2      3 
    34     34     20     12     11     13 
    35     35     21     12     11     19 
    36     36     18      6      7      8 
    37     37     17      6      7      9 
    38     38     15      1      2      3 
    39     39     20     12     11     19 
    40     40     25     13     11     19 
    41     41     10      9      7      8 
    42     42     12     11      9     10 
    43     43     25     13     11      9 
    44     44     17      6      7      8 

Impropers

     1      1      3      2      4      5 
     2      2      7      9      6      8 
     3      3      9     10     11      7 
     4      4     11      9     12     13 
     5      5      1      2     14     15 
     6      6      1      2     14     16 
     7      7      6     17      5      7 
     8      8      6     18      5      7 
     9      9     11      9     19     12 
    10     10     12     20     11     21 
    11     11     12     20     11     22 
    12     12     13     11     23     24 
    13     13     13     25     11     23 

