LAMMPS data file Created by LigParGen - (Written by Leela S. Dodda)

      31 atoms
      30 bonds
      57 angles
      72 dihedrals
      19 impropers
 
      31 atom types
      30 bond types
      57 angle types
      72 dihedral types
      19 improper types
 
   -3.932590    46.067410 xlo xhi
   -4.929920    45.070080 ylo yhi
   -1.028690    48.971310 zlo zhi

Masses

       1     12.011  
       2     12.011  
       3     30.974  
       4     12.011  
       5     12.011  
       6     12.011  
       7     12.011  
       8     12.011  
       9     12.011  
      10     12.011  
      11      1.008  
      12      1.008  
      13      1.008  
      14      1.008  
      15      1.008  
      16      1.008  
      17      1.008  
      18      1.008  
      19      1.008  
      20      1.008  
      21      1.008  
      22      1.008  
      23      1.008  
      24      1.008  
      25      1.008  
      26      1.008  
      27      1.008  
      28      1.008  
      29      1.008  
      30      1.008  
      31      1.008  

Pair Coeffs 

       1      0.066  3.5000000 
       2      0.066  3.5000000 
       3      0.200  3.7400000 
       4      0.066  3.5000000 
       5      0.066  3.5000000 
       6      0.066  3.5000000 
       7      0.066  3.5000000 
       8      0.066  3.5000000 
       9      0.066  3.5000000 
      10      0.066  3.5000000 
      11      0.030  2.5000000 
      12      0.030  2.5000000 
      13      0.030  2.5000000 
      14      0.030  2.5000000 
      15      0.030  2.5000000 
      16      0.030  2.5000000 
      17      0.030  2.5000000 
      18      0.030  2.5000000 
      19      0.030  2.5000000 
      20      0.030  2.5000000 
      21      0.030  2.5000000 
      22      0.030  2.5000000 
      23      0.030  2.5000000 
      24      0.030  2.5000000 
      25      0.030  2.5000000 
      26      0.030  2.5000000 
      27      0.030  2.5000000 
      28      0.030  2.5000000 
      29      0.030  2.5000000 
      30      0.030  2.5000000 
      31      0.030  2.5000000 

Bond Coeffs 

       1   268.0000     1.5290 
       2   212.0000     1.8430 
       3   212.0000     1.8430 
       4   212.0000     1.8430 
       5   268.0000     1.5290 
       6   268.0000     1.5290 
       7   268.0000     1.5290 
       8   268.0000     1.5290 
       9   268.0000     1.5290 
      10   340.0000     1.0900 
      11   340.0000     1.0900 
      12   340.0000     1.0900 
      13   340.0000     1.0900 
      14   340.0000     1.0900 
      15   340.0000     1.0900 
      16   340.0000     1.0900 
      17   340.0000     1.0900 
      18   340.0000     1.0900 
      19   340.0000     1.0900 
      20   340.0000     1.0900 
      21   340.0000     1.0900 
      22   340.0000     1.0900 
      23   340.0000     1.0900 
      24   340.0000     1.0900 
      25   340.0000     1.0900 
      26   340.0000     1.0900 
      27   340.0000     1.0900 
      28   340.0000     1.0900 
      29   340.0000     1.0900 
      30   340.0000     1.0900 

Angle Coeffs 

       1     43.000    109.500
       2     62.000     98.900
       3     62.000     98.900
       4     43.000    109.500
       5     58.350    112.700
       6     58.350    112.700
       7     58.350    112.700
       8     58.350    112.700
       9     37.500    110.700
      10     37.500    110.700
      11     37.500    110.700
      12     37.500    110.700
      13     37.500    110.700
      14     41.000    109.500
      15     41.000    109.500
      16     41.000    109.500
      17     41.000    109.500
      18     41.000    109.500
      19     37.500    110.700
      20     37.500    110.700
      21     37.500    110.700
      22     37.500    110.700
      23     37.500    110.700
      24     37.500    110.700
      25     37.500    110.700
      26     37.500    110.700
      27     37.500    110.700
      28     37.500    110.700
      29     37.500    110.700
      30     33.000    107.800
      31     37.500    110.700
      32     41.000    109.500
      33     58.350    112.700
      34     33.000    107.800
      35     37.500    110.700
      36     33.000    107.800
      37     41.000    109.500
      38     37.500    110.700
      39     33.000    107.800
      40     33.000    107.800
      41     33.000    107.800
      42     62.000     98.900
      43     37.500    110.700
      44     37.500    110.700
      45     33.000    107.800
      46     33.000    107.800
      47     37.500    110.700
      48     33.000    107.800
      49     33.000    107.800
      50     33.000    107.800
      51     33.000    107.800
      52     37.500    110.700
      53     33.000    107.800
      54     37.500    110.700
      55     33.000    107.800
      56     33.000    107.800
      57     33.000    107.800

Dihedral Coeffs  

       1      1.000     -0.500      0.500      0.000 
       2      1.000     -0.500      0.500      0.000 
       3      0.845     -0.962      0.713      0.000 
       4      1.300     -0.200      0.200      0.000 
       5      1.300     -0.200      0.200      0.000 
       6      0.000      0.000      0.300      0.000 
       7      0.000      0.000      0.300      0.000 
       8      0.000      0.000      0.300      0.000 
       9      0.000      0.000      0.300      0.000 
      10      0.000      0.000      0.300      0.000 
      11      0.000      0.000      0.300      0.000 
      12      0.000      0.000      0.300      0.000 
      13      0.000      0.000      0.300      0.000 
      14      0.000      0.000      0.300      0.000 
      15      0.000      0.000      0.300      0.000 
      16      0.000      0.000      0.300      0.000 
      17      0.000      0.000      0.300      0.000 
      18      0.000      0.000      0.300      0.000 
      19      0.000      0.000      0.300      0.000 
      20      1.000     -0.500      0.500      0.000 
      21      0.000      0.000      0.300      0.000 
      22      0.000      0.000      0.300      0.000 
      23      0.000      0.000      0.300      0.000 
      24      0.000      0.000      0.300      0.000 
      25      0.000      0.000      0.300      0.000 
      26      0.000      0.000      0.300      0.000 
      27      0.000      0.000      0.300      0.000 
      28      0.000      0.000      0.300      0.000 
      29      0.000      0.000      0.300      0.000 
      30      0.000      0.000      0.300      0.000 
      31      1.000     -0.500      0.500      0.000 
      32      0.000      0.000      0.300      0.000 
      33      0.000      0.000      0.300      0.000 
      34      0.000      0.000      0.300      0.000 
      35      0.000      0.000      0.300      0.000 
      36      0.000      0.000      0.300      0.000 
      37      0.000      0.000      0.300      0.000 
      38      1.300     -0.200      0.200      0.000 
      39      0.000      0.000      0.300      0.000 
      40      0.000      0.000      0.300      0.000 
      41      0.000      0.000      0.300      0.000 
      42      0.000      0.000      0.300      0.000 
      43      0.000      0.000      0.300      0.000 
      44      0.000      0.000      0.300      0.000 
      45      0.000      0.000      0.300      0.000 
      46      0.000      0.000      0.300      0.000 
      47      0.000      0.000      0.300      0.000 
      48      0.000      0.000      0.300      0.000 
      49      0.000      0.000      0.300      0.000 
      50      0.000      0.000      0.300      0.000 
      51      0.000      0.000      0.300      0.000 
      52      0.000      0.000      0.300      0.000 
      53      0.000      0.000      0.300      0.000 
      54      0.000      0.000      0.300      0.000 
      55      0.000      0.000      0.300      0.000 
      56      0.000      0.000      0.300      0.000 
      57      0.000      0.000      0.300      0.000 
      58      0.000      0.000      0.300      0.000 
      59      0.000      0.000      0.300      0.000 
      60      0.000      0.000      0.300      0.000 
      61      0.000      0.000      0.300      0.000 
      62      0.000      0.000      0.300      0.000 
      63      0.000      0.000      0.300      0.000 
      64      0.000      0.000      0.300      0.000 
      65      0.000      0.000      0.300      0.000 
      66      0.000      0.000      0.300      0.000 
      67      0.000      0.000      0.300      0.000 
      68      0.000      0.000      0.300      0.000 
      69      0.000      0.000      0.300      0.000 
      70      0.000      0.000      0.300      0.000 
      71      0.000      0.000      0.300      0.000 
      72      0.000      0.000      0.300      0.000 

Improper Coeffs 

       1      0.000      -1       2 
       2      0.000      -1       2 
       3      0.000      -1       2 
       4      0.000      -1       2 
       5      0.000      -1       2 
       6      0.000      -1       2 
       7      0.000      -1       2 
       8      0.000      -1       2 
       9      0.000      -1       2 
      10      0.000      -1       2 
      11      0.000      -1       2 
      12      0.000      -1       2 
      13      0.000      -1       2 
      14      0.000      -1       2 
      15      0.000      -1       2 
      16      0.000      -1       2 
      17      0.000      -1       2 
      18      0.000      -1       2 
      19      0.000      -1       2 

Atoms 

     1      1      1 -0.23190000    1.000  1.00000  0.00000
     2      1      2 -0.31210000   -0.520  1.00000  0.00000
     3      1      3 0.30070000   -1.214  1.00000  1.70948
     4      1      4 -0.38070000   -3.008  1.00229  1.31075
     5      1      5 -0.30790000   -0.987 -0.78344  2.17493
     6      1      6 -0.17380000   -1.504 -1.04366  3.59051
     7      1      7 -0.17200000   -1.335 -2.50702  4.01045
     8      1      8 -0.11640000   -1.852 -2.77882  5.43842
     9      1      9 -0.23450000   -3.347 -2.48402  5.58592
    10      1     10 -0.23600000   -1.574 -4.23090  5.83310
    11      1     11 0.08570000    1.375  0.99870 -1.02869
    12      1     12 0.08570000    1.406  0.11750  0.50460
    13      1     13 0.08570000    1.398  1.89047  0.49942
    14      1     14 0.09400000   -0.891  0.13722 -0.56269
    15      1     15 0.09400000   -0.868  1.90073 -0.51764
    16      1     16 0.09210000   -3.293  1.95903  0.86421
    17      1     17 0.09210000   -3.607  0.86625  2.21641
    18      1     18 0.09210000   -3.265  0.20586  0.60604
    19      1     19 0.09470000    0.080 -1.02996  2.12488
    20      1     20 0.09470000   -1.507 -1.42549  1.45515
    21      1     21 0.09620000   -2.563 -0.77080  3.64147
    22      1     22 0.09620000   -0.972 -0.40193  4.30482
    23      1     23 0.08790000   -0.271 -2.77042  3.95948
    24      1     24 0.08790000   -1.858 -3.15620  3.29632
    25      1     25 0.09800000   -1.307 -2.12973  6.13530
    26      1     26 0.08130000   -3.933 -3.03804  4.84413
    27      1     27 0.08130000   -3.558 -1.41749  5.46299
    28      1     28 0.08130000   -3.704 -2.76937  6.58061
    29      1     29 0.08120000   -2.098 -4.92992  5.17217
    30      1     30 0.08120000   -1.906 -4.42306  6.85947
    31      1     31 0.08120000   -0.503 -4.45132  5.78186

Bonds 

     1      1      2      1
     2      2      3      2
     3      3      4      3
     4      4      5      3
     5      5      6      5
     6      6      7      6
     7      7      8      7
     8      8      9      8
     9      9     10      8
    10     10     11      1
    11     11     12      1
    12     12     13      1
    13     13     14      2
    14     14     15      2
    15     15     16      4
    16     16     17      4
    17     17     18      4
    18     18     19      5
    19     19     20      5
    20     20     21      6
    21     21     22      6
    22     22     23      7
    23     23     24      7
    24     24     25      8
    25     25     26      9
    26     26     27      9
    27     27     28      9
    28     28     29     10
    29     29     30     10
    30     30     31     10

Angles 

     1      1      1      2      3
     2      2      2      3      4
     3      3      2      3      5
     4      4      3      5      6
     5      5      5      6      7
     6      6      6      7      8
     7      7      7      8      9
     8      8      7      8     10
     9      9      2      1     11
    10     10      2      1     12
    11     11      2      1     13
    12     12      1      2     14
    13     13      1      2     15
    14     14      3      4     16
    15     15      3      4     17
    16     16      3      4     18
    17     17      3      5     19
    18     18      3      5     20
    19     19      5      6     21
    20     20      5      6     22
    21     21      6      7     23
    22     22      6      7     24
    23     23      7      8     25
    24     24      8      9     26
    25     25      8      9     27
    26     26      8      9     28
    27     27      8     10     29
    28     28      8     10     30
    29     29      8     10     31
    30     30     23      7     24
    31     31      9      8     25
    32     32      3      2     14
    33     33      9      8     10
    34     34     11      1     13
    35     35      7      6     22
    36     36     21      6     22
    37     37      3      2     15
    38     38      6      5     19
    39     39     19      5     20
    40     40     30     10     31
    41     41     17      4     18
    42     42      4      3      5
    43     43      8      7     23
    44     44     10      8     25
    45     45     11      1     12
    46     46     12      1     13
    47     47      6      5     20
    48     48     16      4     17
    49     49     16      4     18
    50     50     27      9     28
    51     51     26      9     27
    52     52      8      7     24
    53     53     26      9     28
    54     54      7      6     21
    55     55     29     10     31
    56     56     14      2     15
    57     57     29     10     30

Dihedrals

     1      1      4      3      2      1 
     2      2      6      5      3      2 
     3      3      7      6      5      3 
     4      4      8      7      6      5 
     5      5      9      8      7      6 
     6      6     11      1      2      3 
     7      7     16      4      3      2 
     8      8     26      9      8      7 
     9      9     29     10      8      7 
    10     10     21      6      5     20 
    11     11     15      2      3      5 
    12     12     14      2      3      5 
    13     13     15      2      3      4 
    14     14     17      4      3      2 
    15     15     20      5      3      4 
    16     16     31     10      8     25 
    17     17     14      2      1     11 
    18     18     18      4      3      2 
    19     19     31     10      8      7 
    20     20      5      3      2      1 
    21     21     23      7      8      9 
    22     22     25      8      7     23 
    23     23     27      9      8      7 
    24     24     20      5      6      7 
    25     25     22      6      5     20 
    26     26     30     10      8     25 
    27     27     27      9      8     25 
    28     28     18      4      3      5 
    29     29     19      5      3      4 
    30     30     21      6      5     19 
    31     31      6      5      3      4 
    32     32     30     10      8      7 
    33     33     22      6      5     19 
    34     34     16      4      3      5 
    35     35     19      5      6      7 
    36     36     22      6      5      3 
    37     37     21      6      7      8 
    38     38     10      8      7      6 
    39     39     23      7      6      5 
    40     40     23      7      8     10 
    41     41     24      7      8      9 
    42     42     19      5      3      2 
    43     43     14      2      3      4 
    44     44     28      9      8      7 
    45     45     17      4      3      5 
    46     46     20      5      3      2 
    47     47     25      8      7     24 
    48     48     24      7      8     10 
    49     49     22      6      7      8 
    50     50     30     10      8      9 
    51     51     21      6      5      3 
    52     52     13      1      2      3 
    53     53     24      7      6     22 
    54     54     28      9      8     25 
    55     55     28      9      8     10 
    56     56     27      9      8     10 
    57     57     14      2      1     13 
    58     58     25      8      7      6 
    59     59     26      9      8     10 
    60     60     15      2      1     12 
    61     61     23      7      6     21 
    62     62     26      9      8     25 
    63     63     29     10      8      9 
    64     64     24      7      6     21 
    65     65     23      7      6     22 
    66     66     29     10      8     25 
    67     67     15      2      1     11 
    68     68     14      2      1     12 
    69     69     12      1      2      3 
    70     70     24      7      6      5 
    71     71     15      2      1     13 
    72     72     31     10      8      9 

Impropers

     1      1      3      2      4      5 
     2      2      8      9     10      7 
     3      3      1      2     11     12 
     4      4      1      2     11     13 
     5      5      2      1      3     14 
     6      6      2      1      3     15 
     7      7      4     17      3     16 
     8      8      4     18      3     16 
     9      9      5     19      3      6 
    10     10      5      3     20      6 
    11     11      6      5     21      7 
    12     12      6      5     22      7 
    13     13      7      8     23      6 
    14     14      7      8      6     24 
    15     15      8     25      9      7 
    16     16      9     26     27      8 
    17     17      9     26     28      8 
    18     18     10     29     30      8 
    19     19     10     29     31      8 

