LAMMPS data file Created by LigParGen - (Written by Leela S. Dodda)

      44 atoms
      43 bonds
      80 angles
     100 dihedrals
      26 impropers
 
      44 atom types
      43 bond types
      80 angle types
     100 dihedral types
      26 improper types
 
   -6.344410    43.655590 xlo xhi
   -1.314340    48.685660 ylo yhi
   -5.688700    44.311300 zlo zhi

Masses

       1     12.011  
       2     12.011  
       3     12.011  
       4     12.011  
       5     14.007  
       6     12.011  
       7     12.011  
       8     12.011  
       9     12.011  
      10     15.999  
      11     12.011  
      12     15.999  
      13     15.999  
      14     12.011  
      15     12.011  
      16     12.011  
      17     12.011  
      18      1.008  
      19      1.008  
      20      1.008  
      21      1.008  
      22      1.008  
      23      1.008  
      24      1.008  
      25      1.008  
      26      1.008  
      27      1.008  
      28      1.008  
      29      1.008  
      30      1.008  
      31      1.008  
      32      1.008  
      33      1.008  
      34      1.008  
      35      1.008  
      36      1.008  
      37      1.008  
      38      1.008  
      39      1.008  
      40      1.008  
      41      1.008  
      42      1.008  
      43      1.008  
      44      1.008  

Pair Coeffs 

       1      0.066  3.5000000 
       2      0.066  3.5000000 
       3      0.066  3.5000000 
       4      0.066  3.5000000 
       5      0.170  3.3000000 
       6      0.066  3.5000000 
       7      0.066  3.5000000 
       8      0.066  3.5000000 
       9      0.066  3.5000000 
      10      0.140  2.9000000 
      11      0.070  3.5500000 
      12      0.210  2.9600000 
      13      0.140  2.9000000 
      14      0.066  3.5000000 
      15      0.066  3.5000000 
      16      0.066  3.5000000 
      17      0.066  3.5000000 
      18      0.030  2.5000000 
      19      0.030  2.5000000 
      20      0.030  2.5000000 
      21      0.030  2.5000000 
      22      0.030  2.5000000 
      23      0.030  2.5000000 
      24      0.030  2.5000000 
      25      0.030  2.5000000 
      26      0.030  2.5000000 
      27      0.030  2.5000000 
      28      0.030  2.5000000 
      29      0.030  2.5000000 
      30      0.030  2.5000000 
      31      0.030  2.5000000 
      32      0.030  2.5000000 
      33      0.030  2.5000000 
      34      0.030  2.5000000 
      35      0.030  2.5000000 
      36      0.030  2.5000000 
      37      0.030  2.5000000 
      38      0.030  2.5000000 
      39      0.030  2.5000000 
      40      0.030  2.5000000 
      41      0.030  2.5000000 
      42      0.030  2.5000000 
      43      0.030  2.5000000 
      44      0.030  2.5000000 

Bond Coeffs 

       1   268.0000     1.5290 
       2   268.0000     1.5290 
       3   268.0000     1.5290 
       4   382.0000     1.4480 
       5   382.0000     1.4480 
       6   382.0000     1.4480 
       7   268.0000     1.5290 
       8   268.0000     1.5290 
       9   320.0000     1.4100 
      10   214.0000     1.3270 
      11   570.0000     1.2290 
      12   214.0000     1.3270 
      13   320.0000     1.4100 
      14   268.0000     1.5290 
      15   268.0000     1.5290 
      16   268.0000     1.5290 
      17   340.0000     1.0900 
      18   340.0000     1.0900 
      19   340.0000     1.0900 
      20   340.0000     1.0900 
      21   340.0000     1.0900 
      22   340.0000     1.0900 
      23   340.0000     1.0900 
      24   340.0000     1.0900 
      25   340.0000     1.0900 
      26   340.0000     1.0900 
      27   340.0000     1.0900 
      28   340.0000     1.0900 
      29   340.0000     1.0900 
      30   340.0000     1.0900 
      31   340.0000     1.0900 
      32   340.0000     1.0900 
      33   340.0000     1.0900 
      34   340.0000     1.0900 
      35   340.0000     1.0900 
      36   340.0000     1.0900 
      37   340.0000     1.0900 
      38   340.0000     1.0900 
      39   340.0000     1.0900 
      40   340.0000     1.0900 
      41   340.0000     1.0900 
      42   340.0000     1.0900 
      43   340.0000     1.0900 

Angle Coeffs 

       1     58.350    112.700
       2     58.350    112.700
       3     56.200    109.470
       4     51.800    107.200
       5     51.800    107.200
       6     56.200    109.470
       7     56.200    109.470
       8     50.000    109.500
       9     83.000    116.900
      10     83.000    123.400
      11     69.900    118.180
      12     83.000    116.900
      13     50.000    109.500
      14     50.000    109.500
      15     50.000    109.500
      16     37.500    110.700
      17     37.500    110.700
      18     37.500    110.700
      19     37.500    110.700
      20     37.500    110.700
      21     37.500    110.700
      22     37.500    110.700
      23     37.500    110.700
      24     35.000    109.500
      25     35.000    109.500
      26     35.000    109.500
      27     35.000    109.500
      28     37.500    110.700
      29     37.500    110.700
      30     37.500    110.700
      31     37.500    110.700
      32     37.500    110.700
      33     37.500    110.700
      34     37.500    110.700
      35     37.500    110.700
      36     37.500    110.700
      37     37.500    110.700
      38     37.500    110.700
      39     37.500    110.700
      40     37.500    110.700
      41     37.500    110.700
      42     37.500    110.700
      43     33.000    107.800
      44     33.000    107.800
      45     33.000    107.800
      46     58.350    112.700
      47     33.000    107.800
      48     37.500    110.700
      49     33.000    107.800
      50     33.000    107.800
      51     35.000    109.500
      52     33.000    107.800
      53     33.000    107.800
      54     33.000    107.800
      55     37.500    110.700
      56     58.350    112.700
      57     58.350    112.700
      58     37.500    110.700
      59     58.350    112.700
      60     83.000    123.400
      61     33.000    107.800
      62     37.500    110.700
      63     33.000    107.800
      64     33.000    107.800
      65     33.000    107.800
      66     51.800    107.200
      67     35.000    109.500
      68     33.000    107.800
      69     33.000    107.800
      70     33.000    107.800
      71     33.000    107.800
      72     33.000    107.800
      73     33.000    107.800
      74     33.000    107.800
      75     33.000    107.800
      76     35.000    109.500
      77     33.000    107.800
      78     37.500    110.700
      79     33.000    107.800
      80     50.000    109.500

Dihedral Coeffs  

       1      1.300     -0.200      0.200      0.000 
       2      2.392     -0.674      0.550      0.000 
       3      0.416     -0.128      0.695      0.000 
       4      0.416     -0.128      0.695      0.000 
       5     -1.220     -0.126      0.422      0.000 
       6      0.000      5.124      0.000      0.000 
       7      4.669      5.124      0.000      0.000 
       8     -1.220     -0.126      0.422      0.000 
       9      0.000      0.000      0.300      0.000 
      10      0.000      0.000      0.560      0.000 
      11     -1.013     -0.709      0.473      0.000 
      12     -1.013     -0.709      0.473      0.000 
      13      0.000      0.000      0.468      0.000 
      14      0.000      0.000      0.468      0.000 
      15      0.000      0.000      0.468      0.000 
      16      0.000      0.000      0.300      0.000 
      17      0.000      0.000      0.300      0.000 
      18      0.000      0.000      0.300      0.000 
      19      0.000      0.000      0.300      0.000 
      20      0.000      0.000      0.300      0.000 
      21     -1.013     -0.709      0.473      0.000 
      22      0.000      0.000      0.300      0.000 
      23      0.000      0.000      0.300      0.000 
      24      0.000      0.000      0.300      0.000 
      25      0.000      0.000      0.468      0.000 
      26      0.000      0.000      0.300      0.000 
      27      0.000      0.000      0.300      0.000 
      28     -1.220     -0.126      0.422      0.000 
      29      0.000      0.000      0.300      0.000 
      30      0.000      0.000      0.468      0.000 
      31      0.000      0.000      0.560      0.000 
      32      0.000      0.000      0.300      0.000 
      33      0.000      0.000      0.560      0.000 
      34      0.000      0.000      0.560      0.000 
      35     -1.013     -0.709      0.473      0.000 
      36      0.000      0.000      0.468      0.000 
      37     -1.013     -0.709      0.473      0.000 
      38      0.000      0.000      0.300      0.000 
      39      0.416     -0.128      0.695      0.000 
      40      0.000      0.000      0.300      0.000 
      41      0.000      0.000      0.300      0.000 
      42      0.000      0.000      0.468      0.000 
      43      0.000      0.000      0.560      0.000 
      44     -1.013     -0.709      0.473      0.000 
      45      0.000      0.000      0.560      0.000 
      46      0.000      0.000      0.300      0.000 
      47      0.000      0.000      0.300      0.000 
      48      0.000      0.000      0.300      0.000 
      49      0.000      0.000      0.468      0.000 
      50      0.000      0.000      0.300      0.000 
      51      0.000      0.000      0.198      0.000 
      52      0.000      0.000      0.300      0.000 
      53      0.000      0.000      0.300      0.000 
      54      0.000      0.000      0.300      0.000 
      55      0.000      0.000      0.468      0.000 
      56      0.000      0.000      0.560      0.000 
      57      0.000      0.000      0.300      0.000 
      58      0.000      0.000      0.300      0.000 
      59      0.000      0.000      0.300      0.000 
      60      0.000      0.000      0.560      0.000 
      61      0.000      0.000      0.468      0.000 
      62      0.000      0.000      0.300      0.000 
      63     -1.220     -0.126      0.422      0.000 
      64      0.000      5.124      0.000      0.000 
      65      0.000      0.000      0.300      0.000 
      66      0.000      0.000      0.300      0.000 
      67      0.000      0.000      0.300      0.000 
      68      0.000      0.000      0.560      0.000 
      69      0.000      0.000      0.300      0.000 
      70     -1.013     -0.709      0.473      0.000 
      71      0.000      0.000      0.300      0.000 
      72      4.669      5.124      0.000      0.000 
      73     -1.220     -0.126      0.422      0.000 
      74      0.000      0.000      0.300      0.000 
      75      0.000      0.000      0.560      0.000 
      76      0.000      0.000      0.468      0.000 
      77      0.000      0.000      0.300      0.000 
      78      0.000      0.000      0.300      0.000 
      79      0.000      0.000      0.300      0.000 
      80      0.000      0.000      0.300      0.000 
      81      0.000      0.000      0.468      0.000 
      82      0.000      0.000      0.300      0.000 
      83      0.000      0.000      0.300      0.000 
      84      0.000      0.000      0.300      0.000 
      85      0.000      0.000      0.300      0.000 
      86      0.000      0.000      0.560      0.000 
      87      0.000      0.000      0.300      0.000 
      88      0.416     -0.128      0.695      0.000 
      89      0.416     -0.128      0.695      0.000 
      90      0.000      0.000      0.468      0.000 
      91      0.000      0.000      0.300      0.000 
      92      0.000      0.000      0.300      0.000 
      93      0.000      0.000      0.468      0.000 
      94     -1.013     -0.709      0.473      0.000 
      95      0.000      0.000      0.300      0.000 
      96      0.000      0.000      0.560      0.000 
      97      0.416     -0.128      0.695      0.000 
      98      1.711     -0.500      0.663      0.000 
      99      0.000      0.000      0.300      0.000 
     100      0.000      0.000      0.300      0.000 

Improper Coeffs 

       1      0.000      -1       2 
       2      0.000      -1       2 
       3      0.000      -1       2 
       4     10.500      -1       2 
       5      0.000      -1       2 
       6      0.000      -1       2 
       7      0.000      -1       2 
       8      0.000      -1       2 
       9      0.000      -1       2 
      10      0.000      -1       2 
      11      0.000      -1       2 
      12      0.000      -1       2 
      13      0.000      -1       2 
      14      0.000      -1       2 
      15      0.000      -1       2 
      16      0.000      -1       2 
      17      0.000      -1       2 
      18      0.000      -1       2 
      19      0.000      -1       2 
      20      0.000      -1       2 
      21      0.000      -1       2 
      22      0.000      -1       2 
      23      0.000      -1       2 
      24      0.000      -1       2 
      25      0.000      -1       2 
      26      0.000      -1       2 

Atoms 

     1      1      1 -0.27160000    1.000  1.00000  0.00000
     2      1      2 0.07720000   -0.529  1.00000  0.00000
     3      1      3 -0.18150000   -1.054  1.00000  1.44258
     4      1      4 0.00900000   -2.593  0.99820  1.49533
     5      1      5 -0.58220000   -3.157  0.91088  2.86633
     6      1      6 -0.05300000   -2.698  2.05112  3.67502
     7      1      7 0.07820000   -4.648  0.84035  2.83915
     8      1      8 -0.23800000   -5.168 -0.38814  2.07106
     9      1      9 -0.23770000   -5.262  0.77509  4.25095
    10      1     10 -0.32850000   -1.000  2.18488 -0.66830
    11      1     11 0.58300000   -1.031  2.09337 -2.02829
    12      1     12 -0.50690000   -0.696  1.10622 -2.66229
    13      1     13 -0.33160000   -1.489  3.26658 -2.53692
    14      1     14 0.15910000   -1.550  3.41593 -3.98019
    15      1     15 -0.27340000   -2.533  2.41518 -4.60476
    16      1     16 -0.23950000   -2.088  4.83317 -4.23166
    17      1     17 -0.27380000   -0.150  3.31926 -4.60314
    18      1     18 0.10070000    1.393  0.08030  0.44356
    19      1     19 0.10070000    1.390  1.85395  0.56530
    20      1     20 0.10070000    1.398  1.09009 -1.01592
    21      1     21 0.12710000   -0.901  0.09900 -0.50546
    22      1     22 0.11470000   -0.660  1.89209  1.93950
    23      1     23 0.11470000   -0.670  0.11810  1.97055
    24      1     24 0.09170000   -2.909  0.12373  0.91730
    25      1     25 0.09170000   -2.986  1.88671  0.98538
    26      1     26 0.08200000   -1.608  2.06618  3.76774
    27      1     27 0.08200000   -3.042  1.98225  4.71025
    28      1     28 0.08200000   -3.027  3.00749  3.25388
    29      1     29 0.07260000   -5.044  1.73808  2.34507
    30      1     30 0.08730000   -4.732 -1.31434  2.46121
    31      1     31 0.08730000   -4.957 -0.32624  0.99982
    32      1     32 0.08730000   -6.258 -0.46979  2.16323
    33      1     33 0.08740000   -4.827 -0.04416  4.83429
    34      1     34 0.08740000   -6.344  0.61103  4.19881
    35      1     35 0.08740000   -5.123  1.70935  4.80290
    36      1     36 0.10450000   -3.533  2.53632 -4.17218
    37      1     37 0.10450000   -2.246  1.37524 -4.42547
    38      1     38 0.10450000   -2.605  2.55404 -5.68870
    39      1     39 0.10010000   -3.072  4.96700 -3.77017
    40      1     40 0.10010000   -2.177  5.04288 -5.30287
    41      1     41 0.10010000   -1.429  5.58707 -3.78431
    42      1     42 0.10430000    0.299  2.33082 -4.47137
    43      1     43 0.10430000    0.532  4.03487 -4.12874
    44      1     44 0.10430000   -0.178  3.52396 -5.67859

Bonds 

     1      1      2      1
     2      2      3      2
     3      3      4      3
     4      4      5      4
     5      5      6      5
     6      6      7      5
     7      7      8      7
     8      8      9      7
     9      9     10      2
    10     10     11     10
    11     11     12     11
    12     12     13     11
    13     13     14     13
    14     14     15     14
    15     15     16     14
    16     16     17     14
    17     17     18      1
    18     18     19      1
    19     19     20      1
    20     20     21      2
    21     21     22      3
    22     22     23      3
    23     23     24      4
    24     24     25      4
    25     25     26      6
    26     26     27      6
    27     27     28      6
    28     28     29      7
    29     29     30      8
    30     30     31      8
    31     31     32      8
    32     32     33      9
    33     33     34      9
    34     34     35      9
    35     35     36     15
    36     36     37     15
    37     37     38     15
    38     38     39     16
    39     39     40     16
    40     40     41     16
    41     41     42     17
    42     42     43     17
    43     43     44     17

Angles 

     1      1      1      2      3
     2      2      2      3      4
     3      3      3      4      5
     4      4      4      5      6
     5      5      4      5      7
     6      6      5      7      8
     7      7      5      7      9
     8      8      1      2     10
     9      9      2     10     11
    10     10     10     11     12
    11     11     10     11     13
    12     12     11     13     14
    13     13     13     14     15
    14     14     13     14     16
    15     15     13     14     17
    16     16      2      1     18
    17     17      2      1     19
    18     18      2      1     20
    19     19      1      2     21
    20     20      2      3     22
    21     21      2      3     23
    22     22      3      4     24
    23     23      3      4     25
    24     24      5      6     26
    25     25      5      6     27
    26     26      5      6     28
    27     27      5      7     29
    28     28      7      8     30
    29     29      7      8     31
    30     30      7      8     32
    31     31      7      9     33
    32     32      7      9     34
    33     33      7      9     35
    34     34     14     15     36
    35     35     14     15     37
    36     36     14     15     38
    37     37     14     16     39
    38     38     14     16     40
    39     39     14     16     41
    40     40     14     17     42
    41     41     14     17     43
    42     42     14     17     44
    43     43     42     17     44
    44     44     19      1     20
    45     45     36     15     37
    46     46     15     14     16
    47     47     34      9     35
    48     48      3      2     21
    49     49     39     16     40
    50     50     33      9     34
    51     51      5      4     24
    52     52     31      8     32
    53     53     40     16     41
    54     54     24      4     25
    55     55      4      3     22
    56     56     15     14     17
    57     57      8      7      9
    58     58      4      3     23
    59     59     16     14     17
    60     60     12     11     13
    61     61     26      6     27
    62     62      8      7     29
    63     63     18      1     19
    64     64     27      6     28
    65     65     36     15     38
    66     66      6      5      7
    67     67      5      4     25
    68     68     39     16     41
    69     69     26      6     28
    70     70     43     17     44
    71     71     22      3     23
    72     72     18      1     20
    73     73     30      8     31
    74     74     37     15     38
    75     75     42     17     43
    76     76     10      2     21
    77     77     30      8     32
    78     78      9      7     29
    79     79     33      9     35
    80     80      3      2     10

Dihedrals

     1      1      4      3      2      1 
     2      2      5      4      3      2 
     3      3      6      5      4      3 
     4      4      8      7      5      4 
     5      5     11     10      2      1 
     6      6     12     11     10      2 
     7      7     14     13     11     10 
     8      8     15     14     13     11 
     9      9     18      1      2      3 
    10     10     26      6      5      4 
    11     11     30      8      7      5 
    12     12     33      9      7      5 
    13     13     36     15     14     13 
    14     14     39     16     14     13 
    15     15     42     17     14     13 
    16     16     31      8      7      9 
    17     17     24      4      3     23 
    18     18     25      4      3     22 
    19     19     38     15     14     17 
    20     20     40     16     14     17 
    21     21     32      8      7      5 
    22     22     33      9      7     29 
    23     23     35      9      7      8 
    24     24     43     17     14     15 
    25     25     23      3      2     10 
    26     26     42     17     14     16 
    27     27     19      1      2      3 
    28     28     11     10      2      3 
    29     29     22      3      2     21 
    30     30     37     15     14     13 
    31     31     28      6      5      4 
    32     32     36     15     14     16 
    33     33     25      4      5      6 
    34     34     24      4      5      7 
    35     35     23      3      4      5 
    36     36     40     16     14     13 
    37     37     35      9      7      5 
    38     38     44     17     14     16 
    39     39      9      7      5      6 
    40     40     37     15     14     16 
    41     41     36     15     14     17 
    42     42     22      3      2     10 
    43     43     29      7      5      6 
    44     44     31      8      7      5 
    45     45     28      6      5      7 
    46     46     41     16     14     15 
    47     47     39     16     14     17 
    48     48     40     16     14     15 
    49     49     43     17     14     13 
    50     50     21      2      1     20 
    51     51     21      2     10     11 
    52     52     21      2      1     18 
    53     53     41     16     14     17 
    54     54     24      4      3     22 
    55     55     20      1      2     10 
    56     56     27      6      5      7 
    57     57     25      4      3      2 
    58     58     31      8      7     29 
    59     59     30      8      7      9 
    60     60     27      6      5      4 
    61     61     41     16     14     13 
    62     62     39     16     14     15 
    63     63     17     14     13     11 
    64     64     14     13     11     12 
    65     65     37     15     14     17 
    66     66     38     15     14     16 
    67     67     24      4      3      2 
    68     68     29      7      5      4 
    69     69     25      4      3     23 
    70     70     34      9      7      5 
    71     71     32      8      7      9 
    72     72     13     11     10      2 
    73     73     16     14     13     11 
    74     74     23      3      2      1 
    75     75     24      4      5      6 
    76     76     18      1      2     10 
    77     77     33      9      7      8 
    78     78     23      3      2     21 
    79     79     21      2      3      4 
    80     80     30      8      7     29 
    81     81     38     15     14     13 
    82     82     32      8      7     29 
    83     83     35      9      7     29 
    84     84     34      9      7     29 
    85     85     20      1      2      3 
    86     86     25      4      5      7 
    87     87     22      3      2      1 
    88     88      8      7      5      6 
    89     89      7      5      4      3 
    90     90     19      1      2     10 
    91     91     21      2      1     19 
    92     92     42     17     14     15 
    93     93     44     17     14     13 
    94     94     22      3      4      5 
    95     95     34      9      7      8 
    96     96     26      6      5      7 
    97     97      9      7      5      4 
    98     98     10      2      3      4 
    99     99     44     17     14     15 
   100    100     43     17     14     16 

Impropers

     1      1      5      4      6      7 
     2      2      7      9      5      8 
     3      3      2      1     10      3 
     4      4     11     10     12     13 
     5      5     14     13     15     16 
     6      6     14     17     13     15 
     7      7      1      2     19     18 
     8      8      1      2     20     18 
     9      9      2      1      3     21 
    10     10      3      2      4     22 
    11     11      3      2      4     23 
    12     12      4      3      5     24 
    13     13      4     25      3      5 
    14     14      6     26     27      5 
    15     15      6     26     28      5 
    16     16      7      5     29      8 
    17     17      8     30      7     31 
    18     18      8     30      7     32 
    19     19      9     34      7     33 
    20     20      9     33     35      7 
    21     21     15     36     37     14 
    22     22     15     36     38     14 
    23     23     16     14     39     40 
    24     24     16     41     14     39 
    25     25     17     42     43     14 
    26     26     17     42     44     14 

