LAMMPS data file Created by LigParGen - (Written by Leela S. Dodda)

      24 atoms
      23 bonds
      43 angles
      57 dihedrals
      14 impropers
 
      24 atom types
      23 bond types
      43 angle types
      57 dihedral types
      14 improper types
 
   -6.918170    43.081830 xlo xhi
   -0.335850    49.664150 ylo yhi
   -1.025530    48.974470 zlo zhi

Masses

       1     12.011  
       2     12.011  
       3     12.011  
       4     12.011  
       5     14.007  
       6     12.011  
       7     32.060  
       8     15.999  
       9     15.999  
      10     12.011  
      11     12.011  
      12      1.008  
      13      1.008  
      14      1.008  
      15      1.008  
      16      1.008  
      17      1.008  
      18      1.008  
      19      1.008  
      20      1.008  
      21      1.008  
      22      1.008  
      23      1.008  
      24      1.008  

Pair Coeffs 

       1      0.066  3.5000000 
       2      0.066  3.5000000 
       3      0.066  3.5000000 
       4      0.066  3.3000000 
       5      0.170  3.2000000 
       6      0.066  3.5000000 
       7      0.250  3.5500000 
       8      0.170  2.9600000 
       9      0.170  2.9600000 
      10      0.066  3.5000000 
      11      0.066  3.5000000 
      12      0.030  2.5000000 
      13      0.030  2.5000000 
      14      0.030  2.5000000 
      15      0.030  2.5000000 
      16      0.030  2.5000000 
      17      0.030  2.5000000 
      18      0.030  2.5000000 
      19      0.030  2.5000000 
      20      0.030  2.5000000 
      21      0.030  2.5000000 
      22      0.030  2.5000000 
      23      0.030  2.5000000 
      24      0.030  2.5000000 

Bond Coeffs 

       1   268.0000     1.5290 
       2   268.0000     1.5290 
       3   390.0000     1.4700 
       4   650.0000     1.1570 
       5   268.0000     1.5290 
       6   340.0000     1.7700 
       7   700.0000     1.4400 
       8   700.0000     1.4400 
       9   340.0000     1.7700 
      10   268.0000     1.5290 
      11   340.0000     1.0900 
      12   340.0000     1.0900 
      13   340.0000     1.0900 
      14   340.0000     1.0900 
      15   340.0000     1.0900 
      16   340.0000     1.0900 
      17   340.0000     1.0900 
      18   340.0000     1.0900 
      19   340.0000     1.0900 
      20   340.0000     1.0900 
      21   340.0000     1.0900 
      22   340.0000     1.0900 
      23   340.0000     1.0900 

Angle Coeffs 

       1     58.350    112.700
       2     58.350    112.700
       3    150.000    180.000
       4     58.350    112.700
       5     50.000    108.600
       6     74.000    108.900
       7     74.000    108.900
       8     62.000    102.000
       9     50.000    108.600
      10     37.500    110.700
      11     37.500    110.700
      12     37.500    110.700
      13     37.500    110.700
      14     37.500    110.700
      15     37.500    110.700
      16     37.500    110.700
      17     37.500    110.700
      18     35.000    109.500
      19     35.000    109.500
      20     37.500    110.700
      21     37.500    110.700
      22     37.500    110.700
      23     74.000    108.900
      24     33.000    107.800
      25     35.000    109.500
      26     33.000    107.800
      27     33.000    107.800
      28     33.000    107.800
      29     37.500    110.700
      30     74.000    108.900
      31     37.500    110.700
      32    104.000    119.000
      33     33.000    107.800
      34     37.500    110.700
      35     35.000    109.500
      36     37.500    110.700
      37     58.350    112.700
      38     33.000    107.800
      39     37.500    110.700
      40     35.000    108.500
      41     33.000    107.800
      42     33.000    107.800
      43     33.000    107.800

Dihedral Coeffs  

       1      0.000     -0.650      0.000      0.000 
       2      0.000      0.000      0.000      0.000 
       3      1.262     -0.198      0.465      0.000 
       4      0.000      0.000      0.000      0.000 
       5      0.000      0.000      0.000      0.000 
       6      0.000      0.000      0.300      0.000 
       7      0.000      0.000      0.452      0.000 
       8      0.000      0.000      0.366      0.000 
       9      0.000      0.000      0.300      0.000 
      10      0.000      0.000      0.300      0.000 
      11      0.000      0.000      0.000      0.000 
      12      0.000      0.000      0.350      0.000 
      13      0.000      0.000      0.350      0.000 
      14      0.000      0.000      0.300      0.000 
      15      0.000      0.000      0.300      0.000 
      16      0.000      0.000      0.300      0.000 
      17      0.000      0.000      0.350      0.000 
      18      0.000      0.000      0.300      0.000 
      19      0.000      0.000      0.000      0.000 
      20      0.000      0.000      0.366      0.000 
      21      0.000      0.000      0.300      0.000 
      22      0.000      0.000      0.000      0.000 
      23      0.000      0.000      0.300      0.000 
      24      0.000      0.000      0.300      0.000 
      25      0.000      0.000      0.366      0.000 
      26      0.000      0.000      0.452      0.000 
      27      0.000      0.000      0.300      0.000 
      28      0.000      0.000      0.350      0.000 
      29      0.000      0.000      0.000      0.000 
      30      0.000      0.000      0.300      0.000 
      31      0.000      0.000      0.350      0.000 
      32      0.000      0.000      0.300      0.000 
      33      0.000      0.000      0.300      0.000 
      34      0.000      0.000      0.300      0.000 
      35      0.000      0.000      0.000      0.000 
      36      0.000      0.000      0.300      0.000 
      37      0.000      0.000      0.350      0.000 
      38      0.000      0.000      0.350      0.000 
      39      0.000      0.000      0.350      0.000 
      40      0.000      0.000      0.366      0.000 
      41      1.300     -0.200      0.200      0.000 
      42      0.000      0.000      0.300      0.000 
      43      0.000      0.000      0.452      0.000 
      44      0.000      0.000      0.452      0.000 
      45      0.000      0.000      0.300      0.000 
      46      0.000      0.000      0.350      0.000 
      47      0.000      0.000      0.300      0.000 
      48      0.000      0.000      0.300      0.000 
      49      0.000      0.000      0.350      0.000 
      50      0.000      0.000      0.000      0.000 
      51      0.000      0.000      0.300      0.000 
      52      1.262     -0.198      0.465      0.000 
      53      0.000      0.000      0.300      0.000 
      54      0.000      0.000      0.350      0.000 
      55      0.000      0.000      0.350      0.000 
      56      0.000      0.000      0.300      0.000 
      57      0.000      0.000      0.300      0.000 

Improper Coeffs 

       1      0.000      -1       2 
       2      0.000      -1       2 
       3      0.000      -1       2 
       4      0.000      -1       2 
       5      0.000      -1       2 
       6      0.000      -1       2 
       7      0.000      -1       2 
       8      0.000      -1       2 
       9      0.000      -1       2 
      10      0.000      -1       2 
      11      0.000      -1       2 
      12      0.000      -1       2 
      13      0.000      -1       2 
      14      0.000      -1       2 

Atoms 

     1      1      1 -0.24440000    1.000  1.00000  0.00000
     2      1      2 -0.16540000   -0.526  1.00000  0.00000
     3      1      3 0.07440000   -1.121  1.00000  1.41474
     4      1      4 0.09030000   -0.697  2.25302  2.16364
     5      1      5 -0.33190000   -0.344  3.29265  2.78387
     6      1      6 -0.51700000   -2.660  0.96571  1.38163
     7      1      7 1.29380000   -3.352  0.88887  3.04035
     8      1      8 -0.55120000   -2.858 -0.33585  3.64303
     9      1      9 -0.55120000   -3.163  2.17124  3.68198
    10      1     10 -0.49890000   -5.107  0.69923  2.78612
    11      1     11 -0.21130000   -5.843  0.68362  4.11488
    12      1     12 0.09310000    1.377  0.93377 -1.02553
    13      1     13 0.09310000    1.392  0.14704  0.56347
    14      1     14 0.09310000    1.402  1.91776  0.43966
    15      1     15 0.10350000   -0.872  0.10806 -0.53626
    16      1     16 0.10350000   -0.879  1.87294 -0.56340
    17      1     17 0.15760000   -0.743  0.13011  1.96629
    18      1     18 0.16410000   -3.009  0.07361  0.85187
    19      1     19 0.16410000   -3.077  1.85768  0.90094
    20      1     20 0.15590000   -5.268 -0.23328  2.24074
    21      1     21 0.15590000   -5.443  1.54493  2.17909
    22      1     22 0.10970000   -5.492 -0.13609  4.74922
    23      1     23 0.10970000   -6.918  0.56006  3.95699
    24      1     24 0.10970000   -5.685  1.61703  4.66596

Bonds 

     1      1      2      1
     2      2      3      2
     3      3      4      3
     4      4      5      4
     5      5      6      3
     6      6      7      6
     7      7      8      7
     8      8      9      7
     9      9     10      7
    10     10     11     10
    11     11     12      1
    12     12     13      1
    13     13     14      1
    14     14     15      2
    15     15     16      2
    16     16     17      3
    17     17     18      6
    18     18     19      6
    19     19     20     10
    20     20     21     10
    21     21     22     11
    22     22     23     11
    23     23     24     11

Angles 

     1      1      1      2      3
     2      2      2      3      4
     3      3      3      4      5
     4      4      2      3      6
     5      5      3      6      7
     6      6      6      7      8
     7      7      6      7      9
     8      8      6      7     10
     9      9      7     10     11
    10     10      2      1     12
    11     11      2      1     13
    12     12      2      1     14
    13     13      1      2     15
    14     14      1      2     16
    15     15      2      3     17
    16     16      3      6     18
    17     17      3      6     19
    18     18      7     10     20
    19     19      7     10     21
    20     20     10     11     22
    21     21     10     11     23
    22     22     10     11     24
    23     23      9      7     10
    24     24     13      1     14
    25     25      7      6     18
    26     26     15      2     16
    27     27     18      6     19
    28     28     12      1     13
    29     29      3      2     15
    30     30      8      7     10
    31     31     11     10     21
    32     32      8      7      9
    33     33     12      1     14
    34     34      3      2     16
    35     35      7      6     19
    36     36     11     10     20
    37     37      4      3      6
    38     38     23     11     24
    39     39      6      3     17
    40     40      4      3     17
    41     41     20     10     21
    42     42     22     11     23
    43     43     22     11     24

Dihedrals

     1      1      4      3      2      1 
     2      2      5      4      3      2 
     3      3      7      6      3      2 
     4      4      8      7      6      3 
     5      5     11     10      7      6 
     6      6     12      1      2      3 
     7      7     22     11     10      7 
     8      8     16      2      3      4 
     9      9     16      2      3      6 
    10     10     19      6      3      2 
    11     11     11     10      7      8 
    12     12     21     10      7      8 
    13     13     20     10      7      9 
    14     14     18      6      3      2 
    15     15     15      2      1     12 
    16     16     17      3      2     16 
    17     17     18      6      7      8 
    18     18     14      1      2      3 
    19     19     11     10      7      9 
    20     20     15      2      3      4 
    21     21     23     11     10     20 
    22     22     10      7      6      3 
    23     23     24     11     10     21 
    24     24     22     11     10     20 
    25     25     19      6      3      4 
    26     26     23     11     10      7 
    27     27     15      2      1     14 
    28     28     20     10      7      8 
    29     29      9      7      6      3 
    30     30     23     11     10     21 
    31     31     20     10      7      6 
    32     32     24     11     10     20 
    33     33     17      3      2     15 
    34     34     22     11     10     21 
    35     35     17      3      4      5 
    36     36     17      3      2      1 
    37     37     18      6      7      9 
    38     38     19      6      7      8 
    39     39     19      6      7      9 
    40     40     18      6      3      4 
    41     41      6      3      2      1 
    42     42     13      1      2      3 
    43     43     24     11     10      7 
    44     44     17      3      6      7 
    45     45     18      6      3     17 
    46     46     21     10      7      9 
    47     47     19      6      3     17 
    48     48     16      2      1     13 
    49     49     21     10      7      6 
    50     50      6      3      4      5 
    51     51     16      2      1     14 
    52     52      7      6      3      4 
    53     53     15      2      3      6 
    54     54     19      6      7     10 
    55     55     18      6      7     10 
    56     56     15      2      1     13 
    57     57     16      2      1     12 

Impropers

     1      1      3      2      4      6 
     2      2      7      9      6      8 
     3      3      7     10      6      8 
     4      4      1      2     12     13 
     5      5      1      2     12     14 
     6      6      2      1      3     15 
     7      7      2      1      3     16 
     8      8      3     17      2      4 
     9      9      6     18      3      7 
    10     10      6     19      3      7 
    11     11     10     11     20      7 
    12     12     10     11     21      7 
    13     13     11     10     22     23 
    14     14     11     10     22     24 

