LAMMPS data file Created by LigParGen - (Written by Leela S. Dodda)

      34 atoms
      34 bonds
      67 angles
     102 dihedrals
      21 impropers
 
      34 atom types
      34 bond types
      67 angle types
     102 dihedral types
      21 improper types
 
   -5.157480    44.842520 xlo xhi
   -0.078480    49.921520 ylo yhi
   -4.166790    45.833210 zlo zhi

Masses

       1     12.011  
       2     12.011  
       3     12.011  
       4     12.011  
       5     12.011  
       6     12.011  
       7     12.011  
       8     32.060  
       9     15.999  
      10     15.999  
      11     12.011  
      12     12.011  
      13     12.011  
      14     12.011  
      15     14.007  
      16      1.008  
      17      1.008  
      18      1.008  
      19      1.008  
      20      1.008  
      21      1.008  
      22      1.008  
      23      1.008  
      24      1.008  
      25      1.008  
      26      1.008  
      27      1.008  
      28      1.008  
      29      1.008  
      30      1.008  
      31      1.008  
      32      1.008  
      33      1.008  
      34      1.008  

Pair Coeffs 

       1      0.066  3.5000000 
       2      0.066  3.5000000 
       3      0.066  3.5000000 
       4      0.066  3.5000000 
       5      0.066  3.5000000 
       6      0.066  3.5000000 
       7      0.066  3.5000000 
       8      0.250  3.5500000 
       9      0.170  2.9600000 
      10      0.170  2.9600000 
      11      0.066  3.5000000 
      12      0.066  3.5000000 
      13      0.066  3.5000000 
      14      0.066  3.3000000 
      15      0.170  3.2000000 
      16      0.030  2.5000000 
      17      0.030  2.5000000 
      18      0.030  2.5000000 
      19      0.030  2.5000000 
      20      0.030  2.5000000 
      21      0.030  2.5000000 
      22      0.030  2.5000000 
      23      0.030  2.5000000 
      24      0.030  2.5000000 
      25      0.030  2.5000000 
      26      0.030  2.5000000 
      27      0.030  2.5000000 
      28      0.030  2.5000000 
      29      0.030  2.5000000 
      30      0.030  2.5000000 
      31      0.030  2.5000000 
      32      0.030  2.5000000 
      33      0.030  2.5000000 
      34      0.030  2.5000000 

Bond Coeffs 

       1   268.0000     1.5290 
       2   268.0000     1.5290 
       3   268.0000     1.5290 
       4   268.0000     1.5290 
       5   268.0000     1.5290 
       6   268.0000     1.5290 
       7   340.0000     1.7700 
       8   700.0000     1.4400 
       9   700.0000     1.4400 
      10   268.0000     1.5290 
      11   268.0000     1.5290 
      12   268.0000     1.5290 
      13   390.0000     1.4700 
      14   650.0000     1.1570 
      15   340.0000     1.0900 
      16   340.0000     1.0900 
      17   340.0000     1.0900 
      18   340.0000     1.0900 
      19   340.0000     1.0900 
      20   340.0000     1.0900 
      21   340.0000     1.0900 
      22   340.0000     1.0900 
      23   340.0000     1.0900 
      24   340.0000     1.0900 
      25   340.0000     1.0900 
      26   340.0000     1.0900 
      27   340.0000     1.0900 
      28   340.0000     1.0900 
      29   340.0000     1.0900 
      30   340.0000     1.0900 
      31   340.0000     1.0900 
      32   340.0000     1.0900 
      33   340.0000     1.0900 
      34   340.0000     1.7700 

Angle Coeffs 

       1     58.350    112.700
       2     58.350    112.700
       3     58.350    112.700
       4     58.350    112.700
       5     58.350    112.700
       6     50.000    108.600
       7     74.000    108.900
       8     74.000    108.900
       9     58.350    112.700
      10     58.350    112.700
      11     58.350    112.700
      12     58.350    112.700
      13    150.000    180.000
      14     37.500    110.700
      15     37.500    110.700
      16     37.500    110.700
      17     37.500    110.700
      18     37.500    110.700
      19     37.500    110.700
      20     37.500    110.700
      21     37.500    110.700
      22     37.500    110.700
      23     37.500    110.700
      24     37.500    110.700
      25     37.500    110.700
      26     37.500    110.700
      27     37.500    110.700
      28     37.500    110.700
      29     37.500    110.700
      30     37.500    110.700
      31     37.500    110.700
      32     37.500    110.700
      33     33.000    107.800
      34     62.000    102.000
      35     37.500    110.700
      36     74.000    108.900
      37     58.350    112.700
      38     33.000    107.800
      39     50.000    108.600
      40     37.500    110.700
      41     33.000    107.800
      42     33.000    107.800
      43     35.000    109.500
      44     33.000    107.800
      45     33.000    107.800
      46     37.500    110.700
      47     33.000    107.800
      48     50.000    108.600
      49     37.500    110.700
      50     33.000    107.800
      51     35.000    109.500
      52     35.000    109.500
      53     33.000    107.800
      54     33.000    107.800
      55     37.500    110.700
      56     37.500    110.700
      57     58.350    112.700
      58     37.500    110.700
      59     58.350    112.700
      60     74.000    108.900
      61     33.000    107.800
      62     37.500    110.700
      63     37.500    110.700
      64     35.000    108.500
      65     37.500    110.700
      66    104.000    119.000
      67     33.000    107.800

Dihedral Coeffs  

       1      1.300     -0.200      0.200      0.000 
       2      1.300     -0.200      0.200      0.000 
       3      1.300     -0.200      0.200      0.000 
       4      1.262     -0.198      0.465      0.000 
       5      0.000      0.000      0.000      0.000 
       6      1.300     -0.200      0.200      0.000 
       7      0.000      0.000      0.000      0.000 
       8      0.000      0.000      0.300      0.000 
       9      0.000      0.000      0.300      0.000 
      10      0.000      0.000      0.300      0.000 
      11      0.000      0.000      0.000      0.000 
      12      0.000      0.000      0.300      0.000 
      13      0.000      0.000      0.350      0.000 
      14      0.000      0.000      0.300      0.000 
      15      0.000      0.000      0.300      0.000 
      16      0.000      0.000      0.300      0.000 
      17      0.000      0.000      0.000      0.000 
      18      0.000      0.000      0.300      0.000 
      19      0.000      0.000      0.300      0.000 
      20      1.262     -0.198      0.465      0.000 
      21      0.000      0.000      0.300      0.000 
      22      0.000      0.000      0.300      0.000 
      23      0.000      0.000      0.300      0.000 
      24      0.000      0.000      0.366      0.000 
      25      0.000      0.000      0.300      0.000 
      26      0.000      0.000      0.300      0.000 
      27      0.000      0.000      0.300      0.000 
      28      1.262     -0.198      0.465      0.000 
      29      1.300     -0.200      0.200      0.000 
      30      0.000      0.000      0.300      0.000 
      31      0.000      0.000      0.300      0.000 
      32      1.300     -0.200      0.200      0.000 
      33      0.000      0.000      0.300      0.000 
      34      0.000      0.000      0.300      0.000 
      35      0.000      0.000      0.300      0.000 
      36      0.000      0.000      0.350      0.000 
      37      0.000      0.000      0.300      0.000 
      38      0.000      0.000      0.000      0.000 
      39      0.000      0.000      0.350      0.000 
      40      0.000      0.000      0.350      0.000 
      41      0.000      0.000      0.300      0.000 
      42      0.000      0.000      0.300      0.000 
      43      0.000      0.000      0.452      0.000 
      44      1.262     -0.198      0.465      0.000 
      45      0.000      0.000      0.300      0.000 
      46      0.000      0.000      0.300      0.000 
      47      0.000     -0.650      0.000      0.000 
      48      0.000      0.000      0.300      0.000 
      49      1.300     -0.200      0.200      0.000 
      50      0.000      0.000      0.366      0.000 
      51      1.300     -0.200      0.200      0.000 
      52      0.000      0.000      0.000      0.000 
      53      0.000      0.000      0.300      0.000 
      54      0.000      0.000      0.300      0.000 
      55      0.000      0.000      0.300      0.000 
      56      0.000      0.000      0.300      0.000 
      57      0.000      0.000      0.300      0.000 
      58      0.000      0.000      0.300      0.000 
      59      0.000      0.000      0.350      0.000 
      60      0.000      0.000      0.350      0.000 
      61      0.000      0.000      0.300      0.000 
      62      0.000      0.000      0.366      0.000 
      63      0.000      0.000      0.300      0.000 
      64      0.000      0.000      0.300      0.000 
      65      1.262     -0.198      0.465      0.000 
      66      0.000      0.000      0.300      0.000 
      67      0.000      0.000      0.300      0.000 
      68      0.000      0.000      0.350      0.000 
      69      0.000      0.000      0.000      0.000 
      70      0.000      0.000      0.300      0.000 
      71      0.000      0.000      0.000      0.000 
      72      0.000      0.000      0.300      0.000 
      73      0.000      0.000      0.452      0.000 
      74      0.000      0.000      0.300      0.000 
      75      0.000      0.000      0.300      0.000 
      76      1.300     -0.200      0.200      0.000 
      77      0.000      0.000      0.000      0.000 
      78      0.000      0.000      0.300      0.000 
      79      0.000      0.000      0.300      0.000 
      80      0.000      0.000      0.350      0.000 
      81      0.000      0.000      0.366      0.000 
      82      1.300     -0.200      0.200      0.000 
      83      0.000      0.000      0.300      0.000 
      84      0.000      0.000      0.300      0.000 
      85      0.000      0.000      0.452      0.000 
      86      0.000      0.000      0.300      0.000 
      87      0.000      0.000      0.000      0.000 
      88      0.000      0.000      0.000      0.000 
      89      0.000      0.000      0.300      0.000 
      90      0.000      0.000      0.300      0.000 
      91      0.000      0.000      0.452      0.000 
      92      0.000      0.000      0.300      0.000 
      93      0.000      0.000      0.300      0.000 
      94      0.000      0.000      0.350      0.000 
      95      0.000      0.000      0.300      0.000 
      96      0.000      0.000      0.300      0.000 
      97      0.000      0.000      0.300      0.000 
      98      0.000      0.000      0.300      0.000 
      99      0.000      0.000      0.300      0.000 
     100      0.000      0.000      0.300      0.000 
     101      0.000      0.000      0.300      0.000 
     102      0.000      0.000      0.000      0.000 

Improper Coeffs 

       1      0.000      -1       2 
       2      0.000      -1       2 
       3      0.000      -1       2 
       4      0.000      -1       2 
       5      0.000      -1       2 
       6      0.000      -1       2 
       7      0.000      -1       2 
       8      0.000      -1       2 
       9      0.000      -1       2 
      10      0.000      -1       2 
      11      0.000      -1       2 
      12      0.000      -1       2 
      13      0.000      -1       2 
      14      0.000      -1       2 
      15      0.000      -1       2 
      16      0.000      -1       2 
      17      0.000      -1       2 
      18      0.000      -1       2 
      19      0.000      -1       2 
      20      0.000      -1       2 
      21      0.000      -1       2 

Atoms 

     1      1      1 -0.23750000    1.000  1.00000  0.00000
     2      1      2 -0.11750000   -0.538  1.00000  0.00000
     3      1      3 -0.23310000   -1.005  1.00000  1.46137
     4      1      4 -0.08880000   -1.108  2.19450 -0.84449
     5      1      5 -0.19410000   -0.799  2.03561 -2.35973
     6      1      6 -0.15250000   -1.620  0.97252 -3.10078
     7      1      7 -0.50640000   -3.129  1.11538 -2.96708
     8      1      8 1.29850000   -3.636  1.16516 -1.26739
     9      1      9 -0.56100000   -3.228 -0.07848 -0.64916
    10      1     10 -0.56100000   -5.036  1.53108 -1.22849
    11      1     11 -0.39470000   -2.623  2.53404 -0.62458
    12      1     12 0.05360000   -3.020  3.87720 -1.29519
    13      1     13 -0.26250000   -4.495  4.28929 -1.12627
    14      1     14 0.13680000   -2.241  5.06815 -0.76122
    15      1     15 -0.38250000   -1.595  6.05701 -0.31949
    16      1     16 0.08520000    1.387  0.20979  0.65346
    17      1     17 0.08520000    1.396  1.95537  0.36020
    18      1     18 0.08520000    1.405  0.81060 -0.99710
    19      1     19 0.12650000   -0.842  0.04942 -0.44794
    20      1     20 0.08680000   -0.720  1.92671  1.96968
    21      1     21 0.08680000   -0.553  0.16374  2.00770
    22      1     22 0.08680000   -2.087  0.87642  1.54967
    23      1     23 0.12520000   -0.538  3.06981 -0.50487
    24      1     24 0.10560000    0.262  1.80966 -2.50630
    25      1     25 0.10560000   -0.942  3.00042 -2.86046
    26      1     26 0.11560000   -1.319 -0.02180 -2.75490
    27      1     27 0.11560000   -1.365  1.02091 -4.16679
    28      1     28 0.16730000   -3.638  0.26364 -3.42872
    29      1     29 0.16730000   -3.492  2.02445 -3.45597
    30      1     30 0.18180000   -2.848  2.60108  0.44497
    31      1     31 0.13080000   -2.835  3.84288 -2.37317
    32      1     32 0.11500000   -4.828  4.16952 -0.08967
    33      1     33 0.11500000   -5.157  3.72846 -1.78781
    34      1     34 0.11500000   -4.644  5.34294 -1.39720

Bonds 

     1      1      2      1
     2      2      3      2
     3      3      4      2
     4      4      5      4
     5      5      6      5
     6      6      7      6
     7      7      8      7
     8      8      9      8
     9      9     10      8
    10     10     11      4
    11     11     12     11
    12     12     13     12
    13     13     14     12
    14     14     15     14
    15     15     16      1
    16     16     17      1
    17     17     18      1
    18     18     19      2
    19     19     20      3
    20     20     21      3
    21     21     22      3
    22     22     23      4
    23     23     24      5
    24     24     25      5
    25     25     26      6
    26     26     27      6
    27     27     28      7
    28     28     29      7
    29     29     30     11
    30     30     31     12
    31     31     32     13
    32     32     33     13
    33     33     34     13
    34     34     11      8

Angles 

     1      1      1      2      3
     2      2      1      2      4
     3      3      2      4      5
     4      4      4      5      6
     5      5      5      6      7
     6      6      6      7      8
     7      7      7      8      9
     8      8      7      8     10
     9      9      2      4     11
    10     10      4     11     12
    11     11     11     12     13
    12     12     11     12     14
    13     13     12     14     15
    14     14      2      1     16
    15     15      2      1     17
    16     16      2      1     18
    17     17      1      2     19
    18     18      2      3     20
    19     19      2      3     21
    20     20      2      3     22
    21     21      2      4     23
    22     22      4      5     24
    23     23      4      5     25
    24     24      5      6     26
    25     25      5      6     27
    26     26      6      7     28
    27     27      6      7     29
    28     28      4     11     30
    29     29     11     12     31
    30     30     12     13     32
    31     31     12     13     33
    32     32     12     13     34
    33     33     33     13     34
    34     34      7      8     11
    35     35      6      5     24
    36     36     10      8     11
    37     37     13     12     14
    38     38     16      1     18
    39     39      8     11     12
    40     40      7      6     27
    41     41     20      3     22
    42     42     16      1     17
    43     43      8     11     30
    44     44     17      1     18
    45     45     21      3     22
    46     46     12     11     30
    47     47     32     13     33
    48     48      4     11      8
    49     49      4      2     19
    50     50     26      6     27
    51     51      8      7     29
    52     52      8      7     28
    53     53     24      5     25
    54     54     28      7     29
    55     55     13     12     31
    56     56      3      2     19
    57     57      3      2      4
    58     58      7      6     26
    59     59      5      4     11
    60     60      9      8     11
    61     61     32     13     34
    62     62     11      4     23
    63     63      6      5     25
    64     64     14     12     31
    65     65      5      4     23
    66     66      9      8     10
    67     67     20      3     21

Dihedrals

     1      1      5      4      2      1 
     2      2      6      5      4      2 
     3      3      7      6      5      4 
     4      4      8      7      6      5 
     5      5      9      8      7      6 
     6      6     13     12     11      4 
     7      7     15     14     12     11 
     8      8     16      1      2      3 
     9      9     20      3      2      1 
    10     10     32     13     12     11 
    11     11     31     12     14     15 
    12     12     22      3      2     19 
    13     13     28      7      8      9 
    14     14     30     11      4      5 
    15     15     25      5      4     23 
    16     16     18      1      2      4 
    17     17     12     11      8     10 
    18     18     20      3      2     19 
    19     19     25      5      6      7 
    20     20     13     12     11      8 
    21     21     26      6      5     25 
    22     22     33     13     12     31 
    23     23     28      7      6      5 
    24     24     33     13     12     14 
    25     25     29      7      6     26 
    26     26     28      7      6     27 
    27     27     30     11      4     23 
    28     28      8     11      4      5 
    29     29     12     11      4      5 
    30     30     23      4      2      1 
    31     31     32     13     12     31 
    32     32      5      4      2      3 
    33     33     31     12     11      4 
    34     34     26      6      5      4 
    35     35     23      4      5      6 
    36     36     30     11      8     10 
    37     37     30     11     12     13 
    38     38     12     11      8      9 
    39     39     29      7      8     10 
    40     40     28      7      8     11 
    41     41     27      6      5     25 
    42     42     28      7      6     26 
    43     43     23      4     11      8 
    44     44     14     12     11      8 
    45     45     33     13     12     11 
    46     46     24      5      4     11 
    47     47     14     12     11      4 
    48     48     23      4      2     19 
    49     49     12     11      4      2 
    50     50     34     13     12     14 
    51     51     11      4      2      3 
    52     52      7      8     11      4 
    53     53     24      5      4     23 
    54     54     17      1      2      3 
    55     55     17      1      2      4 
    56     56     18      1      2      3 
    57     57     24      5      6      7 
    58     58     27      6      5      4 
    59     59     29      7      8      9 
    60     60     30     11      8      7 
    61     61     24      5      4      2 
    62     62     30     11     12     14 
    63     63     19      2      1     16 
    64     64     26      6      5     24 
    65     65      8     11      4      2 
    66     66     21      3      2     19 
    67     67     19      2      1     18 
    68     68     28      7      8     10 
    69     69     12     11      8      7 
    70     70     25      5      4      2 
    71     71     11      8      7      6 
    72     72     23      4      2      3 
    73     73     27      6      7      8 
    74     74     20      3      2      4 
    75     75     16      1      2      4 
    76     76     11      4      5      6 
    77     77     10      8     11      4 
    78     78     19      2      4     11 
    79     79     21      3      2      4 
    80     80     30     11      8      9 
    81     81     32     13     12     14 
    82     82     11      4      2      1 
    83     83     22      3      2      1 
    84     84     31     12     11     30 
    85     85     26      6      7      8 
    86     86     29      7      6      5 
    87     87     10      8      7      6 
    88     88      9      8     11      4 
    89     89     22      3      2      4 
    90     90     25      5      4     11 
    91     91     31     12     11      8 
    92     92     19      2      1     17 
    93     93     21      3      2      1 
    94     94     29      7      8     11 
    95     95     30     11      4      2 
    96     96     34     13     12     31 
    97     97     19      2      4      5 
    98     98     23      4     11     12 
    99     99     34     13     12     11 
   100    100     29      7      6     27 
   101    101     27      6      5     24 
   102    102     15     14     12     13 

Impropers

     1      1      2      1      3      4 
     2      2      8      9     10      7 
     3      3      4      2     11      5 
     4      4     11      4     12      8 
     5      5     12     11     13     14 
     6      6      1     17     16      2 
     7      7      1     18     16      2 
     8      8      2      1     19      3 
     9      9      3      2     20     21 
    10     10      3      2     20     22 
    11     11      4      2      5     23 
    12     12      5      4      6     24 
    13     13      5     25      4      6 
    14     14      6     26      5      7 
    15     15      6     27      5      7 
    16     16      7     28      6      8 
    17     17      7     29      6      8 
    18     18     11      4     30      8 
    19     19     12     11     13     31 
    20     20     13     33     12     32 
    21     21     13     34     12     32 

