LAMMPS data file Created by LigParGen - (Written by Leela S. Dodda)

      31 atoms
      32 bonds
      64 angles
     101 dihedrals
      21 impropers
 
      31 atom types
      32 bond types
      64 angle types
     101 dihedral types
      21 improper types
 
   -4.445390    45.554610 xlo xhi
   -1.352390    48.647610 ylo yhi
   -1.147020    48.852980 zlo zhi

Masses

       1     12.011  
       2     12.011  
       3     12.011  
       4     12.011  
       5     12.011  
       6     12.011  
       7     12.011  
       8     12.011  
       9     12.011  
      10     15.999  
      11     15.999  
      12     12.011  
      13     12.011  
      14      1.008  
      15      1.008  
      16      1.008  
      17      1.008  
      18      1.008  
      19      1.008  
      20      1.008  
      21      1.008  
      22      1.008  
      23      1.008  
      24      1.008  
      25      1.008  
      26      1.008  
      27      1.008  
      28      1.008  
      29      1.008  
      30      1.008  
      31      1.008  

Pair Coeffs 

       1      0.066  3.5000000 
       2      0.066  3.5000000 
       3      0.066  3.5000000 
       4      0.066  3.5000000 
       5      0.066  3.5000000 
       6      0.066  3.5000000 
       7      0.066  3.5000000 
       8      0.066  3.5000000 
       9      0.070  3.5500000 
      10      0.210  2.9600000 
      11      0.140  2.9000000 
      12      0.066  3.5000000 
      13      0.066  3.5000000 
      14      0.030  2.5000000 
      15      0.030  2.5000000 
      16      0.030  2.5000000 
      17      0.030  2.5000000 
      18      0.030  2.5000000 
      19      0.030  2.5000000 
      20      0.030  2.5000000 
      21      0.030  2.5000000 
      22      0.030  2.5000000 
      23      0.030  2.5000000 
      24      0.030  2.5000000 
      25      0.030  2.5000000 
      26      0.030  2.5000000 
      27      0.030  2.5000000 
      28      0.030  2.5000000 
      29      0.030  2.5000000 
      30      0.030  2.5000000 
      31      0.030  2.5000000 

Bond Coeffs 

       1   268.0000     1.5290 
       2   268.0000     1.5290 
       3   268.0000     1.5290 
       4   268.0000     1.5290 
       5   268.0000     1.5290 
       6   268.0000     1.5290 
       7   268.0000     1.5290 
       8   317.0000     1.5220 
       9   570.0000     1.2290 
      10   214.0000     1.3270 
      11   268.0000     1.5290 
      12   268.0000     1.5290 
      13   340.0000     1.0900 
      14   340.0000     1.0900 
      15   340.0000     1.0900 
      16   340.0000     1.0900 
      17   340.0000     1.0900 
      18   340.0000     1.0900 
      19   340.0000     1.0900 
      20   340.0000     1.0900 
      21   340.0000     1.0900 
      22   340.0000     1.0900 
      23   340.0000     1.0900 
      24   340.0000     1.0900 
      25   340.0000     1.0900 
      26   340.0000     1.0900 
      27   340.0000     1.0900 
      28   340.0000     1.0900 
      29   340.0000     1.0900 
      30   340.0000     1.0900 
      31   268.0000     1.5290 
      32   320.0000     1.4100 

Angle Coeffs 

       1     58.350    112.700
       2     58.350    112.700
       3     58.350    112.700
       4     58.350    112.700
       5     58.350    112.700
       6     58.350    112.700
       7     63.000    111.100
       8     80.000    120.400
       9     81.000    111.400
      10     58.350    112.700
      11     58.350    112.700
      12     37.500    110.700
      13     37.500    110.700
      14     37.500    110.700
      15     37.500    110.700
      16     37.500    110.700
      17     37.500    110.700
      18     37.500    110.700
      19     37.500    110.700
      20     37.500    110.700
      21     37.500    110.700
      22     37.500    110.700
      23     37.500    110.700
      24     37.500    110.700
      25     37.500    110.700
      26     37.500    110.700
      27     37.500    110.700
      28     37.500    110.700
      29     37.500    110.700
      30     50.000    109.500
      31     35.000    109.500
      32     37.500    110.700
      33     33.000    107.800
      34     37.500    110.700
      35     33.000    107.800
      36     37.500    110.700
      37     58.350    112.700
      38     37.500    110.700
      39     37.500    110.700
      40     58.350    112.700
      41     37.500    110.700
      42     37.500    110.700
      43     37.500    110.700
      44     58.350    112.700
      45     58.350    112.700
      46     58.350    112.700
      47     33.000    107.800
      48     33.000    107.800
      49     33.000    107.800
      50     33.000    107.800
      51     83.000    116.900
      52     33.000    107.800
      53     37.500    110.700
      54     83.000    123.400
      55     37.500    110.700
      56     35.000    109.500
      57     33.000    107.800
      58     37.500    110.700
      59     33.000    107.800
      60     50.000    109.500
      61     58.350    112.700
      62     33.000    107.800
      63     33.000    107.800
      64     35.000    109.500

Dihedral Coeffs  

       1      1.300     -0.200      0.200      0.000 
       2      1.300     -0.200      0.200      0.000 
       3      1.300     -0.200      0.200      0.000 
       4     -2.060     -0.313      0.315      0.000 
       5      0.000      0.000      0.000      0.000 
       6      0.000      0.000      0.300      0.000 
       7      0.000      0.000      0.300      0.000 
       8      0.000      0.000      0.300      0.000 
       9      0.000      0.000      0.132      0.000 
      10      0.000      0.000      0.300      0.000 
      11      1.300     -0.200      0.200      0.000 
      12      0.000      0.000      0.300      0.000 
      13      1.300     -0.200      0.200      0.000 
      14      0.000      0.000      0.300      0.000 
      15      1.300     -0.200      0.200      0.000 
      16      0.000      0.000      0.300      0.000 
      17      1.300     -0.200      0.200      0.000 
      18      4.669      5.124      0.000      0.000 
      19      1.711     -0.500      0.663      0.000 
      20     -2.060     -0.313      0.315      0.000 
      21      0.000      0.000      0.300      0.000 
      22      0.000      0.000      0.300      0.000 
      23      0.000      0.000      0.300      0.000 
      24      0.000      0.000     -0.553      0.000 
      25      0.000      0.000      0.000      0.000 
      26      0.000      0.000      0.300      0.000 
      27      0.000      0.000      0.300      0.000 
      28      0.000      0.000      0.300      0.000 
      29      0.000      0.000      0.300      0.000 
      30      1.300     -0.200      0.200      0.000 
      31      0.000      0.000      0.300      0.000 
      32      0.000      0.000      0.300      0.000 
      33      0.000      0.000      0.300      0.000 
      34      0.000      0.000      0.300      0.000 
      35      0.000      0.000      0.300      0.000 
      36      1.300     -0.200      0.200      0.000 
      37      0.000      0.000      0.300      0.000 
      38      1.300     -0.200      0.200      0.000 
      39      0.000      0.000      0.300      0.000 
      40      0.000      0.000      0.300      0.000 
      41      0.000      0.000      0.300      0.000 
      42      0.000      0.000      0.300      0.000 
      43     -1.220     -0.126      0.422      0.000 
      44      0.000      0.000      0.300      0.000 
      45      0.000      0.000      0.468      0.000 
      46      0.000      0.000      0.300      0.000 
      47      0.000      0.000      0.300      0.000 
      48      0.000      0.000      0.300      0.000 
      49      0.000      0.000      0.000      0.000 
      50      1.300     -0.200      0.200      0.000 
      51      0.000      0.000      0.300      0.000 
      52      0.000      0.000      0.300      0.000 
      53     -2.060     -0.313      0.315      0.000 
      54      0.000      0.000      0.468      0.000 
      55      0.000      0.000      0.132      0.000 
      56      0.000      0.000      0.300      0.000 
      57      0.000      0.000      0.300      0.000 
      58      0.000      0.000      0.300      0.000 
      59      0.000      0.000      0.300      0.000 
      60      1.300     -0.200      0.200      0.000 
      61      1.711     -0.500      0.663      0.000 
      62      0.000      0.000      0.300      0.000 
      63      0.000      0.000      0.300      0.000 
      64      0.000      0.000      0.300      0.000 
      65      0.000      0.000      0.300      0.000 
      66      0.000      5.124      0.000      0.000 
      67      1.711     -0.500      0.663      0.000 
      68      1.300     -0.200      0.200      0.000 
      69      0.000      0.000      0.300      0.000 
      70      1.300     -0.200      0.200      0.000 
      71      0.000      0.000      0.300      0.000 
      72      0.000      0.000      0.300      0.000 
      73      1.300     -0.200      0.200      0.000 
      74      0.000      0.000      0.300      0.000 
      75      0.000      0.000      0.300      0.000 
      76      0.000      0.000      0.300      0.000 
      77      0.000      0.000      0.300      0.000 
      78      0.000      0.000      0.468      0.000 
      79      0.000      0.000      0.300      0.000 
      80      0.000      0.000      0.300      0.000 
      81      0.000      0.000      0.300      0.000 
      82      1.300     -0.200      0.200      0.000 
      83      0.000      0.000      0.300      0.000 
      84      0.000      0.000      0.300      0.000 
      85      0.000      0.000      0.300      0.000 
      86      0.000      0.000      0.300      0.000 
      87      0.000      0.000      0.300      0.000 
      88      0.000      0.000      0.300      0.000 
      89      0.000      0.000      0.300      0.000 
      90      1.300     -0.200      0.200      0.000 
      91      0.000      0.000      0.300      0.000 
      92      0.000      0.000      0.300      0.000 
      93      0.000      0.000      0.300      0.000 
      94      0.000      0.000      0.300      0.000 
      95     -1.220     -0.126      0.422      0.000 
      96      0.000      0.000      0.300      0.000 
      97      0.000      0.000      0.300      0.000 
      98      0.000      0.000      0.300      0.000 
      99      0.000      0.000      0.300      0.000 
     100      1.300     -0.200      0.200      0.000 
     101      0.000      0.000      0.198      0.000 

Improper Coeffs 

       1      0.000      -1       2 
       2      0.000      -1       2 
       3     10.500      -1       2 
       4      0.000      -1       2 
       5      0.000      -1       2 
       6      0.000      -1       2 
       7      0.000      -1       2 
       8      0.000      -1       2 
       9      0.000      -1       2 
      10      0.000      -1       2 
      11      0.000      -1       2 
      12      0.000      -1       2 
      13      0.000      -1       2 
      14      0.000      -1       2 
      15      0.000      -1       2 
      16      0.000      -1       2 
      17      0.000      -1       2 
      18      0.000      -1       2 
      19      0.000      -1       2 
      20      0.000      -1       2 
      21      0.000      -1       2 

Atoms 

     1      1      1 -0.23870000    1.000  1.00000  0.00000
     2      1      2 -0.17180000   -0.527  1.00000  0.00000
     3      1      3 -0.10330000   -1.115  1.00000  1.41798
     4      1      4 -0.18360000   -0.741 -0.27512  2.19526
     5      1      5 -0.18750000   -1.784 -0.35676  3.28961
     6      1      6 -0.17450000   -3.057 -0.00523  2.54762
     7      1      7 -0.07680000   -2.679  1.12936  1.56469
     8      1      8 -0.25100000   -3.508  0.98464  0.28166
     9      1      9 0.44670000   -3.869  2.38645 -0.09834
    10      1     10 -0.40400000   -4.396  2.71498 -1.14702
    11      1     11 -0.34200000   -3.580  3.23980  0.91496
    12      1     12 0.07550000   -3.173  2.50436  2.07514
    13      1     13 -0.24480000   -2.211  3.39072  2.85257
    14      1     14 0.08390000    1.376  1.00130 -1.02793
    15      1     15 0.08390000    1.402  0.11130  0.49709
    16      1     16 0.08390000    1.392  1.88688  0.50710
    17      1     17 0.09440000   -0.861  0.11661 -0.55543
    18      1     18 0.09440000   -0.870  1.88836 -0.54121
    19      1     19 0.10880000   -0.622  1.81685  1.95317
    20      1     20 0.09860000    0.268 -0.22070  2.61456
    21      1     21 0.09860000   -0.799 -1.15869  1.54933
    22      1     22 0.09830000   -1.581  0.37287  4.08007
    23      1     23 0.09830000   -1.831 -1.35239  3.74063
    24      1     24 0.09960000   -3.862  0.26134  3.23760
    25      1     25 0.09960000   -3.387 -0.89383  1.99201
    26      1     26 0.14710000   -4.445  0.44964  0.46161
    27      1     27 0.14710000   -2.977  0.50017 -0.54018
    28      1     28 0.10940000   -4.075  2.37934  2.68844
    29      1     29 0.10320000   -1.420  3.78713  2.20555
    30      1     30 0.10320000   -1.768  2.87144  3.70537
    31      1     31 0.10320000   -2.743  4.27430  3.22733

Bonds 

     1      1      2      1
     2      2      3      2
     3      3      4      3
     4      4      5      4
     5      5      6      5
     6      6      7      3
     7      7      8      7
     8      8      9      8
     9      9     10      9
    10     10     11      9
    11     11     12      7
    12     12     13     12
    13     13     14      1
    14     14     15      1
    15     15     16      1
    16     16     17      2
    17     17     18      2
    18     18     19      3
    19     19     20      4
    20     20     21      4
    21     21     22      5
    22     22     23      5
    23     23     24      6
    24     24     25      6
    25     25     26      8
    26     26     27      8
    27     27     28     12
    28     28     29     13
    29     29     30     13
    30     30     31     13
    31     31      7      6
    32     32     12     11

Angles 

     1      1      1      2      3
     2      2      2      3      4
     3      3      3      4      5
     4      4      4      5      6
     5      5      2      3      7
     6      6      3      7      8
     7      7      7      8      9
     8      8      8      9     10
     9      9      8      9     11
    10     10      3      7     12
    11     11      7     12     13
    12     12      2      1     14
    13     13      2      1     15
    14     14      2      1     16
    15     15      1      2     17
    16     16      1      2     18
    17     17      2      3     19
    18     18      3      4     20
    19     19      3      4     21
    20     20      4      5     22
    21     21      4      5     23
    22     22      5      6     24
    23     23      5      6     25
    24     24      7      8     26
    25     25      7      8     27
    26     26      7     12     28
    27     27     12     13     29
    28     28     12     13     30
    29     29     12     13     31
    30     30      7     12     11
    31     31     11     12     28
    32     32      7      6     24
    33     33     22      5     23
    34     34      3      2     18
    35     35     26      8     27
    36     36      7      3     19
    37     37      4      3      7
    38     38      6      5     22
    39     39      3      2     17
    40     40      8      7     12
    41     41     13     12     28
    42     42      4      3     19
    43     43      7      6     25
    44     44      3      7      6
    45     45      6      7      8
    46     46      6      7     12
    47     47     29     13     30
    48     48     15      1     16
    49     49     14      1     15
    50     50     17      2     18
    51     51      9     11     12
    52     52     24      6     25
    53     53      5      4     20
    54     54     10      9     11
    55     55      6      5     23
    56     56      9      8     26
    57     57     14      1     16
    58     58      5      4     21
    59     59     29     13     31
    60     60     11     12     13
    61     61      5      6      7
    62     62     30     13     31
    63     63     20      4     21
    64     64      9      8     27

Dihedrals

     1      1      4      3      2      1 
     2      2      5      4      3      2 
     3      3      6      5      4      3 
     4      4      9      8      7      3 
     5      5     10      9      8      7 
     6      6     14      1      2      3 
     7      7     29     13     12      7 
     8      8     24      6      7     12 
     9      9     27      8      9     11 
    10     10     21      4      3      7 
    11     11      8      7      3      2 
    12     12     31     13     12     28 
    13     13      6      7      3      4 
    14     14     24      6      5     22 
    15     15      7      3      2      1 
    16     16     20      4      3      7 
    17     17     13     12      7      8 
    18     18     12     11      9      8 
    19     19     11     12      7      3 
    20     20      9      8      7      6 
    21     21     17      2      3      7 
    22     22     28     12      7      6 
    23     23     25      6      7      8 
    24     24     11      9      8      7 
    25     25     26      8      9     10 
    26     26     23      5      6      7 
    27     27     17      2      1     16 
    28     28     18      2      1     15 
    29     29     17      2      3      4 
    30     30     12      7      6      5 
    31     31     23      5      4     20 
    32     32     22      5      4     21 
    33     33     28     12      7      8 
    34     34     19      3      2      1 
    35     35     25      6      5     23 
    36     36      6      7      3      2 
    37     37     21      4      3     19 
    38     38     12      7      3      2 
    39     39     19      3      7      6 
    40     40     18      2      1     14 
    41     41     17      2      1     15 
    42     42     24      6      7      3 
    43     43     13     12     11      9 
    44     44     27      8      7      6 
    45     45     29     13     12     11 
    46     46     26      8      7      3 
    47     47     22      5      4      3 
    48     48     23      5      4     21 
    49     49     27      8      9     10 
    50     50      8      7      6      5 
    51     51     19      3      7     12 
    52     52     30     13     12      7 
    53     53     12      7      8      9 
    54     54     31     13     12     11 
    55     55     26      8      9     11 
    56     56     23      5      4      3 
    57     57     20      4      5      6 
    58     58     21      4      3      2 
    59     59     24      6      5      4 
    60     60     13     12      7      6 
    61     61     11     12      7      8 
    62     62     22      5      6      7 
    63     63     20      4      3      2 
    64     64     26      8      7     12 
    65     65     29     13     12     28 
    66     66     12     11      9     10 
    67     67     11     12      7      6 
    68     68     12      7      3      4 
    69     69     15      1      2      3 
    70     70     13     12      7      3 
    71     71     24      6      7      8 
    72     72     25      6      5      4 
    73     73      7      3      4      5 
    74     74     18      2      3      7 
    75     75     25      6      7     12 
    76     76     19      3      7      8 
    77     77     26      8      7      6 
    78     78     30     13     12     11 
    79     79     25      6      5     22 
    80     80     22      5      4     20 
    81     81     27      8      7      3 
    82     82      5      6      7      3 
    83     83     19      3      2     18 
    84     84     19      3      2     17 
    85     85     20      4      3     19 
    86     86     21      4      5      6 
    87     87     19      3      4      5 
    88     88     18      2      3      4 
    89     89     31     13     12      7 
    90     90      7      6      5      4 
    91     91     30     13     12     28 
    92     92     28     12      7      3 
    93     93     16      1      2      3 
    94     94     17      2      1     14 
    95     95      9     11     12      7 
    96     96     27      8      7     12 
    97     97     25      6      7      3 
    98     98     18      2      1     16 
    99     99     24      6      5     23 
   100    100      8      7      3      4 
   101    101     28     12     11      9 

Impropers

     1      1      3      2      4      7 
     2      2      7      3      6      8 
     3      3      9     10     11      8 
     4      4      7      3     12      6 
     5      5     12     11     13      7 
     6      6      1      2     14     15 
     7      7      1      2     14     16 
     8      8      2     17      3      1 
     9      9      2      1     18      3 
    10     10      3      2     19      4 
    11     11      4      3     20      5 
    12     12      4      5      3     21 
    13     13      5      4     22      6 
    14     14      5      4      6     23 
    15     15      6      5      7     24 
    16     16      6     25      5      7 
    17     17      8      9     26      7 
    18     18      8      9     27      7 
    19     19     12     11     28      7 
    20     20     13     29     12     30 
    21     21     13     29     12     31 

