LAMMPS data file Created by LigParGen - (Written by Leela S. Dodda)

      35 atoms
      34 bonds
      64 angles
      83 dihedrals
      21 impropers
 
      35 atom types
      34 bond types
      64 angle types
      83 dihedral types
      21 improper types
 
   -8.635360    41.364640 xlo xhi
   -1.162410    48.837590 ylo yhi
   -1.026640    48.973360 zlo zhi

Masses

       1     12.011  
       2     12.011  
       3     12.011  
       4     12.011  
       5     12.011  
       6     12.011  
       7     12.011  
       8     12.011  
       9     15.999  
      10     15.999  
      11     12.011  
      12     12.011  
      13     12.011  
      14      1.008  
      15      1.008  
      16      1.008  
      17      1.008  
      18      1.008  
      19      1.008  
      20      1.008  
      21      1.008  
      22      1.008  
      23      1.008  
      24      1.008  
      25      1.008  
      26      1.008  
      27      1.008  
      28      1.008  
      29      1.008  
      30      1.008  
      31      1.008  
      32      1.008  
      33      1.008  
      34      1.008  
      35      1.008  

Pair Coeffs 

       1      0.066  3.5000000 
       2      0.066  3.5000000 
       3      0.066  3.5000000 
       4      0.066  3.5000000 
       5      0.066  3.5000000 
       6      0.066  3.5000000 
       7      0.066  3.5000000 
       8      0.070  3.5500000 
       9      0.210  2.9600000 
      10      0.140  2.9000000 
      11      0.066  3.5000000 
      12      0.066  3.5000000 
      13      0.066  3.5000000 
      14      0.030  2.5000000 
      15      0.030  2.5000000 
      16      0.030  2.5000000 
      17      0.030  2.5000000 
      18      0.030  2.5000000 
      19      0.030  2.5000000 
      20      0.030  2.5000000 
      21      0.030  2.5000000 
      22      0.030  2.5000000 
      23      0.030  2.5000000 
      24      0.030  2.5000000 
      25      0.030  2.5000000 
      26      0.030  2.5000000 
      27      0.030  2.5000000 
      28      0.030  2.5000000 
      29      0.030  2.5000000 
      30      0.030  2.5000000 
      31      0.030  2.5000000 
      32      0.030  2.5000000 
      33      0.030  2.5000000 
      34      0.030  2.5000000 
      35      0.030  2.5000000 

Bond Coeffs 

       1   268.0000     1.5290 
       2   268.0000     1.5290 
       3   268.0000     1.5290 
       4   268.0000     1.5290 
       5   268.0000     1.5290 
       6   268.0000     1.5290 
       7   317.0000     1.5220 
       8   570.0000     1.2290 
       9   214.0000     1.3270 
      10   320.0000     1.4100 
      11   268.0000     1.5290 
      12   268.0000     1.5290 
      13   340.0000     1.0900 
      14   340.0000     1.0900 
      15   340.0000     1.0900 
      16   340.0000     1.0900 
      17   340.0000     1.0900 
      18   340.0000     1.0900 
      19   340.0000     1.0900 
      20   340.0000     1.0900 
      21   340.0000     1.0900 
      22   340.0000     1.0900 
      23   340.0000     1.0900 
      24   340.0000     1.0900 
      25   340.0000     1.0900 
      26   340.0000     1.0900 
      27   340.0000     1.0900 
      28   340.0000     1.0900 
      29   340.0000     1.0900 
      30   340.0000     1.0900 
      31   340.0000     1.0900 
      32   340.0000     1.0900 
      33   340.0000     1.0900 
      34   340.0000     1.0900 

Angle Coeffs 

       1     58.350    112.700
       2     58.350    112.700
       3     58.350    112.700
       4     58.350    112.700
       5     58.350    112.700
       6     63.000    111.100
       7     80.000    120.400
       8     81.000    111.400
       9     83.000    116.900
      10     50.000    109.500
      11     58.350    112.700
      12     37.500    110.700
      13     37.500    110.700
      14     37.500    110.700
      15     37.500    110.700
      16     37.500    110.700
      17     37.500    110.700
      18     37.500    110.700
      19     37.500    110.700
      20     37.500    110.700
      21     37.500    110.700
      22     37.500    110.700
      23     37.500    110.700
      24     37.500    110.700
      25     37.500    110.700
      26     37.500    110.700
      27     35.000    109.500
      28     35.000    109.500
      29     37.500    110.700
      30     37.500    110.700
      31     37.500    110.700
      32     37.500    110.700
      33     37.500    110.700
      34     33.000    107.800
      35     37.500    110.700
      36     83.000    123.400
      37     37.500    110.700
      38     33.000    107.800
      39     37.500    110.700
      40     37.500    110.700
      41     33.000    107.800
      42     37.500    110.700
      43     33.000    107.800
      44     37.500    110.700
      45     33.000    107.800
      46     37.500    110.700
      47     37.500    110.700
      48     33.000    107.800
      49     33.000    107.800
      50     33.000    107.800
      51     63.000    111.100
      52     33.000    107.800
      53     33.000    107.800
      54     33.000    107.800
      55     35.000    109.500
      56     33.000    107.800
      57     33.000    107.800
      58     37.500    110.700
      59     37.500    110.700
      60     33.000    107.800
      61     37.500    110.700
      62     37.500    110.700
      63     33.000    107.800
      64     37.500    110.700

Dihedral Coeffs  

       1      1.300     -0.200      0.200      0.000 
       2      1.300     -0.200      0.200      0.000 
       3      1.300     -0.200      0.200      0.000 
       4      1.300     -0.200      0.200      0.000 
       5      0.000      0.000      0.000      0.000 
       6      4.669      5.124      0.000      0.000 
       7     -1.220     -0.126      0.422      0.000 
       8      1.711     -0.500      0.663      0.000 
       9      0.000      0.000      0.300      0.000 
      10      0.000      0.000      0.300      0.000 
      11      0.000      0.000      0.300      0.000 
      12      0.000      0.000      0.300      0.000 
      13      0.000      0.000      0.300      0.000 
      14      0.000      0.000      0.300      0.000 
      15      0.000      0.000      0.300      0.000 
      16      0.000      0.000      0.300      0.000 
      17      0.000      0.000     -0.100      0.000 
      18      0.000      0.000      0.300      0.000 
      19      0.000      0.000      0.300      0.000 
      20      0.000      0.000      0.300      0.000 
      21      0.000      0.000      0.300      0.000 
      22      0.000      0.000      0.000      0.000 
      23      0.000      0.000      0.300      0.000 
      24      0.000      0.000      0.300      0.000 
      25      0.000      0.000      0.300      0.000 
      26      0.000      0.000      0.300      0.000 
      27      0.000      0.000      0.300      0.000 
      28      0.000      0.000     -0.553      0.000 
      29      0.000      0.000      0.300      0.000 
      30      0.000      0.000      0.300      0.000 
      31      0.000      0.000      0.300      0.000 
      32      0.000      0.000      0.300      0.000 
      33      0.000      0.000      0.300      0.000 
      34      0.000      0.000      0.132      0.000 
      35      0.000      0.000      0.300      0.000 
      36      0.000      0.000      0.300      0.000 
      37      0.000      0.000      0.198      0.000 
      38      0.000      0.000      0.300      0.000 
      39     -2.060     -0.313      0.315      0.000 
      40      0.000      0.000      0.300      0.000 
      41      0.000      0.000      0.300      0.000 
      42      0.000      0.000      0.300      0.000 
      43      0.000      0.000      0.300      0.000 
      44      0.000      0.000      0.300      0.000 
      45      0.000      0.000      0.300      0.000 
      46      0.000      0.000     -0.100      0.000 
      47      0.000      0.000      0.300      0.000 
      48      0.000      0.000      0.300      0.000 
      49      0.000      5.124      0.000      0.000 
      50      0.000      0.000     -0.100      0.000 
      51      0.000      0.000      0.300      0.000 
      52      0.000      0.000      0.300      0.000 
      53      0.000      0.000     -0.553      0.000 
      54      0.000      0.000      0.198      0.000 
      55      0.000      0.000      0.300      0.000 
      56      0.000      0.000      0.300      0.000 
      57      0.000      0.000      0.300      0.000 
      58      0.000      0.000      0.468      0.000 
      59      0.000      0.000      0.300      0.000 
      60      0.000      0.000      0.300      0.000 
      61      0.000      0.000      0.300      0.000 
      62      0.000      0.000      0.300      0.000 
      63      0.000      0.000      0.300      0.000 
      64      0.000      0.000      0.300      0.000 
      65      0.000      0.000      0.300      0.000 
      66      0.000      0.000      0.000      0.000 
      67      0.000      0.000      0.300      0.000 
      68      0.000      0.000      0.300      0.000 
      69      0.000      0.000      0.300      0.000 
      70      0.000      0.000      0.300      0.000 
      71      0.000      0.000      0.300      0.000 
      72      0.000      0.000      0.300      0.000 
      73      0.000      0.000     -0.100      0.000 
      74      0.000      0.000      0.300      0.000 
      75      0.000      0.000     -0.100      0.000 
      76      0.000      0.000      0.300      0.000 
      77      0.000      0.000      0.300      0.000 
      78      0.000      0.000      0.300      0.000 
      79      0.000      0.000      0.300      0.000 
      80      0.000      0.000      0.300      0.000 
      81      0.000      0.000      0.300      0.000 
      82      0.000      0.000      0.300      0.000 
      83      0.000      0.000      0.468      0.000 

Improper Coeffs 

       1      0.000      -1       2 
       2     10.500      -1       2 
       3      0.000      -1       2 
       4      0.000      -1       2 
       5      0.000      -1       2 
       6      0.000      -1       2 
       7      0.000      -1       2 
       8      0.000      -1       2 
       9      0.000      -1       2 
      10      0.000      -1       2 
      11      0.000      -1       2 
      12      0.000      -1       2 
      13      0.000      -1       2 
      14      0.000      -1       2 
      15      0.000      -1       2 
      16      0.000      -1       2 
      17      0.000      -1       2 
      18      0.000      -1       2 
      19      0.000      -1       2 
      20      0.000      -1       2 
      21      0.000      -1       2 

Atoms 

     1      1      1 -0.23880000    1.000  1.00000  0.00000
     2      1      2 -0.17920000   -0.520  1.00000  0.00000
     3      1      3 -0.17780000   -1.084  1.00000  1.42254
     4      1      4 -0.17680000   -2.611  0.99820  1.41106
     5      1      5 -0.17100000   -3.186  0.99638  2.83151
     6      1      6 -0.11840000   -4.722  0.99633  2.85648
     7      1      7 -0.23360000   -5.334 -0.24105  2.19934
     8      1      8 0.44010000   -5.223  1.05160  4.28987
     9      1      9 -0.44760000   -4.895  0.25909  5.16372
    10      1     10 -0.36030000   -6.153  2.03676  4.42641
    11      1     11 0.00180000   -7.003  1.94440  5.57977
    12      1     12 -0.20300000   -6.637  2.98393  6.63071
    13      1     13 -0.23740000   -7.609  2.92298  7.80000
    14      1     14 0.08170000    1.380  1.00130 -1.02664
    15      1     15 0.08170000    1.389  0.11035  0.50570
    16      1     16 0.08170000    1.391  1.88632  0.50949
    17      1     17 0.08800000   -0.875  0.11712 -0.54356
    18      1     18 0.08800000   -0.880  1.88147 -0.54412
    19      1     19 0.09200000   -0.716  1.88085  1.96367
    20      1     20 0.09200000   -0.719  0.11480  1.95803
    21      1     21 0.09070000   -2.955  0.11214  0.86650
    22      1     22 0.09070000   -2.976  1.87911  0.86809
    23      1     23 0.10420000   -2.823  1.88275  3.36735
    24      1     24 0.10420000   -2.801  0.12627  3.37855
    25      1     25 0.13120000   -5.079  1.88840  2.32638
    26      1     26 0.09550000   -4.943 -1.16241  2.64653
    27      1     27 0.09550000   -5.129 -0.26841  1.12535
    28      1     28 0.09550000   -6.422 -0.25113  2.32848
    29      1     29 0.11220000   -7.000  0.93564  6.00872
    30      1     30 0.11220000   -8.020  2.13149  5.21934
    31      1     31 0.10390000   -6.653  3.98661  6.18686
    32      1     32 0.10390000   -5.613  2.81921  6.98536
    33      1     33 0.08560000   -8.635  3.10783  7.46420
    34      1     34 0.08560000   -7.359  3.67635  8.55289
    35      1     35 0.08560000   -7.581  1.93812  8.27839

Bonds 

     1      1      2      1
     2      2      3      2
     3      3      4      3
     4      4      5      4
     5      5      6      5
     6      6      7      6
     7      7      8      6
     8      8      9      8
     9      9     10      8
    10     10     11     10
    11     11     12     11
    12     12     13     12
    13     13     14      1
    14     14     15      1
    15     15     16      1
    16     16     17      2
    17     17     18      2
    18     18     19      3
    19     19     20      3
    20     20     21      4
    21     21     22      4
    22     22     23      5
    23     23     24      5
    24     24     25      6
    25     25     26      7
    26     26     27      7
    27     27     28      7
    28     28     29     11
    29     29     30     11
    30     30     31     12
    31     31     32     12
    32     32     33     13
    33     33     34     13
    34     34     35     13

Angles 

     1      1      1      2      3
     2      2      2      3      4
     3      3      3      4      5
     4      4      4      5      6
     5      5      5      6      7
     6      6      5      6      8
     7      7      6      8      9
     8      8      6      8     10
     9      9      8     10     11
    10     10     10     11     12
    11     11     11     12     13
    12     12      2      1     14
    13     13      2      1     15
    14     14      2      1     16
    15     15      1      2     17
    16     16      1      2     18
    17     17      2      3     19
    18     18      2      3     20
    19     19      3      4     21
    20     20      3      4     22
    21     21      4      5     23
    22     22      4      5     24
    23     23      5      6     25
    24     24      6      7     26
    25     25      6      7     27
    26     26      6      7     28
    27     27     10     11     29
    28     28     10     11     30
    29     29     11     12     31
    30     30     11     12     32
    31     31     12     13     33
    32     32     12     13     34
    33     33     12     13     35
    34     34     33     13     34
    35     35      6      5     24
    36     36      9      8     10
    37     37      3      2     18
    38     38     27      7     28
    39     39      3      2     17
    40     40      7      6     25
    41     41     23      5     24
    42     42      4      3     19
    43     43     34     13     35
    44     44     13     12     31
    45     45     21      4     22
    46     46     12     11     30
    47     47      5      4     22
    48     48     15      1     16
    49     49     14      1     15
    50     50     33     13     35
    51     51      7      6      8
    52     52     17      2     18
    53     53     26      7     27
    54     54     29     11     30
    55     55      8      6     25
    56     56     19      3     20
    57     57     26      7     28
    58     58      6      5     23
    59     59     13     12     32
    60     60     14      1     16
    61     61      5      4     21
    62     62      4      3     20
    63     63     31     12     32
    64     64     12     11     29

Dihedrals

     1      1      4      3      2      1 
     2      2      5      4      3      2 
     3      3      6      5      4      3 
     4      4      7      6      5      4 
     5      5      9      8      6      5 
     6      6     11     10      8      6 
     7      7     12     11     10      8 
     8      8     13     12     11     10 
     9      9     14      1      2      3 
    10     10     26      7      6      5 
    11     11     33     13     12     11 
    12     12     20      3      4      5 
    13     13     25      6      5      4 
    14     14     35     13     12     32 
    15     15     28      7      6      5 
    16     16     34     13     12     32 
    17     17     28      7      6      8 
    18     18     24      5      6      7 
    19     19     35     13     12     31 
    20     20     19      3      2      1 
    21     21     21      4      3     20 
    22     22      9      8      6      7 
    23     23     24      5      4     22 
    24     24     35     13     12     11 
    25     25     25      6      5     23 
    26     26     23      5      4      3 
    27     27     23      5      4     22 
    28     28     10      8      6      7 
    29     29     21      4      3      2 
    30     30     31     12     11     29 
    31     31     31     12     11     30 
    32     32     27      7      6     25 
    33     33     33     13     12     31 
    34     34     25      6      8     10 
    35     35     26      7      6     25 
    36     36     32     12     11     29 
    37     37     29     11     10      8 
    38     38     20      3      2      1 
    39     39      8      6      5      4 
    40     40     29     11     12     13 
    41     41     19      3      2     18 
    42     42     21      4      3     19 
    43     43     19      3      2     17 
    44     44     20      3      2     18 
    45     45     30     11     12     13 
    46     46     23      5      6      8 
    47     47     17      2      1     15 
    48     48     21      4      5      6 
    49     49     11     10      8      9 
    50     50     24      5      6      8 
    51     51     19      3      4      5 
    52     52     32     12     11     30 
    53     53     10      8      6      5 
    54     54     30     11     10      8 
    55     55     18      2      3      4 
    56     56     24      5      4     21 
    57     57     18      2      1     14 
    58     58     31     12     11     10 
    59     59     24      5      4      3 
    60     60     28      7      6     25 
    61     61     22      4      5      6 
    62     62     34     13     12     31 
    63     63     33     13     12     32 
    64     64     23      5      4     21 
    65     65     25      6      5     24 
    66     66     25      6      8      9 
    67     67     16      1      2      3 
    68     68     22      4      3     19 
    69     69     22      4      3     20 
    70     70     23      5      6      7 
    71     71     17      2      1     14 
    72     72     34     13     12     11 
    73     73     27      7      6      8 
    74     74     22      4      3      2 
    75     75     26      7      6      8 
    76     76     15      1      2      3 
    77     77     17      2      1     16 
    78     78     18      2      1     15 
    79     79     18      2      1     16 
    80     80     27      7      6      5 
    81     81     20      3      2     17 
    82     82     17      2      3      4 
    83     83     32     12     11     10 

Impropers

     1      1      6      5      7      8 
     2      2      8      9     10      6 
     3      3      1      2     14     15 
     4      4      1      2     14     16 
     5      5      2     17      3      1 
     6      6      2      1     18      3 
     7      7      3      2     19      4 
     8      8      3      4      2     20 
     9      9      4      5      3     21 
    10     10      4      3      5     22 
    11     11      5      4      6     23 
    12     12      5      4      6     24 
    13     13      6     25      5      7 
    14     14      7     26     27      6 
    15     15      7     26     28      6 
    16     16     11     10     12     29 
    17     17     11     10     12     30 
    18     18     12     11     13     31 
    19     19     12     11     13     32 
    20     20     13     33     34     12 
    21     21     13     33     35     12 

