LAMMPS data file Created by LigParGen - (Written by Leela S. Dodda)

      32 atoms
      34 bonds
      72 angles
     126 dihedrals
      21 impropers
 
      32 atom types
      34 bond types
      72 angle types
     126 dihedral types
      21 improper types
 
   -5.717860    44.282140 xlo xhi
   -2.060570    47.939430 ylo yhi
   -2.898470    47.101530 zlo zhi

Masses

       1     12.011  
       2     12.011  
       3     12.011  
       4     12.011  
       5     12.011  
       6     12.011  
       7     12.011  
       8     12.011  
       9     12.011  
      10     12.011  
      11     12.011  
      12     12.011  
      13      1.008  
      14      1.008  
      15      1.008  
      16      1.008  
      17      1.008  
      18      1.008  
      19      1.008  
      20      1.008  
      21      1.008  
      22      1.008  
      23      1.008  
      24      1.008  
      25      1.008  
      26      1.008  
      27      1.008  
      28      1.008  
      29      1.008  
      30      1.008  
      31      1.008  
      32      1.008  

Pair Coeffs 

       1      0.066  3.5000000 
       2      0.066  3.5000000 
       3      0.066  3.5000000 
       4      0.066  3.5000000 
       5      0.066  3.5000000 
       6      0.066  3.5000000 
       7      0.066  3.5000000 
       8      0.066  3.5000000 
       9      0.066  3.5000000 
      10      0.066  3.5000000 
      11      0.066  3.5000000 
      12      0.066  3.5000000 
      13      0.030  2.5000000 
      14      0.030  2.5000000 
      15      0.030  2.5000000 
      16      0.030  2.5000000 
      17      0.030  2.5000000 
      18      0.030  2.5000000 
      19      0.030  2.5000000 
      20      0.030  2.5000000 
      21      0.030  2.5000000 
      22      0.030  2.5000000 
      23      0.030  2.5000000 
      24      0.030  2.5000000 
      25      0.030  2.5000000 
      26      0.030  2.5000000 
      27      0.030  2.5000000 
      28      0.030  2.5000000 
      29      0.030  2.5000000 
      30      0.030  2.5000000 
      31      0.030  2.5000000 
      32      0.030  2.5000000 

Bond Coeffs 

       1   268.0000     1.5290 
       2   268.0000     1.5290 
       3   268.0000     1.5290 
       4   268.0000     1.5290 
       5   268.0000     1.5290 
       6   268.0000     1.5290 
       7   268.0000     1.5290 
       8   268.0000     1.5290 
       9   268.0000     1.5290 
      10   268.0000     1.5290 
      11   268.0000     1.5290 
      12   340.0000     1.0900 
      13   340.0000     1.0900 
      14   340.0000     1.0900 
      15   340.0000     1.0900 
      16   340.0000     1.0900 
      17   340.0000     1.0900 
      18   340.0000     1.0900 
      19   340.0000     1.0900 
      20   340.0000     1.0900 
      21   340.0000     1.0900 
      22   340.0000     1.0900 
      23   340.0000     1.0900 
      24   340.0000     1.0900 
      25   340.0000     1.0900 
      26   340.0000     1.0900 
      27   340.0000     1.0900 
      28   340.0000     1.0900 
      29   340.0000     1.0900 
      30   340.0000     1.0900 
      31   340.0000     1.0900 
      32   268.0000     1.5290 
      33   268.0000     1.5290 
      34   268.0000     1.5290 

Angle Coeffs 

       1     58.350    112.700
       2     58.350    112.700
       3     58.350    112.700
       4     58.350    112.700
       5     58.350    112.700
       6     58.350    112.700
       7     58.350    112.700
       8     58.350    112.700
       9     58.350    112.700
      10     58.350    112.700
      11     37.500    110.700
      12     37.500    110.700
      13     37.500    110.700
      14     37.500    110.700
      15     37.500    110.700
      16     37.500    110.700
      17     37.500    110.700
      18     37.500    110.700
      19     37.500    110.700
      20     37.500    110.700
      21     37.500    110.700
      22     37.500    110.700
      23     37.500    110.700
      24     37.500    110.700
      25     37.500    110.700
      26     37.500    110.700
      27     37.500    110.700
      28     37.500    110.700
      29     37.500    110.700
      30     37.500    110.700
      31     37.500    110.700
      32     58.350    112.700
      33     33.000    107.800
      34     58.350    112.700
      35     37.500    110.700
      36     58.350    112.700
      37     37.500    110.700
      38     37.500    110.700
      39     33.000    107.800
      40     58.350    112.700
      41     33.000    107.800
      42     58.350    112.700
      43     37.500    110.700
      44     37.500    110.700
      45     37.500    110.700
      46     33.000    107.800
      47     37.500    110.700
      48     58.350    112.700
      49     37.500    110.700
      50     37.500    110.700
      51     33.000    107.800
      52     37.500    110.700
      53     58.350    112.700
      54     37.500    110.700
      55     58.350    112.700
      56     37.500    110.700
      57     37.500    110.700
      58     37.500    110.700
      59     58.350    112.700
      60     33.000    107.800
      61     37.500    110.700
      62     37.500    110.700
      63     33.000    107.800
      64     37.500    110.700
      65     37.500    110.700
      66     37.500    110.700
      67     33.000    107.800
      68     58.350    112.700
      69     37.500    110.700
      70     58.350    112.700
      71     37.500    110.700
      72     33.000    107.800

Dihedral Coeffs  

       1      1.300     -0.200      0.200      0.000 
       2      1.300     -0.200      0.200      0.000 
       3      1.300     -0.200      0.200      0.000 
       4      1.300     -0.200      0.200      0.000 
       5      1.300     -0.200      0.200      0.000 
       6      1.300     -0.200      0.200      0.000 
       7      1.300     -0.200      0.200      0.000 
       8      0.000      0.000      0.300      0.000 
       9      0.000      0.000      0.300      0.000 
      10      1.300     -0.200      0.200      0.000 
      11      0.000      0.000      0.300      0.000 
      12      0.000      0.000      0.300      0.000 
      13      0.000      0.000      0.300      0.000 
      14      0.000      0.000      0.300      0.000 
      15      0.000      0.000      0.300      0.000 
      16      0.000      0.000      0.300      0.000 
      17      0.000      0.000      0.300      0.000 
      18      0.000      0.000      0.300      0.000 
      19      1.300     -0.200      0.200      0.000 
      20      0.000      0.000      0.300      0.000 
      21      0.000      0.000      0.300      0.000 
      22      0.000      0.000      0.300      0.000 
      23      0.000      0.000      0.300      0.000 
      24      0.000      0.000      0.300      0.000 
      25      0.000      0.000      0.300      0.000 
      26      0.000      0.000      0.300      0.000 
      27      0.000      0.000      0.300      0.000 
      28      0.000      0.000      0.300      0.000 
      29      0.000      0.000      0.300      0.000 
      30      0.000      0.000      0.300      0.000 
      31      0.000      0.000      0.300      0.000 
      32      0.000      0.000      0.300      0.000 
      33      0.000      0.000      0.300      0.000 
      34      0.000      0.000      0.300      0.000 
      35      0.000      0.000      0.300      0.000 
      36      1.300     -0.200      0.200      0.000 
      37      1.300     -0.200      0.200      0.000 
      38      0.000      0.000      0.300      0.000 
      39      0.000      0.000      0.300      0.000 
      40      0.000      0.000      0.300      0.000 
      41      0.000      0.000      0.300      0.000 
      42      0.000      0.000      0.300      0.000 
      43      0.000      0.000      0.300      0.000 
      44      1.300     -0.200      0.200      0.000 
      45      0.000      0.000      0.300      0.000 
      46      0.000      0.000      0.300      0.000 
      47      0.000      0.000      0.300      0.000 
      48      0.000      0.000      0.300      0.000 
      49      0.000      0.000      0.300      0.000 
      50      1.300     -0.200      0.200      0.000 
      51      0.000      0.000      0.300      0.000 
      52      1.300     -0.200      0.200      0.000 
      53      0.000      0.000      0.300      0.000 
      54      0.000      0.000      0.300      0.000 
      55      1.300     -0.200      0.200      0.000 
      56      1.300     -0.200      0.200      0.000 
      57      0.000      0.000      0.300      0.000 
      58      0.000      0.000      0.300      0.000 
      59      1.300     -0.200      0.200      0.000 
      60      0.000      0.000      0.300      0.000 
      61      0.000      0.000      0.300      0.000 
      62      1.300     -0.200      0.200      0.000 
      63      0.000      0.000      0.300      0.000 
      64      0.000      0.000      0.300      0.000 
      65      0.000      0.000      0.300      0.000 
      66      1.300     -0.200      0.200      0.000 
      67      0.000      0.000      0.300      0.000 
      68      0.000      0.000      0.300      0.000 
      69      1.300     -0.200      0.200      0.000 
      70      1.300     -0.200      0.200      0.000 
      71      0.000      0.000      0.300      0.000 
      72      0.000      0.000      0.300      0.000 
      73      0.000      0.000      0.300      0.000 
      74      1.300     -0.200      0.200      0.000 
      75      0.000      0.000      0.300      0.000 
      76      0.000      0.000      0.300      0.000 
      77      0.000      0.000      0.300      0.000 
      78      0.000      0.000      0.300      0.000 
      79      0.000      0.000      0.300      0.000 
      80      0.000      0.000      0.300      0.000 
      81      0.000      0.000      0.300      0.000 
      82      1.300     -0.200      0.200      0.000 
      83      0.000      0.000      0.300      0.000 
      84      0.000      0.000      0.300      0.000 
      85      0.000      0.000      0.300      0.000 
      86      1.300     -0.200      0.200      0.000 
      87      1.300     -0.200      0.200      0.000 
      88      0.000      0.000      0.300      0.000 
      89      0.000      0.000      0.300      0.000 
      90      0.000      0.000      0.300      0.000 
      91      1.300     -0.200      0.200      0.000 
      92      0.000      0.000      0.300      0.000 
      93      1.300     -0.200      0.200      0.000 
      94      0.000      0.000      0.300      0.000 
      95      0.000      0.000      0.300      0.000 
      96      0.000      0.000      0.300      0.000 
      97      0.000      0.000      0.300      0.000 
      98      0.000      0.000      0.300      0.000 
      99      0.000      0.000      0.300      0.000 
     100      0.000      0.000      0.300      0.000 
     101      0.000      0.000      0.300      0.000 
     102      1.300     -0.200      0.200      0.000 
     103      0.000      0.000      0.300      0.000 
     104      0.000      0.000      0.300      0.000 
     105      0.000      0.000      0.300      0.000 
     106      0.000      0.000      0.300      0.000 
     107      1.300     -0.200      0.200      0.000 
     108      0.000      0.000      0.300      0.000 
     109      1.300     -0.200      0.200      0.000 
     110      0.000      0.000      0.300      0.000 
     111      0.000      0.000      0.300      0.000 
     112      1.300     -0.200      0.200      0.000 
     113      0.000      0.000      0.300      0.000 
     114      0.000      0.000      0.300      0.000 
     115      0.000      0.000      0.300      0.000 
     116      0.000      0.000      0.300      0.000 
     117      0.000      0.000      0.300      0.000 
     118      0.000      0.000      0.300      0.000 
     119      0.000      0.000      0.300      0.000 
     120      0.000      0.000      0.300      0.000 
     121      0.000      0.000      0.300      0.000 
     122      0.000      0.000      0.300      0.000 
     123      0.000      0.000      0.300      0.000 
     124      0.000      0.000      0.300      0.000 
     125      0.000      0.000      0.300      0.000 
     126      0.000      0.000      0.300      0.000 

Improper Coeffs 

       1      0.000      -1       2 
       2      0.000      -1       2 
       3      0.000      -1       2 
       4      0.000      -1       2 
       5      0.000      -1       2 
       6      0.000      -1       2 
       7      0.000      -1       2 
       8      0.000      -1       2 
       9      0.000      -1       2 
      10      0.000      -1       2 
      11      0.000      -1       2 
      12      0.000      -1       2 
      13      0.000      -1       2 
      14      0.000      -1       2 
      15      0.000      -1       2 
      16      0.000      -1       2 
      17      0.000      -1       2 
      18      0.000      -1       2 
      19      0.000      -1       2 
      20      0.000      -1       2 
      21      0.000      -1       2 

Atoms 

     1      1      1 -0.23170000    1.000  1.00000  0.00000
     2      1      2 -0.10840000   -0.519  1.00000  0.00000
     3      1      3 -0.16540000   -1.103  1.00000  1.45195
     4      1      4 -0.12950000   -2.559  0.71660  1.15036
     5      1      5 -0.15620000   -3.608  0.25282  2.15030
     6      1      6 -0.17530000   -4.938 -0.05800  1.38216
     7      1      7 -0.15630000   -4.790 -0.87226  0.04988
     8      1      8 -0.12680000   -3.614 -0.33129 -0.75943
     9      1      9 -0.16930000   -3.039 -0.97646 -2.00614
    10      1     10 -0.16740000   -1.643 -0.28532 -2.08237
    11      1     11 -0.12720000   -1.146 -0.25714 -0.63395
    12      1     12 -0.13910000   -2.425 -0.41718  0.16202
    13      1     13 0.08180000    1.381  1.86627  0.55049
    14      1     14 0.08180000    1.386  1.05147 -1.02344
    15      1     15 0.08180000    1.402  0.09782  0.47192
    16      1     16 0.10240000   -0.868  1.89802 -0.52720
    17      1     17 0.09510000   -0.957  1.96318  1.94929
    18      1     18 0.09510000   -0.652  0.21052  2.06498
    19      1     19 0.10150000   -2.953  1.62917  0.67650
    20      1     20 0.08870000   -3.786  1.02234  2.90915
    21      1     21 0.08870000   -3.273 -0.64974  2.67465
    22      1     22 0.08550000   -5.401  0.90471  1.12918
    23      1     23 0.08550000   -5.634 -0.57545  2.05201
    24      1     24 0.08820000   -5.718 -0.80553 -0.52789
    25      1     25 0.08820000   -4.634 -1.93022  0.29498
    26      1     26 0.10310000   -3.850  0.70849 -1.02636
    27      1     27 0.09370000   -3.639 -0.77867 -2.89847
    28      1     28 0.09370000   -2.928 -2.06057 -1.88531
    29      1     29 0.09220000   -1.747  0.73028 -2.48110
    30      1     30 0.09220000   -0.963 -0.83892 -2.73619
    31      1     31 0.10320000   -0.496 -1.12538 -0.46290
    32      1     32 0.10990000   -2.373 -1.39470  0.66723

Bonds 

     1      1      2      1
     2      2      3      2
     3      3      4      3
     4      4      5      4
     5      5      6      5
     6      6      7      6
     7      7      8      7
     8      8      9      8
     9      9     10      9
    10     10     11      2
    11     11     12      4
    12     12     13      1
    13     13     14      1
    14     14     15      1
    15     15     16      2
    16     16     17      3
    17     17     18      3
    18     18     19      4
    19     19     20      5
    20     20     21      5
    21     21     22      6
    22     22     23      6
    23     23     24      7
    24     24     25      7
    25     25     26      8
    26     26     27      9
    27     27     28      9
    28     28     29     10
    29     29     30     10
    30     30     31     11
    31     31     32     12
    32     32     12      8
    33     33     11     10
    34     34     12     11

Angles 

     1      1      1      2      3
     2      2      2      3      4
     3      3      3      4      5
     4      4      4      5      6
     5      5      5      6      7
     6      6      6      7      8
     7      7      7      8      9
     8      8      8      9     10
     9      9      1      2     11
    10     10      3      4     12
    11     11      2      1     13
    12     12      2      1     14
    13     13      2      1     15
    14     14      1      2     16
    15     15      2      3     17
    16     16      2      3     18
    17     17      3      4     19
    18     18      4      5     20
    19     19      4      5     21
    20     20      5      6     22
    21     21      5      6     23
    22     22      6      7     24
    23     23      6      7     25
    24     24      7      8     26
    25     25      8      9     27
    26     26      8      9     28
    27     27      9     10     29
    28     28      9     10     30
    29     29      2     11     31
    30     30      4     12     32
    31     31     12     11     31
    32     32      5      4     12
    33     33     13      1     14
    34     34      4     12     11
    35     35     12      4     19
    36     36      2     11     10
    37     37     10      9     28
    38     38      7      6     22
    39     39     29     10     30
    40     40      8     12     11
    41     41     24      7     25
    42     42      9      8     12
    43     43      3      2     16
    44     44      8     12     32
    45     45     11     12     32
    46     46     14      1     15
    47     47      4      3     18
    48     48      3      2     11
    49     49      8      7     25
    50     50     12      8     26
    51     51     27      9     28
    52     52      6      5     20
    53     53     10     11     12
    54     54      5      4     19
    55     55      7      8     12
    56     56     11      2     16
    57     57     11     10     29
    58     58      6      5     21
    59     59      9     10     11
    60     60     22      6     23
    61     61      9      8     26
    62     62      4      3     17
    63     63     17      3     18
    64     64      8      7     24
    65     65     10     11     31
    66     66      7      6     23
    67     67     13      1     15
    68     68      2     11     12
    69     69     10      9     27
    70     70      4     12      8
    71     71     11     10     30
    72     72     20      5     21

Dihedrals

     1      1      4      3      2      1 
     2      2      5      4      3      2 
     3      3      6      5      4      3 
     4      4      7      6      5      4 
     5      5      8      7      6      5 
     6      6      9      8      7      6 
     7      7     10      9      8      7 
     8      8     13      1      2      3 
     9      9     23      6      7      8 
    10     10      8     12      4      5 
    11     11     23      6      5      4 
    12     12     17      3      2     16 
    13     13     31     11      2      1 
    14     14     28      9      8     12 
    15     15     26      8      7     24 
    16     16     26      8     12      4 
    17     17     19      4      3      2 
    18     18     22      6      5      4 
    19     19     11     12      4      3 
    20     20     25      7      8     12 
    21     21     24      7      6     23 
    22     22     25      7      6     22 
    23     23     21      5      4      3 
    24     24     13      1      2     11 
    25     25     25      7      6     23 
    26     26     32     12      4      3 
    27     27     16      2     11     12 
    28     28     26      8      9     10 
    29     29     29     10      9     27 
    30     30     31     11      2      3 
    31     31     24      7      6      5 
    32     32     26      8      7     25 
    33     33     30     10      9     28 
    34     34     21      5      4     19 
    35     35     16      2      3      4 
    36     36     12     11      2      3 
    37     37      8     12      4      3 
    38     38     30     10     11      2 
    39     39     24      7      8      9 
    40     40     27      9      8      7 
    41     41     20      5      4      3 
    42     42     20      5      4     19 
    43     43     31     11     12      4 
    44     44      8     12     11      2 
    45     45     22      6      5     21 
    46     46     23      6      5     21 
    47     47     32     12      4     19 
    48     48     30     10     11     12 
    49     49     20      5      6      7 
    50     50     10     11      2      1 
    51     51     29     10     11     12 
    52     52      7      8     12      4 
    53     53     32     12      8     26 
    54     54     29     10      9      8 
    55     55     11     10      9      8 
    56     56     12      8      7      6 
    57     57     29     10     11      2 
    58     58     17      3      2     11 
    59     59     12      4      5      6 
    60     60     19      4      5      6 
    61     61     31     11      2     16 
    62     62     10     11     12      8 
    63     63     21      5      4     12 
    64     64     22      6      7      8 
    65     65     16      2      1     14 
    66     66     11     12      8      7 
    67     67     32     12      8      7 
    68     68     18      3      2      1 
    69     69     12     11     10      9 
    70     70     11     12      8      9 
    71     71     25      7      6      5 
    72     72     31     11     10     30 
    73     73     17      3      4     12 
    74     74     10     11     12      4 
    75     75     18      3      4      5 
    76     76     24      7      6     22 
    77     77     27      9      8     12 
    78     78     14      1      2     11 
    79     79     19      4      3     18 
    80     80     19      4      3     17 
    81     81     24      7      8     12 
    82     82      9     10     11      2 
    83     83     28      9      8      7 
    84     84     17      3      4      5 
    85     85     19      4     12      8 
    86     86     10     11      2      3 
    87     87     12      8      9     10 
    88     88     27      9      8     26 
    89     89     28      9      8     26 
    90     90     26      8     12     11 
    91     91     11      2      3      4 
    92     92     15      1      2      3 
    93     93     12      4      3      2 
    94     94     32     12     11     10 
    95     95     32     12      8      9 
    96     96     18      3      2     16 
    97     97     27      9     10     11 
    98     98     32     12     11      2 
    99     99     26      8      7      6 
   100    100     16      2     11     10 
   101    101     18      3      2     11 
   102    102     11     12      4      5 
   103    103     31     11     10     29 
   104    104     22      6      5     20 
   105    105     32     12      4      5 
   106    106     21      5      6      7 
   107    107     12     11      2      1 
   108    108     16      2      1     13 
   109    109      4     12     11      2 
   110    110     31     11     10      9 
   111    111     23      6      5     20 
   112    112      9      8     12      4 
   113    113     31     11     12      8 
   114    114     30     10      9      8 
   115    115     17      3      2      1 
   116    116     18      3      4     12 
   117    117     14      1      2      3 
   118    118     20      5      4     12 
   119    119     19      4     12     11 
   120    120     29     10      9     28 
   121    121     30     10      9     27 
   122    122     16      2      1     15 
   123    123     25      7      8      9 
   124    124     32     12     11     31 
   125    125     28      9     10     11 
   126    126     15      1      2     11 

Impropers

     1      1      2      1     11      3 
     2      2      4      3     12      5 
     3      3      1      2     13     14 
     4      4      1      2     13     15 
     5      5      2      1      3     16 
     6      6      3     17      2      4 
     7      7      3     18      4      2 
     8      8      4     19      5      3 
     9      9      5      4     20      6 
    10     10      5      4     21      6 
    11     11      6      5     22      7 
    12     12      6      7      5     23 
    13     13      7      8      6     24 
    14     14      7     25      6      8 
    15     15      8      9     26      7 
    16     16      9     10     27      8 
    17     17      9     10     28      8 
    18     18     10      9     11     29 
    19     19     10      9     11     30 
    20     20     11      2     31     10 
    21     21     12      4      8     32 

