LAMMPS data file Created by LigParGen - (Written by Leela S. Dodda)

      37 atoms
      37 bonds
      70 angles
     102 dihedrals
      22 impropers
 
      37 atom types
      37 bond types
      70 angle types
     102 dihedral types
      22 improper types
 
   -3.052560    46.947440 xlo xhi
    0.001380    50.001380 ylo yhi
   -4.441640    45.558360 zlo zhi

Masses

       1     12.011  
       2     12.011  
       3     12.011  
       4     12.011  
       5     15.999  
       6     12.011  
       7     15.999  
       8     15.999  
       9     12.011  
      10     12.011  
      11     12.011  
      12     12.011  
      13     12.011  
      14     12.011  
      15     12.011  
      16     15.999  
      17     12.011  
      18      1.008  
      19      1.008  
      20      1.008  
      21      1.008  
      22      1.008  
      23      1.008  
      24      1.008  
      25      1.008  
      26      1.008  
      27      1.008  
      28      1.008  
      29      1.008  
      30      1.008  
      31      1.008  
      32      1.008  
      33      1.008  
      34      1.008  
      35      1.008  
      36      1.008  
      37      1.008  

Pair Coeffs 

       1      0.066  3.5000000 
       2      0.066  3.5000000 
       3      0.066  3.5000000 
       4      0.070  3.5500000 
       5      0.210  2.9600000 
       6      0.070  3.5500000 
       7      0.210  2.9600000 
       8      0.140  2.9000000 
       9      0.066  3.5000000 
      10      0.066  3.5000000 
      11      0.066  3.5000000 
      12      0.066  3.5000000 
      13      0.066  3.5000000 
      14      0.066  3.5000000 
      15      0.070  3.5500000 
      16      0.210  2.9600000 
      17      0.066  3.5000000 
      18      0.030  2.5000000 
      19      0.030  2.5000000 
      20      0.030  2.5000000 
      21      0.030  2.5000000 
      22      0.030  2.5000000 
      23      0.030  2.5000000 
      24      0.030  2.5000000 
      25      0.030  2.5000000 
      26      0.030  2.5000000 
      27      0.030  2.5000000 
      28      0.030  2.5000000 
      29      0.030  2.5000000 
      30      0.030  2.5000000 
      31      0.030  2.5000000 
      32      0.030  2.5000000 
      33      0.030  2.5000000 
      34      0.030  2.5000000 
      35      0.030  2.5000000 
      36      0.030  2.5000000 
      37      0.030  2.5000000 

Bond Coeffs 

       1   268.0000     1.5290 
       2   268.0000     1.5290 
       3   317.0000     1.5220 
       4   570.0000     1.2290 
       5   350.0000     1.5100 
       6   570.0000     1.2290 
       7   214.0000     1.3270 
       8   320.0000     1.4100 
       9   268.0000     1.5290 
      10   268.0000     1.5290 
      11   268.0000     1.5290 
      12   268.0000     1.5290 
      13   268.0000     1.5290 
      14   317.0000     1.5220 
      15   570.0000     1.2290 
      16   268.0000     1.5290 
      17   340.0000     1.0900 
      18   340.0000     1.0900 
      19   340.0000     1.0900 
      20   340.0000     1.0900 
      21   340.0000     1.0900 
      22   340.0000     1.0900 
      23   340.0000     1.0900 
      24   340.0000     1.0900 
      25   340.0000     1.0900 
      26   340.0000     1.0900 
      27   340.0000     1.0900 
      28   340.0000     1.0900 
      29   340.0000     1.0900 
      30   340.0000     1.0900 
      31   340.0000     1.0900 
      32   340.0000     1.0900 
      33   340.0000     1.0900 
      34   340.0000     1.0900 
      35   340.0000     1.0900 
      36   340.0000     1.0900 
      37   268.0000     1.5290 

Angle Coeffs 

       1     58.350    112.700
       2     63.000    111.100
       3     80.000    120.400
       4     80.000    117.200
       5     80.000    121.400
       6     69.900    118.180
       7     83.000    116.900
       8     50.000    109.500
       9     58.350    112.700
      10     58.350    112.700
      11     58.350    112.700
      12     58.350    112.700
      13     63.000    111.100
      14     80.000    120.400
      15     58.350    112.700
      16     37.500    110.700
      17     37.500    110.700
      18     37.500    110.700
      19     37.500    110.700
      20     37.500    110.700
      21     37.500    110.700
      22     35.000    109.500
      23     35.000    109.500
      24     37.500    110.700
      25     37.500    110.700
      26     37.500    110.700
      27     37.500    110.700
      28     37.500    110.700
      29     37.500    110.700
      30     37.500    110.700
      31     37.500    110.700
      32     37.500    110.700
      33     35.000    115.000
      34     37.500    110.700
      35     37.500    110.700
      36     80.000    121.400
      37     33.000    107.800
      38     58.350    112.700
      39     33.000    107.800
      40     58.350    112.700
      41     37.500    110.700
      42     58.350    112.700
      43     35.000    109.500
      44     58.350    112.700
      45     37.500    110.700
      46     63.000    111.100
      47     37.500    110.700
      48     35.000    109.500
      49     33.000    107.800
      50     33.000    107.800
      51     33.000    107.800
      52     33.000    107.800
      53     37.500    110.700
      54     33.000    107.800
      55     33.000    107.800
      56     63.000    111.100
      57     37.500    110.700
      58     83.000    123.400
      59     33.000    107.800
      60     37.500    110.700
      61     33.000    107.800
      62     37.500    110.700
      63     58.350    112.700
      64     33.000    107.800
      65     35.000    123.000
      66     37.500    110.700
      67     33.000    107.800
      68     37.500    110.700
      69     37.500    110.700
      70     33.000    107.800

Dihedral Coeffs  

       1     -2.060     -0.313      0.315      0.000 
       2      0.000      0.000      0.000      0.000 
       3      0.000      0.500      0.000      0.000 
       4      4.669      5.124      0.000      0.000 
       5     -1.220     -0.126      0.422      0.000 
       6      1.711     -0.500      0.663      0.000 
       7      1.300     -0.200      0.200      0.000 
       8      1.300     -0.200      0.200      0.000 
       9      0.000      0.000      0.000      0.000 
      10      0.000      0.000      0.300      0.000 
      11      0.000      0.000      0.300      0.000 
      12      0.000      0.000      0.300      0.000 
      13      0.000      0.000      0.300      0.000 
      14      0.000      0.000     -0.100      0.000 
      15      0.000      0.000      0.300      0.000 
      16      0.000      0.000      0.300      0.000 
      17      0.000      0.000      0.000      0.000 
      18      0.000      0.000      0.300      0.000 
      19      1.300     -0.200      0.200      0.000 
      20      0.000      0.000      0.300      0.000 
      21      1.600      3.200      0.000      0.000 
      22      0.000      0.000      0.300      0.000 
      23      0.000      0.000      0.300      0.000 
      24      0.000      0.000     -0.100      0.000 
      25      0.000      0.000      0.300      0.000 
      26      1.300     -0.200      0.200      0.000 
      27      0.000      0.000      0.300      0.000 
      28      0.000      0.000      0.085      0.000 
      29      0.000      0.000      0.000      0.000 
      30      0.000      0.000      0.085      0.000 
      31      0.000      0.000      0.300      0.000 
      32      0.000      0.000      0.300      0.000 
      33      0.000      0.000      0.300      0.000 
      34     -2.060     -0.313      0.315      0.000 
      35      0.000      0.000      0.300      0.000 
      36      1.300     -0.200      0.200      0.000 
      37      0.000      0.000      0.300      0.000 
      38      0.000      5.124      0.000      0.000 
      39      0.000      0.000     -0.100      0.000 
      40      0.000      0.000      0.300      0.000 
      41      0.000      0.000      0.300      0.000 
      42      0.000      0.000      0.000      0.000 
      43      1.300     -0.200      0.200      0.000 
      44      0.000      0.000      0.000      0.000 
      45      0.000      0.000      0.300      0.000 
      46      0.000      0.000     -0.100      0.000 
      47      0.000      0.000      0.300      0.000 
      48      0.000      0.000      0.300      0.000 
      49      0.000      0.000      0.300      0.000 
      50      0.000      0.000      0.300      0.000 
      51      0.000      0.000      0.198      0.000 
      52     -2.060     -0.313      0.315      0.000 
      53      0.000      0.000      0.300      0.000 
      54      0.000      0.000      0.300      0.000 
      55      0.000      0.000      0.300      0.000 
      56      1.300     -0.200      0.200      0.000 
      57      0.000      0.000      0.300      0.000 
      58      0.000      0.000      0.300      0.000 
      59      0.000      0.000      0.300      0.000 
      60      0.000      0.000      0.300      0.000 
      61      0.000      0.000      0.198      0.000 
      62      0.000      0.000      0.300      0.000 
      63      0.000      0.000      0.000      0.000 
      64      0.000      0.000      0.300      0.000 
      65      0.000      0.000      0.300      0.000 
      66      0.000      0.000      0.300      0.000 
      67      0.000      0.000      0.300      0.000 
      68      0.000      0.000      0.300      0.000 
      69      0.000      0.000      0.468      0.000 
      70      0.000      0.000      0.300      0.000 
      71      0.000      0.000      0.300      0.000 
      72      0.000      0.000      0.300      0.000 
      73      0.000      0.000      0.300      0.000 
      74      0.000      0.000     -0.100      0.000 
      75      0.000      0.000      0.300      0.000 
      76      0.000      0.000      0.300      0.000 
      77      0.000      0.000      0.468      0.000 
      78      1.300     -0.200      0.200      0.000 
      79      0.000      0.000     -0.100      0.000 
      80      0.000      0.000      0.300      0.000 
      81      0.000      0.000      0.300      0.000 
      82      0.000      0.000      0.300      0.000 
      83      0.000      0.500      0.000      0.000 
      84      0.000      0.000      0.300      0.000 
      85      0.000      0.000      0.300      0.000 
      86      0.000      0.000      0.300      0.000 
      87      0.000      0.000      0.000      0.000 
      88      0.000      0.000      0.300      0.000 
      89      0.000      0.000     -0.100      0.000 
      90      0.000      0.000      0.300      0.000 
      91      1.300     -0.200      0.200      0.000 
      92      0.000      0.000      0.300      0.000 
      93      0.000      0.000      0.300      0.000 
      94      0.000      0.000      0.000      0.000 
      95      0.000      0.000      0.000      0.000 
      96      0.000      0.000      0.300      0.000 
      97     -2.060     -0.313      0.315      0.000 
      98      0.000      0.000      0.300      0.000 
      99      0.000      0.000     -0.100      0.000 
     100      1.300     -0.200      0.200      0.000 
     101      1.600      3.200      0.000      0.000 
     102      0.000      0.000      0.300      0.000 

Improper Coeffs 

       1     10.500      -1       2 
       2     10.500      -1       2 
       3      0.000      -1       2 
       4      0.000      -1       2 
       5      0.000      -1       2 
       6      0.000      -1       2 
       7      0.000      -1       2 
       8      0.000      -1       2 
       9      0.000      -1       2 
      10      0.000      -1       2 
      11      0.000      -1       2 
      12      0.000      -1       2 
      13      0.000      -1       2 
      14      0.000      -1       2 
      15      0.000      -1       2 
      16      0.000      -1       2 
      17      0.000      -1       2 
      18      0.000      -1       2 
      19      0.000      -1       2 
      20     10.500      -1       2 
      21      0.000      -1       2 
      22      0.000      -1       2 

Atoms 

     1      1      1 -0.24280000    1.000  1.00000  0.00000
     2      1      2 -0.09700000   -0.527  1.00000  0.00000
     3      1      3 -0.22970000   -1.104  1.00000  1.42814
     4      1      4 0.32930000   -1.275  2.36144  2.05181
     5      1      5 -0.41280000   -2.367  2.87825  2.26308
     6      1      6 0.43470000   -0.001  3.10288  2.42728
     7      1      7 -0.38720000    0.694  2.66481  3.33265
     8      1      8 -0.35360000    0.317  4.18132  1.69587
     9      1      9 0.02880000   -0.410  4.57526  0.51485
    10      1     10 -0.21350000    0.312  4.05439 -0.72795
    11      1     11 -0.08330000   -0.480  3.10090 -1.66709
    12      1     12 -0.11930000   -1.382  3.89800 -2.70208
    13      1     13 -0.23370000   -2.171  2.96206 -3.63956
    14      1     14 -0.23580000   -2.380  4.85291 -2.02831
    15      1     15 0.31630000   -0.505  4.73302 -3.64290
    16      1     16 -0.43940000    0.652  4.45049 -3.94019
    17      1     17 -0.17750000   -1.258  1.98899 -0.95152
    18      1     18 0.09360000    1.371  0.07174  0.45151
    19      1     19 0.09360000    1.428  1.81335  0.58833
    20      1     20 0.09360000    1.403  1.04440 -1.01536
    21      1     21 0.09980000   -0.782  0.00138 -0.38691
    22      1     22 0.13420000   -0.504  0.37605  2.10054
    23      1     23 0.13420000   -2.102  0.54252  1.39984
    24      1     24 0.12220000   -0.380  5.67069  0.50662
    25      1     25 0.12220000   -1.465  4.30689  0.55885
    26      1     26 0.11930000    1.251  3.57414 -0.43880
    27      1     27 0.11930000    0.641  4.92678 -1.30485
    28      1     28 0.12270000    0.282  2.59426 -2.27815
    29      1     29 0.09500000   -2.958  2.41803 -3.10808
    30      1     30 0.09500000   -1.507  2.23457 -4.12048
    31      1     31 0.09500000   -2.662  3.52778 -4.44164
    32      1     32 0.09110000   -3.053  4.32198 -1.34726
    33      1     33 0.09110000   -3.007  5.35814 -2.77364
    34      1     34 0.09110000   -1.872  5.64638 -1.47313
    35      1     35 0.11340000   -1.003  5.59587 -4.12100
    36      1     36 0.09510000   -1.684  1.34384 -1.73145
    37      1     37 0.09510000   -2.138  2.40749 -0.45122

Bonds 

     1      1      2      1
     2      2      3      2
     3      3      4      3
     4      4      5      4
     5      5      6      4
     6      6      7      6
     7      7      8      6
     8      8      9      8
     9      9     10      9
    10     10     11     10
    11     11     12     11
    12     12     13     12
    13     13     14     12
    14     14     15     12
    15     15     16     15
    16     16     17      2
    17     17     18      1
    18     18     19      1
    19     19     20      1
    20     20     21      2
    21     21     22      3
    22     22     23      3
    23     23     24      9
    24     24     25      9
    25     25     26     10
    26     26     27     10
    27     27     28     11
    28     28     29     13
    29     29     30     13
    30     30     31     13
    31     31     32     14
    32     32     33     14
    33     33     34     14
    34     34     35     15
    35     35     36     17
    36     36     37     17
    37     37     17     11

Angles 

     1      1      1      2      3
     2      2      2      3      4
     3      3      3      4      5
     4      4      3      4      6
     5      5      4      6      7
     6      6      4      6      8
     7      7      6      8      9
     8      8      8      9     10
     9      9      9     10     11
    10     10     10     11     12
    11     11     11     12     13
    12     12     11     12     14
    13     13     11     12     15
    14     14     12     15     16
    15     15      1      2     17
    16     16      2      1     18
    17     17      2      1     19
    18     18      2      1     20
    19     19      1      2     21
    20     20      2      3     22
    21     21      2      3     23
    22     22      8      9     24
    23     23      8      9     25
    24     24      9     10     26
    25     25      9     10     27
    26     26     10     11     28
    27     27     12     13     29
    28     28     12     13     30
    29     29     12     13     31
    30     30     12     14     32
    31     31     12     14     33
    32     32     12     14     34
    33     33     12     15     35
    34     34      2     17     36
    35     35      2     17     37
    36     36      5      4      6
    37     37     32     14     34
    38     38     13     12     14
    39     39     19      1     20
    40     40      2     17     11
    41     41     17      2     21
    42     42      3      2     17
    43     43      4      3     22
    44     44     10     11     17
    45     45     11     17     36
    46     46     13     12     15
    47     47     11     10     27
    48     48      4      3     23
    49     49     22      3     23
    50     50     36     17     37
    51     51     18      1     19
    52     52     30     13     31
    53     53     17     11     28
    54     54     33     14     34
    55     55     24      9     25
    56     56     14     12     15
    57     57     10      9     25
    58     58      7      6      8
    59     59     29     13     30
    60     60     11     10     26
    61     61     18      1     20
    62     62     10      9     24
    63     63     12     11     17
    64     64     32     14     33
    65     65     16     15     35
    66     66     12     11     28
    67     67     29     13     31
    68     68      3      2     21
    69     69     11     17     37
    70     70     26     10     27

Dihedrals

     1      1      4      3      2      1 
     2      2      5      4      3      2 
     3      3      7      6      4      3 
     4      4      9      8      6      4 
     5      5     10      9      8      6 
     6      6     11     10      9      8 
     7      7     12     11     10      9 
     8      8     13     12     11     10 
     9      9     16     15     12     11 
    10     10     18      1      2      3 
    11     11     29     13     12     11 
    12     12     32     14     12     11 
    13     13     29     13     12     14 
    14     14     33     14     12     15 
    15     15     33     14     12     13 
    16     16     26     10     11     17 
    17     17     16     15     12     14 
    18     18     28     11     12     13 
    19     19     17     11     10      9 
    20     20     26     10     11     12 
    21     21      8      6      4      5 
    22     22     19      1      2      3 
    23     23     22      3      2     17 
    24     24     32     14     12     15 
    25     25     34     14     12     13 
    26     26     17     11     12     13 
    27     27     28     11     17      2 
    28     28     22      3      4      6 
    29     29     23      3      4      5 
    30     30     23      3      4      6 
    31     31     26     10      9     25 
    32     32     27     10      9     24 
    33     33     36     17     11     28 
    34     34     17      2      3      4 
    35     35     27     10     11     12 
    36     36     14     12     11     10 
    37     37     37     17     11     10 
    38     38      9      8      6      7 
    39     39     29     13     12     15 
    40     40     37     17     11     28 
    41     41     25      9     10     11 
    42     42     35     15     12     14 
    43     43     11     17      2      1 
    44     44      6      4      3      2 
    45     45     28     11     10     27 
    46     46     28     11     12     15 
    47     47     21      2      1     20 
    48     48     21      2      1     18 
    49     49     30     13     12     14 
    50     50     37     17     11     12 
    51     51     25      9      8      6 
    52     52     15     12     11     10 
    53     53     36     17      2      3 
    54     54     33     14     12     11 
    55     55     23      3      2     21 
    56     56     17     11     12     14 
    57     57     31     13     12     11 
    58     58     36     17      2     21 
    59     59     28     11     10     26 
    60     60     36     17     11     12 
    61     61     24      9      8      6 
    62     62     18      1      2     17 
    63     63     35     15     12     11 
    64     64     27     10      9     25 
    65     65     37     17      2      1 
    66     66     23      3      2     17 
    67     67     20      1      2     17 
    68     68     36     17      2      1 
    69     69     27     10      9      8 
    70     70     24      9     10     11 
    71     71     27     10     11     17 
    72     72     28     11     10      9 
    73     73     36     17     11     10 
    74     74     31     13     12     15 
    75     75     22      3      2     21 
    76     76     23      3      2      1 
    77     77     26     10      9      8 
    78     78     10     11     17      2 
    79     79     21      2      3      4 
    80     80     37     17      2     21 
    81     81     32     14     12     13 
    82     82     34     14     12     11 
    83     83      8      6      4      3 
    84     84     30     13     12     11 
    85     85     20      1      2      3 
    86     86     22      3      2      1 
    87     87     16     15     12     13 
    88     88     26     10      9     24 
    89     89     34     14     12     15 
    90     90     28     11     12     14 
    91     91     12     11     17      2 
    92     92     21      2      1     19 
    93     93     19      1      2     17 
    94     94     35     15     12     13 
    95     95     22      3      4      5 
    96     96     21      2     17     11 
    97     97     17     11     12     15 
    98     98     31     13     12     14 
    99     99     30     13     12     15 
   100    100     11     17      2      3 
   101    101      7      6      4      5 
   102    102     37     17      2      3 

Impropers

     1      1      4      3      5      6 
     2      2      6      4      7      8 
     3      3     12     11     13     14 
     4      4     12     11     13     15 
     5      5      2     17      3      1 
     6      6      1      2     19     18 
     7      7      1      2     20     18 
     8      8      2      1      3     21 
     9      9      3      2      4     22 
    10     10      3      2      4     23 
    11     11      9     10      8     24 
    12     12      9     25     10      8 
    13     13     10      9     26     11 
    14     14     10      9     27     11 
    15     15     11     12     10     28 
    16     16     13     29     12     30 
    17     17     13     29     12     31 
    18     18     14     33     12     32 
    19     19     14     34     12     32 
    20     20     15     35     12     16 
    21     21     17      2     11     36 
    22     22     17      2     11     37 

