LAMMPS data file Created by LigParGen - (Written by Leela S. Dodda)

      40 atoms
      39 bonds
      73 angles
      95 dihedrals
      24 impropers
 
      40 atom types
      39 bond types
      73 angle types
      95 dihedral types
      24 improper types
 
   -4.289650    45.710350 xlo xhi
    0.098580    50.098580 ylo yhi
   -2.847520    47.152480 zlo zhi

Masses

       1     12.011  
       2     12.011  
       3     12.011  
       4     12.011  
       5     12.011  
       6     12.011  
       7     12.011  
       8     15.999  
       9     15.999  
      10     12.011  
      11     12.011  
      12     12.011  
      13     12.011  
      14     15.999  
      15     12.011  
      16     12.011  
      17      1.008  
      18      1.008  
      19      1.008  
      20      1.008  
      21      1.008  
      22      1.008  
      23      1.008  
      24      1.008  
      25      1.008  
      26      1.008  
      27      1.008  
      28      1.008  
      29      1.008  
      30      1.008  
      31      1.008  
      32      1.008  
      33      1.008  
      34      1.008  
      35      1.008  
      36      1.008  
      37      1.008  
      38      1.008  
      39      1.008  
      40      1.008  

Pair Coeffs 

       1      0.066  3.5000000 
       2      0.066  3.5000000 
       3      0.066  3.5000000 
       4      0.066  3.5000000 
       5      0.066  3.5000000 
       6      0.066  3.5000000 
       7      0.070  3.5500000 
       8      0.210  2.9600000 
       9      0.140  2.9000000 
      10      0.066  3.5000000 
      11      0.066  3.5000000 
      12      0.066  3.5000000 
      13      0.070  3.5500000 
      14      0.210  2.9600000 
      15      0.066  3.5000000 
      16      0.066  3.5000000 
      17      0.030  2.5000000 
      18      0.030  2.5000000 
      19      0.030  2.5000000 
      20      0.030  2.5000000 
      21      0.030  2.5000000 
      22      0.030  2.5000000 
      23      0.030  2.5000000 
      24      0.030  2.5000000 
      25      0.030  2.5000000 
      26      0.030  2.5000000 
      27      0.030  2.5000000 
      28      0.030  2.5000000 
      29      0.030  2.5000000 
      30      0.030  2.5000000 
      31      0.030  2.5000000 
      32      0.030  2.5000000 
      33      0.030  2.5000000 
      34      0.030  2.5000000 
      35      0.030  2.5000000 
      36      0.030  2.5000000 
      37      0.030  2.5000000 
      38      0.030  2.5000000 
      39      0.030  2.5000000 
      40      0.030  2.5000000 

Bond Coeffs 

       1   268.0000     1.5290 
       2   268.0000     1.5290 
       3   268.0000     1.5290 
       4   268.0000     1.5290 
       5   268.0000     1.5290 
       6   317.0000     1.5220 
       7   570.0000     1.2290 
       8   214.0000     1.3270 
       9   320.0000     1.4100 
      10   268.0000     1.5290 
      11   268.0000     1.5290 
      12   317.0000     1.5220 
      13   570.0000     1.2290 
      14   317.0000     1.5220 
      15   268.0000     1.5290 
      16   340.0000     1.0900 
      17   340.0000     1.0900 
      18   340.0000     1.0900 
      19   340.0000     1.0900 
      20   340.0000     1.0900 
      21   340.0000     1.0900 
      22   340.0000     1.0900 
      23   340.0000     1.0900 
      24   340.0000     1.0900 
      25   340.0000     1.0900 
      26   340.0000     1.0900 
      27   340.0000     1.0900 
      28   340.0000     1.0900 
      29   340.0000     1.0900 
      30   340.0000     1.0900 
      31   340.0000     1.0900 
      32   340.0000     1.0900 
      33   340.0000     1.0900 
      34   340.0000     1.0900 
      35   340.0000     1.0900 
      36   340.0000     1.0900 
      37   340.0000     1.0900 
      38   340.0000     1.0900 
      39   340.0000     1.0900 

Angle Coeffs 

       1     58.350    112.700
       2     58.350    112.700
       3     58.350    112.700
       4     58.350    112.700
       5     63.000    111.100
       6     80.000    120.400
       7     81.000    111.400
       8     83.000    116.900
       9     50.000    109.500
      10     58.350    112.700
      11     50.000    109.500
      12     80.000    120.400
      13     70.000    116.000
      14     63.000    111.100
      15     37.500    110.700
      16     37.500    110.700
      17     37.500    110.700
      18     37.500    110.700
      19     37.500    110.700
      20     37.500    110.700
      21     37.500    110.700
      22     37.500    110.700
      23     37.500    110.700
      24     37.500    110.700
      25     37.500    110.700
      26     37.500    110.700
      27     37.500    110.700
      28     35.000    109.500
      29     37.500    110.700
      30     37.500    110.700
      31     37.500    110.700
      32     37.500    110.700
      33     37.500    110.700
      34     35.000    109.500
      35     35.000    109.500
      36     37.500    110.700
      37     37.500    110.700
      38     37.500    110.700
      39     33.000    107.800
      40     37.500    110.700
      41     33.000    107.800
      42     37.500    110.700
      43     33.000    107.800
      44     37.500    110.700
      45     33.000    107.800
      46     33.000    107.800
      47     37.500    110.700
      48     35.000    109.500
      49     37.500    110.700
      50     33.000    107.800
      51     37.500    110.700
      52     35.000    109.500
      53     83.000    123.400
      54     33.000    107.800
      55     37.500    110.700
      56     37.500    110.700
      57     80.000    120.400
      58     37.500    110.700
      59     63.000    111.100
      60     33.000    107.800
      61     33.000    107.800
      62     35.000    109.500
      63     37.500    110.700
      64     33.000    107.800
      65     33.000    107.800
      66     37.500    110.700
      67     33.000    107.800
      68     33.000    107.800
      69     33.000    107.800
      70     37.500    110.700
      71     33.000    107.800
      72     33.000    107.800
      73     37.500    110.700

Dihedral Coeffs  

       1      1.300     -0.200      0.200      0.000 
       2      1.300     -0.200      0.200      0.000 
       3      1.300     -0.200      0.200      0.000 
       4     -2.060     -0.313      0.315      0.000 
       5      0.000      0.000      0.000      0.000 
       6      4.669      5.124      0.000      0.000 
       7     -1.220     -0.126      0.422      0.000 
       8      1.711     -0.500      0.663      0.000 
       9      0.000      0.000      0.000      0.000 
      10      1.454     -0.144     -0.775      0.000 
      11      0.000      0.000      0.300      0.000 
      12      0.000      0.000      0.300      0.000 
      13      0.000      0.000     -0.100      0.000 
      14      0.000      0.000      0.000      0.000 
      15      0.000      0.000      0.000      0.000 
      16      0.000      0.000      0.300      0.000 
      17      0.000      0.000      0.300      0.000 
      18      0.000      0.000      0.300      0.000 
      19      0.000      0.000      0.300      0.000 
      20      0.000      0.000      0.300      0.000 
      21      0.000      0.000     -0.100      0.000 
      22      0.000      0.000     -0.553      0.000 
      23      0.000      0.000      0.300      0.000 
      24      0.000      0.000      0.300      0.000 
      25      0.000      0.000      0.300      0.000 
      26      0.000      0.000      0.300      0.000 
      27      0.000      0.000      0.300      0.000 
      28      0.000      0.000      0.300      0.000 
      29      0.000      0.000      0.000      0.000 
      30      0.000      5.124      0.000      0.000 
      31      0.000      0.000      0.300      0.000 
      32      0.000      0.000      0.000      0.000 
      33      0.000      0.000     -0.100      0.000 
      34      0.000      0.000      0.000      0.000 
      35      0.000      0.000      0.300      0.000 
      36      0.000      0.000     -0.100      0.000 
      37      0.000      0.000      0.300      0.000 
      38      0.000      0.000      0.300      0.000 
      39      0.000      0.000      0.132      0.000 
      40      0.000      0.000      0.468      0.000 
      41      0.000      0.000      0.275      0.000 
      42      0.000      0.000      0.198      0.000 
      43      0.000      0.000      0.300      0.000 
      44      0.000      0.000      0.300      0.000 
      45      0.000      0.000      0.300      0.000 
      46      0.000      0.000      0.300      0.000 
      47      0.000      0.000      0.300      0.000 
      48      0.000      0.000      0.300      0.000 
      49      0.000      0.000      0.300      0.000 
      50      0.000      0.000      0.300      0.000 
      51      0.000      0.000      0.300      0.000 
      52      0.000      0.000      0.300      0.000 
      53      0.000      0.000      0.275      0.000 
      54      0.000      0.000     -0.100      0.000 
      55      0.000      0.000      0.275      0.000 
      56      0.000      0.000     -0.100      0.000 
      57      0.000      0.000      0.300      0.000 
      58      0.000      0.000      0.300      0.000 
      59      0.000      0.000      0.300      0.000 
      60      0.000      0.000      0.300      0.000 
      61      0.000      0.000      0.300      0.000 
      62      0.000      0.000      0.300      0.000 
      63      0.000      0.000      0.300      0.000 
      64      1.454     -0.144     -0.775      0.000 
      65      0.000      0.000      0.132      0.000 
      66      0.000      0.000      0.000      0.000 
      67      0.000      0.000      0.300      0.000 
      68      0.000      0.000      0.468      0.000 
      69      0.000      0.000      0.300      0.000 
      70      0.000      0.000      0.300      0.000 
      71      0.000      0.000      0.000      0.000 
      72     -2.060     -0.313      0.315      0.000 
      73      0.000      0.000      0.300      0.000 
      74      0.000      0.000      0.300      0.000 
      75      0.000      0.000      0.300      0.000 
      76      0.000      0.000      0.300      0.000 
      77      0.000      0.000      0.300      0.000 
      78      0.000      0.000      0.300      0.000 
      79      1.711     -0.500      0.663      0.000 
      80      0.000      0.000      0.300      0.000 
      81      0.000      0.000      0.300      0.000 
      82      0.000      0.000      0.300      0.000 
      83      0.000      0.000      0.300      0.000 
      84     -1.220     -0.126      0.422      0.000 
      85      0.000      0.000      0.300      0.000 
      86      0.000      0.000      0.300      0.000 
      87      0.000      0.000      0.300      0.000 
      88      0.000      0.000      0.300      0.000 
      89      0.000      0.000      0.300      0.000 
      90      0.000      0.000      0.300      0.000 
      91      0.000      0.000      0.300      0.000 
      92      0.000      0.000      0.300      0.000 
      93      0.000      0.000      0.300      0.000 
      94      0.000      0.000      0.300      0.000 
      95      0.000      0.000     -0.100      0.000 

Improper Coeffs 

       1     10.500      -1       2 
       2      0.000      -1       2 
       3     10.500      -1       2 
       4      0.000      -1       2 
       5      0.000      -1       2 
       6      0.000      -1       2 
       7      0.000      -1       2 
       8      0.000      -1       2 
       9      0.000      -1       2 
      10      0.000      -1       2 
      11      0.000      -1       2 
      12      0.000      -1       2 
      13      0.000      -1       2 
      14      0.000      -1       2 
      15      0.000      -1       2 
      16      0.000      -1       2 
      17      0.000      -1       2 
      18      0.000      -1       2 
      19      0.000      -1       2 
      20      0.000      -1       2 
      21      0.000      -1       2 
      22      0.000      -1       2 
      23      0.000      -1       2 
      24      0.000      -1       2 

Atoms 

     1      1      1 -0.24080000    1.000  1.00000  0.00000
     2      1      2 -0.17290000   -0.520  1.00000  0.00000
     3      1      3 -0.18660000   -1.067  1.00000  1.42584
     4      1      4 -0.17980000   -2.593  1.06529  1.44112
     5      1      5 -0.16770000   -3.182  1.06898  2.85959
     6      1      6 -0.18730000   -2.766  2.26339  3.72226
     7      1      7 0.44320000   -3.143  3.55757  3.04462
     8      1      8 -0.45390000   -4.290  3.86610  2.74847
     9      1      9 -0.33470000   -2.031  4.25526  2.70310
    10      1     10 0.01540000   -2.194  5.22142  1.65184
    11      1     11 -0.18710000   -1.965  6.64030  2.17023
    12      1     12 -0.23990000   -2.977  7.05273  3.22817
    13      1     13 0.34430000   -1.128  4.88651  0.60005
    14      1     14 -0.41360000   -0.019  4.44784  0.91011
    15      1     15 -0.23200000   -1.520  5.12879 -0.84670
    16      1     16 -0.23330000   -0.409  4.76945 -1.81907
    17      1     17 0.08440000    1.381  1.00130 -1.02519
    18      1     18 0.08440000    1.389  0.11329  0.50946
    19      1     19 0.08440000    1.393  1.88824  0.50788
    20      1     20 0.08290000   -0.885  0.12264 -0.54444
    21      1     21 0.08290000   -0.882  1.88520 -0.53362
    22      1     22 0.09910000   -0.647  1.85932  1.96057
    23      1     23 0.09910000   -0.733  0.09858  1.94943
    24      1     24 0.08970000   -2.995  0.19842  0.90095
    25      1     25 0.08970000   -2.934  1.95248  0.89207
    26      1     26 0.10390000   -2.895  0.14232  3.37097
    27      1     27 0.10390000   -4.276  1.05467  2.77202
    28      1     28 0.13060000   -1.690  2.24116  3.92511
    29      1     29 0.13060000   -3.267  2.22811  4.69431
    30      1     30 0.14530000   -3.176  5.13856  1.17102
    31      1     31 0.10860000   -2.017  7.34783  1.33368
    32      1     32 0.10860000   -0.960  6.72534  2.60058
    33      1     33 0.09120000   -4.002  6.94183  2.85851
    34      1     34 0.09120000   -2.828  8.10308  3.49920
    35      1     35 0.09120000   -2.869  6.45191  4.13622
    36      1     36 0.12110000   -1.779  6.18550 -0.96045
    37      1     37 0.12110000   -2.404  4.52048 -1.06580
    38      1     38 0.09420000    0.496  5.35079 -1.61459
    39      1     39 0.09420000   -0.723  4.97054 -2.84752
    40      1     40 0.09420000   -0.145  3.71052 -1.74486

Bonds 

     1      1      2      1
     2      2      3      2
     3      3      4      3
     4      4      5      4
     5      5      6      5
     6      6      7      6
     7      7      8      7
     8      8      9      7
     9      9     10      9
    10     10     11     10
    11     11     12     11
    12     12     13     10
    13     13     14     13
    14     14     15     13
    15     15     16     15
    16     16     17      1
    17     17     18      1
    18     18     19      1
    19     19     20      2
    20     20     21      2
    21     21     22      3
    22     22     23      3
    23     23     24      4
    24     24     25      4
    25     25     26      5
    26     26     27      5
    27     27     28      6
    28     28     29      6
    29     29     30     10
    30     30     31     11
    31     31     32     11
    32     32     33     12
    33     33     34     12
    34     34     35     12
    35     35     36     15
    36     36     37     15
    37     37     38     16
    38     38     39     16
    39     39     40     16

Angles 

     1      1      1      2      3
     2      2      2      3      4
     3      3      3      4      5
     4      4      4      5      6
     5      5      5      6      7
     6      6      6      7      8
     7      7      6      7      9
     8      8      7      9     10
     9      9      9     10     11
    10     10     10     11     12
    11     11      9     10     13
    12     12     10     13     14
    13     13     10     13     15
    14     14     13     15     16
    15     15      2      1     17
    16     16      2      1     18
    17     17      2      1     19
    18     18      1      2     20
    19     19      1      2     21
    20     20      2      3     22
    21     21      2      3     23
    22     22      3      4     24
    23     23      3      4     25
    24     24      4      5     26
    25     25      4      5     27
    26     26      5      6     28
    27     27      5      6     29
    28     28      9     10     30
    29     29     10     11     31
    30     30     10     11     32
    31     31     11     12     33
    32     32     11     12     34
    33     33     11     12     35
    34     34     13     15     36
    35     35     13     15     37
    36     36     15     16     38
    37     37     15     16     39
    38     38     15     16     40
    39     39     17      1     19
    40     40      3      2     20
    41     41     36     15     37
    42     42     12     11     32
    43     43     38     16     40
    44     44      3      2     21
    45     45     28      6     29
    46     46     39     16     40
    47     47      5      4     24
    48     48     13     10     30
    49     49     12     11     31
    50     50     24      4     25
    51     51      4      3     22
    52     52      7      6     28
    53     53      8      7      9
    54     54     31     11     32
    55     55     16     15     36
    56     56      4      3     23
    57     57     14     13     15
    58     58      6      5     27
    59     59     11     10     13
    60     60     38     16     39
    61     61     26      5     27
    62     62      7      6     29
    63     63      5      4     25
    64     64     33     12     35
    65     65     34     12     35
    66     66      6      5     26
    67     67     20      2     21
    68     68     22      3     23
    69     69     17      1     18
    70     70     16     15     37
    71     71     18      1     19
    72     72     33     12     34
    73     73     11     10     30

Dihedrals

     1      1      4      3      2      1 
     2      2      5      4      3      2 
     3      3      6      5      4      3 
     4      4      7      6      5      4 
     5      5      8      7      6      5 
     6      6     10      9      7      6 
     7      7     11     10      9      7 
     8      8     12     11     10      9 
     9      9     14     13     10      9 
    10     10     16     15     13     10 
    11     11     17      1      2      3 
    12     12     33     12     11     10 
    13     13     38     16     15     13 
    14     14     14     13     10     11 
    15     15     28      6      7      8 
    16     16     24      4      3     23 
    17     17     25      4      3     22 
    18     18     39     16     15     37 
    19     19     40     16     15     36 
    20     20     21      2      1     17 
    21     21     39     16     15     13 
    22     22      9      7      6      5 
    23     23     19      1      2      3 
    24     24     23      3      2     20 
    25     25     22      3      2     21 
    26     26     28      6      5      4 
    27     27     25      4      5      6 
    28     28     23      3      4      5 
    29     29     16     15     13     14 
    30     30     10      9      7      8 
    31     31     30     10     11     12 
    32     32     30     10     13     14 
    33     33     31     11     10     13 
    34     34     37     15     13     14 
    35     35     26      5      4     24 
    36     36     40     16     15     13 
    37     37     35     12     11     31 
    38     38     32     11     10     30 
    39     39     29      6      7      9 
    40     40     32     11     10      9 
    41     41     36     15     13     10 
    42     42     30     10      9      7 
    43     43     20      2      1     19 
    44     44     21      2      1     18 
    45     45     39     16     15     36 
    46     46     38     16     15     37 
    47     47     24      4      3     22 
    48     48     27      5      4     25 
    49     49     34     12     11     32 
    50     50     26      5      4      3 
    51     51     38     16     15     36 
    52     52     18      1      2      3 
    53     53     37     15     13     10 
    54     54     27      5      6      7 
    55     55     30     10     13     15 
    56     56     32     11     10     13 
    57     57     20      2      1     18 
    58     58     31     11     10     30 
    59     59     34     12     11     10 
    60     60     34     12     11     31 
    61     61     33     12     11     32 
    62     62     20      2      1     17 
    63     63     22      3      2     20 
    64     64     15     13     10     11 
    65     65     28      6      7      9 
    66     66     29      6      7      8 
    67     67     24      4      3      2 
    68     68     31     11     10      9 
    69     69     24      4      5      6 
    70     70     25      4      3     23 
    71     71     36     15     13     14 
    72     72     13     10     11     12 
    73     73     29      6      5     27 
    74     74     23      3      2      1 
    75     75     20      2      3      4 
    76     76     23      3      2     21 
    77     77     21      2      3      4 
    78     78     28      6      5     26 
    79     79     15     13     10      9 
    80     80     40     16     15     37 
    81     81     29      6      5      4 
    82     82     22      3      2      1 
    83     83     33     12     11     31 
    84     84     13     10      9      7 
    85     85     27      5      4      3 
    86     86     21      2      1     19 
    87     87     29      6      5     26 
    88     88     28      6      5     27 
    89     89     35     12     11     10 
    90     90     25      4      3      2 
    91     91     22      3      4      5 
    92     92     35     12     11     32 
    93     93     26      5      4     25 
    94     94     27      5      4     24 
    95     95     26      5      6      7 

Impropers

     1      1      7      9      6      8 
     2      2     10      9     11     13 
     3      3     13     10     14     15 
     4      4      1     18     17      2 
     5      5      1      2     19     17 
     6      6      2      1      3     20 
     7      7      2      1      3     21 
     8      8      3      2      4     22 
     9      9      3      2      4     23 
    10     10      4      3      5     24 
    11     11      4     25      3      5 
    12     12      5     26      4      6 
    13     13      5     27      4      6 
    14     14      6     28      5      7 
    15     15      6      5     29      7 
    16     16     10      9     11     30 
    17     17     11     10     12     31 
    18     18     11     10     12     32 
    19     19     12     33     34     11 
    20     20     12     33     35     11 
    21     21     15     36     13     16 
    22     22     15     13     37     16 
    23     23     16     38     15     39 
    24     24     16     38     15     40 

