LAMMPS data file Created by LigParGen - (Written by Leela S. Dodda)

      34 atoms
      35 bonds
      72 angles
     108 dihedrals
      26 impropers
 
      34 atom types
      35 bond types
      72 angle types
     108 dihedral types
      26 improper types
 
   -5.104690    44.895310 xlo xhi
   -3.720730    46.279270 ylo yhi
   -1.036120    48.963880 zlo zhi

Masses

       1     12.011  
       2     12.011  
       3     12.011  
       4     12.011  
       5     12.011  
       6     12.011  
       7     12.011  
       8     12.011  
       9     12.011  
      10     12.011  
      11     12.011  
      12     12.011  
      13      1.008  
      14      1.008  
      15      1.008  
      16      1.008  
      17      1.008  
      18      1.008  
      19      1.008  
      20      1.008  
      21      1.008  
      22      1.008  
      23      1.008  
      24      1.008  
      25      1.008  
      26      1.008  
      27      1.008  
      28      1.008  
      29      1.008  
      30      1.008  
      31      1.008  
      32      1.008  
      33      1.008  
      34      1.008  

Pair Coeffs 

       1      0.066  3.5000000 
       2      0.066  3.5000000 
       3      0.066  3.5000000 
       4      0.066  3.5000000 
       5      0.066  3.5000000 
       6      0.066  3.5000000 
       7      0.083  3.4500000 
       8      0.066  3.5000000 
       9      0.066  3.5000000 
      10      0.083  3.4500000 
      11      0.083  3.4500000 
      12      0.066  3.5000000 
      13      0.030  2.5000000 
      14      0.030  2.5000000 
      15      0.030  2.5000000 
      16      0.030  2.5000000 
      17      0.030  2.5000000 
      18      0.030  2.5000000 
      19      0.030  2.5000000 
      20      0.030  2.5000000 
      21      0.030  2.5000000 
      22      0.030  2.5000000 
      23      0.030  2.5000000 
      24      0.030  2.5000000 
      25      0.030  2.5000000 
      26      0.030  2.5000000 
      27      0.030  2.5000000 
      28      0.030  2.5000000 
      29      0.030  2.5000000 
      30      0.030  2.5000000 
      31      0.030  2.5000000 
      32      0.030  2.5000000 
      33      0.030  2.5000000 
      34      0.030  2.5000000 

Bond Coeffs 

       1   268.0000     1.5290 
       2   268.0000     1.5290 
       3   268.0000     1.5290 
       4   268.0000     1.5290 
       5   268.0000     1.5290 
       6   280.0000     1.5100 
       7   280.0000     1.5100 
       8   268.0000     1.5290 
       9   260.0000     1.5200 
      10   280.0000     1.5100 
      11   280.0000     1.5100 
      12   340.0000     1.0900 
      13   340.0000     1.0900 
      14   340.0000     1.0900 
      15   340.0000     1.0900 
      16   340.0000     1.0900 
      17   340.0000     1.0900 
      18   340.0000     1.0900 
      19   340.0000     1.0900 
      20   340.0000     1.0900 
      21   340.0000     1.0900 
      22   340.0000     1.0900 
      23   340.0000     1.0900 
      24   340.0000     1.0900 
      25   340.0000     1.0900 
      26   340.0000     1.0900 
      27   340.0000     1.0900 
      28   340.0000     1.0900 
      29   340.0000     1.0880 
      30   340.0000     1.0880 
      31   340.0000     1.0900 
      32   340.0000     1.0900 
      33   340.0000     1.0900 
      34   260.0000     1.5200 
      35   260.0000     1.5200 

Angle Coeffs 

       1     58.350    112.700
       2     58.350    112.700
       3     58.350    112.700
       4     58.350    112.700
       5     58.350    112.700
       6     35.000    114.300
       7     58.350    112.700
       8     37.500    117.200
       9     58.350    112.700
      10     35.000    114.300
      11     37.500    110.700
      12     37.500    110.700
      13     37.500    110.700
      14     37.500    110.700
      15     37.500    110.700
      16     37.500    110.700
      17     37.500    110.700
      18     37.500    110.700
      19     37.500    110.700
      20     37.500    110.700
      21     37.500    110.700
      22     37.500    110.700
      23     37.500    110.700
      24     37.500    110.700
      25     37.500    110.700
      26     37.500    110.700
      27     37.500    110.700
      28     37.500    117.200
      29     37.500    117.200
      30     37.500    110.700
      31     37.500    110.700
      32     37.500    110.700
      33     33.000    107.800
      34     30.000     83.000
      35     58.350    112.700
      36     37.500    110.700
      37     33.000    107.800
      38     33.000    107.800
      39     37.500    117.200
      40     37.500    110.700
      41     33.000    107.800
      42     37.500    117.200
      43     33.000    107.800
      44     33.000    107.800
      45     37.500    110.700
      46     33.000    107.800
      47     37.500    117.200
      48     37.500    110.700
      49     33.000    107.800
      50     37.500    110.700
      51     35.000    114.300
      52     33.000    107.800
      53     58.350    112.700
      54     33.000    107.800
      55     37.500    117.200
      56     37.500    110.700
      57     33.000    107.800
      58     37.500    117.200
      59     33.000    107.800
      60     37.500    110.700
      61     37.500    110.700
      62     37.500    110.700
      63     37.500    110.700
      64     30.000     83.000
      65     37.500    117.200
      66     33.000    107.800
      67     33.000    107.800
      68     37.500    117.200
      69     37.500    117.200
      70     37.500    117.200
      71     30.000     83.000
      72     33.000    107.800

Dihedral Coeffs  

       1      1.300     -0.200      0.200      0.000 
       2      1.300     -0.200      0.200      0.000 
       3      1.300     -0.200      0.200      0.000 
       4      1.300     -0.200      0.200      0.000 
       5      1.300     -0.200      0.200      0.000 
       6      0.000      0.000      0.300      0.000 
       7      0.000      0.000      0.300      0.000 
       8      0.000      0.000      0.300      0.000 
       9      0.000      0.000      0.000      0.000 
      10      0.000      0.000      0.000      0.000 
      11      0.000      0.000      0.300      0.000 
      12      0.000      0.000      0.300      0.000 
      13      0.000      0.000      0.000      0.000 
      14      0.000      0.000      0.300      0.000 
      15      0.000      0.000      0.000      0.000 
      16      0.000      0.000      0.000      0.000 
      17      0.000      0.000      0.300      0.000 
      18      0.000      0.000      0.000      0.000 
      19      1.300     -0.200      0.200      0.000 
      20      0.000      0.000      0.300      0.000 
      21      0.000      0.000      0.000      0.000 
      22      0.000      0.000      0.300      0.000 
      23      0.000      0.000      0.000      0.000 
      24      0.000      0.000      0.000      0.000 
      25      0.000      0.000      0.000      0.000 
      26      0.000      0.000      0.000      0.000 
      27      0.000      0.000      0.300      0.000 
      28      0.000      0.000      0.000      0.000 
      29      0.000      0.000      0.300      0.000 
      30      0.000      0.000      0.300      0.000 
      31      0.000      0.000      0.300      0.000 
      32      0.000      0.000      0.300      0.000 
      33      0.000      0.000      0.300      0.000 
      34      0.000      0.000      0.000      0.000 
      35      0.000      0.000      0.000      0.000 
      36      0.000      0.000      0.000      0.000 
      37      0.000      0.000      0.300      0.000 
      38      0.000      0.000      0.300      0.000 
      39      0.000      0.000      0.300      0.000 
      40      0.000      0.000      0.000      0.000 
      41      0.000      0.000      0.300      0.000 
      42      0.000      0.000      0.000      0.000 
      43      0.000      0.000      0.300      0.000 
      44      0.000      0.000      0.300      0.000 
      45      0.000      0.000      0.300      0.000 
      46      1.300     -0.200      0.200      0.000 
      47      0.000      0.000      0.300      0.000 
      48      0.000      0.000      0.300      0.000 
      49      0.000      0.000      0.300      0.000 
      50      0.000      0.000      0.000      0.000 
      51      0.000      0.000      0.300      0.000 
      52      0.000      0.000      0.000      0.000 
      53      0.000      0.000      0.300      0.000 
      54      0.000      0.000      0.000      0.000 
      55      0.000      0.000      0.300      0.000 
      56      1.300     -0.200      0.200      0.000 
      57      0.000      0.000      0.300      0.000 
      58      1.300     -0.200      0.200      0.000 
      59      0.000      0.000      0.300      0.000 
      60      0.000      0.000      0.000      0.000 
      61      0.000      0.000      0.300      0.000 
      62      0.000      0.000      0.300      0.000 
      63      0.000      0.000      0.300      0.000 
      64      0.000      0.000      0.300      0.000 
      65      0.000      0.000      0.300      0.000 
      66      0.000      0.000      0.300      0.000 
      67      0.000      0.000      0.300      0.000 
      68      0.000      0.000      0.300      0.000 
      69      0.000      0.000      0.300      0.000 
      70      0.000      0.000      0.300      0.000 
      71      0.000      0.000      0.300      0.000 
      72      0.000      0.000      0.300      0.000 
      73      0.000      0.000      0.300      0.000 
      74      0.000      0.000      0.000      0.000 
      75      0.000      0.000      0.300      0.000 
      76      0.000      0.000      0.300      0.000 
      77      0.000      0.000      0.300      0.000 
      78      0.000      0.000      0.300      0.000 
      79      0.000      0.000      0.300      0.000 
      80      0.000      0.000      0.300      0.000 
      81      0.000      0.000      0.300      0.000 
      82      0.000      0.000      0.300      0.000 
      83      0.000      0.000      0.000      0.000 
      84      0.000      0.000      0.300      0.000 
      85      0.000      0.000      0.300      0.000 
      86      0.000      0.000      0.300      0.000 
      87      0.000      0.000      0.300      0.000 
      88      0.000      0.000      0.000      0.000 
      89      0.000      0.000      0.000      0.000 
      90      0.000      0.000      0.300      0.000 
      91      0.000      0.000      0.300      0.000 
      92      0.000      0.000      0.300      0.000 
      93      0.000      0.000      0.300      0.000 
      94      0.000      0.000      0.300      0.000 
      95      1.300     -0.200      0.200      0.000 
      96      0.000      0.000      0.300      0.000 
      97      1.300     -0.200      0.200      0.000 
      98      0.000      0.000      0.000      0.000 
      99      0.000      0.000      0.300      0.000 
     100      0.000      0.000      0.300      0.000 
     101      0.000      0.000      0.000      0.000 
     102      0.000      0.000      0.300      0.000 
     103      0.000      0.000      0.300      0.000 
     104      0.000      0.000      0.300      0.000 
     105      0.000      0.000      0.300      0.000 
     106      0.000      0.000      0.300      0.000 
     107      0.000      0.000      0.300      0.000 
     108      0.000      0.000      0.000      0.000 

Improper Coeffs 

       1      0.000      -1       2 
       2      0.000      -1       2 
       3      0.000      -1       2 
       4      0.000      -1       2 
       5      0.000      -1       2 
       6      0.000      -1       2 
       7      0.000      -1       2 
       8      0.000      -1       2 
       9      0.000      -1       2 
      10      0.000      -1       2 
      11      0.000      -1       2 
      12      0.000      -1       2 
      13      0.000      -1       2 
      14      0.000      -1       2 
      15      0.000      -1       2 
      16      0.000      -1       2 
      17      0.000      -1       2 
      18      0.000      -1       2 
      19      0.000      -1       2 
      20      0.000      -1       2 
      21      0.000      -1       2 
      22      0.000      -1       2 
      23      0.000      -1       2 
      24      0.000      -1       2 
      25      0.000      -1       2 
      26      0.000      -1       2 

Atoms 

     1      1      1 -0.23660000    1.000  1.00000  0.00000
     2      1      2 -0.16970000   -0.513  1.00000  0.00000
     3      1      3 -0.08270000   -1.147  1.00000  1.40507
     4      1      4 -0.18080000   -2.683  1.00183  1.28060
     5      1      5 -0.08440000   -3.053 -0.48420  1.11727
     6      1      6 -0.22820000   -4.549 -0.66639  1.31976
     7      1      7 -0.12080000   -2.100 -1.19866  2.09977
     8      1      8 -0.12580000   -2.773 -2.20763  3.02520
     9      1      9 -0.23430000   -1.976 -2.93932  4.07902
    10      1     10 -0.22250000   -0.724 -1.59866  1.59995
    11      1     11 -0.09950000   -0.885 -0.25782  2.25596
    12      1     12 -0.19560000   -0.149  0.00472  3.53861
    13      1     13 0.08100000    1.367  1.00131 -1.03612
    14      1     14 0.08100000    1.407  0.11228  0.49121
    15      1     15 0.08100000    1.395  1.89190  0.49248
    16      1     16 0.08660000   -0.868  0.15611 -0.60285
    17      1     17 0.08660000   -0.851  1.90401 -0.53495
    18      1     18 0.10780000   -0.836  1.90960  1.93219
    19      1     19 0.09570000   -3.049  1.61824  0.45069
    20      1     20 0.09570000   -3.111  1.39461  2.20896
    21      1     21 0.10020000   -2.816 -0.82089  0.10103
    22      1     22 0.08250000   -4.873 -0.33895  2.31361
    23      1     23 0.08250000   -4.841 -1.71312  1.19128
    24      1     24 0.08250000   -5.105 -0.07456  0.58233
    25      1     25 0.08850000   -3.197 -2.97592  2.36363
    26      1     26 0.08850000   -3.616 -1.73058  3.53043
    27      1     27 0.08070000   -1.091 -3.44147  3.68495
    28      1     28 0.08070000   -2.611 -3.72073  4.52028
    29      1     29 0.08070000   -1.681 -2.27167  4.88921
    30      1     30 0.12160000   -0.582 -1.69216  0.53372
    31      1     31 0.12160000   -0.132 -2.32952  2.13983
    32      1     32 0.08510000    0.740  0.62365  3.32361
    33      1     33 0.08510000    0.216 -0.90299  4.02152
    34      1     34 0.08510000   -0.767  0.56525  4.24511

Bonds 

     1      1      2      1
     2      2      3      2
     3      3      4      3
     4      4      5      4
     5      5      6      5
     6      6      7      5
     7      7      8      7
     8      8      9      8
     9      9     10      7
    10     10     11      3
    11     11     12     11
    12     12     13      1
    13     13     14      1
    14     14     15      1
    15     15     16      2
    16     16     17      2
    17     17     18      3
    18     18     19      4
    19     19     20      4
    20     20     21      5
    21     21     22      6
    22     22     23      6
    23     23     24      6
    24     24     25      8
    25     25     26      8
    26     26     27      9
    27     27     28      9
    28     28     29      9
    29     29     30     10
    30     30     31     10
    31     31     32     12
    32     32     33     12
    33     33     34     12
    34     34     11      7
    35     35     11     10

Angles 

     1      1      1      2      3
     2      2      2      3      4
     3      3      3      4      5
     4      4      4      5      6
     5      5      4      5      7
     6      6      5      7      8
     7      7      7      8      9
     8      8      5      7     10
     9      9      2      3     11
    10     10      3     11     12
    11     11      2      1     13
    12     12      2      1     14
    13     13      2      1     15
    14     14      1      2     16
    15     15      1      2     17
    16     16      2      3     18
    17     17      3      4     19
    18     18      3      4     20
    19     19      4      5     21
    20     20      5      6     22
    21     21      5      6     23
    22     22      5      6     24
    23     23      7      8     25
    24     24      7      8     26
    25     25      8      9     27
    26     26      8      9     28
    27     27      8      9     29
    28     28      7     10     30
    29     29      7     10     31
    30     30     11     12     32
    31     31     11     12     33
    32     32     11     12     34
    33     33     32     12     34
    34     34      7     10     11
    35     35      4      3     11
    36     36      9      8     25
    37     37     13      1     14
    38     38     22      6     24
    39     39      8      7     11
    40     40      3      2     17
    41     41     25      8     26
    42     42      8      7     10
    43     43     19      4     20
    44     44     32     12     33
    45     45      3      2     16
    46     46     33     12     34
    47     47      3     11      7
    48     48      4      3     18
    49     49     27      9     29
    50     50      7      5     21
    51     51     30     10     31
    52     52     16      2     17
    53     53      6      5      7
    54     54     14      1     15
    55     55     10     11     12
    56     56      5      4     19
    57     57     27      9     28
    58     58     11     10     31
    59     59     23      6     24
    60     60      6      5     21
    61     61      5      4     20
    62     62     11      3     18
    63     63      9      8     26
    64     64      7     11     10
    65     65      7     11     12
    66     66     13      1     15
    67     67     22      6     23
    68     68      3     11     10
    69     69      5      7     11
    70     70     11     10     30
    71     71     10      7     11
    72     72     28      9     29

Dihedrals

     1      1      4      3      2      1 
     2      2      5      4      3      2 
     3      3      6      5      4      3 
     4      4      8      7      5      4 
     5      5      9      8      7      5 
     6      6     13      1      2      3 
     7      7     22      6      5      4 
     8      8     27      9      8      7 
     9      9     30     10      7     11 
    10     10     31     10      7     11 
    11     11     32     12     11      3 
    12     12     23      6      5      4 
    13     13     10      7      8      9 
    14     14     18      3     11     10 
    15     15     12     11     10      7 
    16     16     31     10      7      8 
    17     17     18      3      2      1 
    18     18      8      7     11      3 
    19     19     12     11      3      2 
    20     20     20      4      3     18 
    21     21     10     11      3      4 
    22     22     18      3     11      7 
    23     23     11      7      5      4 
    24     24     31     10     11     12 
    25     25     31     10     11      7 
    26     26     12     11      7      5 
    27     27     26      8      7     11 
    28     28      7     11      3      4 
    29     29     21      5      4      3 
    30     30     18      3      2     17 
    31     31     29      9      8      7 
    32     32     26      8      7      5 
    33     33     23      6      5      7 
    34     34     10     11      3      2 
    35     35     31     10      7      5 
    36     36     30     10     11     12 
    37     37     17      2      3      4 
    38     38     16      2      3      4 
    39     39     26      8      7     10 
    40     40     10      7      5      6 
    41     41     21      5      7     11 
    42     42     30     10      7      8 
    43     43     22      6      5     21 
    44     44     21      5      4     20 
    45     45     16      2      3     11 
    46     46     11      3      4      5 
    47     47     33     12     11     10 
    48     48     17      2      1     15 
    49     49     32     12     11      7 
    50     50      7     11      3      2 
    51     51     17      2      3     11 
    52     52     30     10      7      5 
    53     53     19      4      5      6 
    54     54     12     11      7      8 
    55     55     17      2      1     13 
    56     56     12     11      3      4 
    57     57     16      2      1     14 
    58     58     11      3      2      1 
    59     59     24      6      5      7 
    60     60      5      7     11      3 
    61     61     20      4      3     11 
    62     62     34     12     11     10 
    63     63     19      4      5      7 
    64     64     20      4      5      6 
    65     65     18      3      4      5 
    66     66     19      4      3      2 
    67     67     19      4      3     18 
    68     68     33     12     11      3 
    69     69     33     12     11      7 
    70     70     22      6      5      7 
    71     71     25      8      7     11 
    72     72     18      3     11     12 
    73     73     28      9      8      7 
    74     74     30     10     11      7 
    75     75     20      4      3      2 
    76     76     21      5      7     10 
    77     77     34     12     11      3 
    78     78     27      9      8     26 
    79     79     28      9      8     25 
    80     80     28      9      8     26 
    81     81     29      9      8     25 
    82     82     24      6      5      4 
    83     83     11      7      5      6 
    84     84     15      1      2      3 
    85     85     18      3      2     16 
    86     86     21      5      7      8 
    87     87     21      5      4     19 
    88     88     31     10     11      3 
    89     89     11      7      8      9 
    90     90     25      8      7      5 
    91     91     24      6      5     21 
    92     92     29      9      8     26 
    93     93     27      9      8     25 
    94     94     25      8      7     10 
    95     95      8      7      5      6 
    96     96     32     12     11     10 
    97     97      7      5      4      3 
    98     98     10      7      5      4 
    99     99     16      2      1     13 
   100    100     20      4      5      7 
   101    101     12     11      7     10 
   102    102     19      4      3     11 
   103    103     34     12     11      7 
   104    104     14      1      2      3 
   105    105     23      6      5     21 
   106    106     16      2      1     15 
   107    107     17      2      1     14 
   108    108     30     10     11      3 

Impropers

     1      1      5      4      6      7 
     2      2      7     10      5      8 
     3      3      3      2     11      4 
     4      4     11     12      3      7 
     5      5      1      2     13     14 
     6      6      1      2     13     15 
     7      7      2      1      3     16 
     8      8      2     17      3      1 
     9      9      3     18      4      2 
    10     10      4     19      5      3 
    11     11      4      3     20      5 
    12     12      5      4     21      6 
    13     13      6      5     23     22 
    14     14      6     22      5     24 
    15     15      8     25      9      7 
    16     16      8      9     26      7 
    17     17      9     27     28      8 
    18     18      9     27     29      8 
    19     19     12     33     11     32 
    20     20     12     34     11     32 
    21     21      7     10     11      8 
    22     22      7     10     11      5 
    23     23      7     10     11      5 
    24     24     11     10      7      3 
    25     25      7     10     11      8 
    26     26     11     10      7      3 

