LAMMPS data file Created by LigParGen - (Written by Leela S. Dodda)

      36 atoms
      35 bonds
      67 angles
      87 dihedrals
      22 impropers
 
      36 atom types
      35 bond types
      67 angle types
      87 dihedral types
      22 improper types
 
   -9.410090    40.589910 xlo xhi
   -2.473480    47.526520 ylo yhi
   -1.024620    48.975380 zlo zhi

Masses

       1     12.011  
       2     12.011  
       3     12.011  
       4     12.011  
       5     12.011  
       6     12.011  
       7     12.011  
       8     12.011  
       9     12.011  
      10     15.999  
      11     12.011  
      12     12.011  
      13      1.008  
      14      1.008  
      15      1.008  
      16      1.008  
      17      1.008  
      18      1.008  
      19      1.008  
      20      1.008  
      21      1.008  
      22      1.008  
      23      1.008  
      24      1.008  
      25      1.008  
      26      1.008  
      27      1.008  
      28      1.008  
      29      1.008  
      30      1.008  
      31      1.008  
      32      1.008  
      33      1.008  
      34      1.008  
      35      1.008  
      36      1.008  

Pair Coeffs 

       1      0.066  3.5000000 
       2      0.066  3.5000000 
       3      0.066  3.5000000 
       4      0.066  3.5000000 
       5      0.066  3.5000000 
       6      0.066  3.5000000 
       7      0.066  3.5000000 
       8      0.066  3.5000000 
       9      0.066  3.5000000 
      10      0.140  2.9000000 
      11      0.066  3.5000000 
      12      0.066  3.5000000 
      13      0.030  2.5000000 
      14      0.030  2.5000000 
      15      0.030  2.5000000 
      16      0.030  2.5000000 
      17      0.030  2.5000000 
      18      0.030  2.5000000 
      19      0.030  2.5000000 
      20      0.030  2.5000000 
      21      0.030  2.5000000 
      22      0.030  2.5000000 
      23      0.030  2.5000000 
      24      0.030  2.5000000 
      25      0.030  2.5000000 
      26      0.030  2.5000000 
      27      0.030  2.5000000 
      28      0.030  2.5000000 
      29      0.030  2.5000000 
      30      0.030  2.5000000 
      31      0.030  2.5000000 
      32      0.030  2.5000000 
      33      0.030  2.5000000 
      34      0.030  2.5000000 
      35      0.030  2.5000000 
      36      0.030  2.5000000 

Bond Coeffs 

       1   268.0000     1.5290 
       2   268.0000     1.5290 
       3   268.0000     1.5290 
       4   268.0000     1.5290 
       5   268.0000     1.5290 
       6   268.0000     1.5290 
       7   268.0000     1.5290 
       8   268.0000     1.5290 
       9   320.0000     1.4100 
      10   320.0000     1.4100 
      11   268.0000     1.5290 
      12   340.0000     1.0900 
      13   340.0000     1.0900 
      14   340.0000     1.0900 
      15   340.0000     1.0900 
      16   340.0000     1.0900 
      17   340.0000     1.0900 
      18   340.0000     1.0900 
      19   340.0000     1.0900 
      20   340.0000     1.0900 
      21   340.0000     1.0900 
      22   340.0000     1.0900 
      23   340.0000     1.0900 
      24   340.0000     1.0900 
      25   340.0000     1.0900 
      26   340.0000     1.0900 
      27   340.0000     1.0900 
      28   340.0000     1.0900 
      29   340.0000     1.0900 
      30   340.0000     1.0900 
      31   340.0000     1.0900 
      32   340.0000     1.0900 
      33   340.0000     1.0900 
      34   340.0000     1.0900 
      35   340.0000     1.0900 

Angle Coeffs 

       1     58.350    112.700
       2     58.350    112.700
       3     58.350    112.700
       4     58.350    112.700
       5     58.350    112.700
       6     58.350    112.700
       7     58.350    112.700
       8     50.000    109.500
       9     60.000    109.500
      10     50.000    109.500
      11     37.500    110.700
      12     37.500    110.700
      13     37.500    110.700
      14     37.500    110.700
      15     37.500    110.700
      16     37.500    110.700
      17     37.500    110.700
      18     37.500    110.700
      19     37.500    110.700
      20     37.500    110.700
      21     37.500    110.700
      22     37.500    110.700
      23     37.500    110.700
      24     37.500    110.700
      25     37.500    110.700
      26     37.500    110.700
      27     37.500    110.700
      28     37.500    110.700
      29     37.500    110.700
      30     35.000    109.500
      31     35.000    109.500
      32     37.500    110.700
      33     37.500    110.700
      34     37.500    110.700
      35     33.000    107.800
      36     37.500    110.700
      37     37.500    110.700
      38     33.000    107.800
      39     33.000    107.800
      40     37.500    110.700
      41     37.500    110.700
      42     37.500    110.700
      43     37.500    110.700
      44     37.500    110.700
      45     33.000    107.800
      46     37.500    110.700
      47     33.000    107.800
      48     33.000    107.800
      49     37.500    110.700
      50     33.000    107.800
      51     58.350    112.700
      52     33.000    107.800
      53     33.000    107.800
      54     33.000    107.800
      55     33.000    107.800
      56     33.000    107.800
      57     35.000    109.500
      58     33.000    107.800
      59     37.500    110.700
      60     33.000    107.800
      61     37.500    110.700
      62     33.000    107.800
      63     37.500    110.700
      64     33.000    107.800
      65     50.000    109.500
      66     37.500    110.700
      67     33.000    107.800

Dihedral Coeffs  

       1      1.300     -0.200      0.200      0.000 
       2      1.300     -0.200      0.200      0.000 
       3      1.300     -0.200      0.200      0.000 
       4      1.300     -0.200      0.200      0.000 
       5      1.300     -0.200      0.200      0.000 
       6      0.650     -0.250      0.670      0.000 
       7      0.650     -0.250      0.670      0.000 
       8      0.000      0.000      0.300      0.000 
       9      0.000      0.000      0.300      0.000 
      10      0.000      0.000      0.300      0.000 
      11      0.000      0.000      0.468      0.000 
      12      1.711     -0.500      0.663      0.000 
      13      0.000      0.000      0.300      0.000 
      14      0.000      0.000      0.468      0.000 
      15      0.000      0.000      0.300      0.000 
      16      0.000      0.000      0.300      0.000 
      17      0.000      0.000      0.300      0.000 
      18      0.000      0.000      0.468      0.000 
      19      0.000      0.000      0.468      0.000 
      20      0.000      0.000      0.300      0.000 
      21      0.000      0.000      0.300      0.000 
      22      0.000      0.000      0.300      0.000 
      23      0.000      0.000      0.300      0.000 
      24      0.000      0.000      0.300      0.000 
      25      0.000      0.000      0.300      0.000 
      26      0.000      0.000      0.300      0.000 
      27      0.000      0.000      0.300      0.000 
      28      0.000      0.000      0.300      0.000 
      29      0.000      0.000      0.300      0.000 
      30      0.000      0.000      0.468      0.000 
      31      0.000      0.000      0.300      0.000 
      32      0.000      0.000      0.300      0.000 
      33      0.000      0.000      0.300      0.000 
      34      0.000      0.000      0.300      0.000 
      35      0.000      0.000      0.300      0.000 
      36      0.000      0.000      0.300      0.000 
      37      0.000      0.000      0.760      0.000 
      38      0.000      0.000      0.300      0.000 
      39      0.000      0.000      0.300      0.000 
      40      0.000      0.000      0.300      0.000 
      41      0.000      0.000      0.300      0.000 
      42      0.000      0.000      0.300      0.000 
      43      0.000      0.000      0.300      0.000 
      44      0.000      0.000      0.300      0.000 
      45      0.000      0.000      0.300      0.000 
      46      0.000      0.000      0.760      0.000 
      47      0.000      0.000      0.300      0.000 
      48      0.000      0.000      0.300      0.000 
      49      0.000      0.000      0.300      0.000 
      50      0.000      0.000      0.300      0.000 
      51      0.000      0.000      0.300      0.000 
      52      0.000      0.000      0.300      0.000 
      53      0.000      0.000      0.300      0.000 
      54      0.000      0.000      0.300      0.000 
      55      0.000      0.000      0.468      0.000 
      56      0.000      0.000      0.300      0.000 
      57      0.000      0.000      0.300      0.000 
      58      0.000      0.000      0.468      0.000 
      59      0.000      0.000      0.760      0.000 
      60      0.000      0.000      0.300      0.000 
      61      0.000      0.000      0.300      0.000 
      62      0.000      0.000      0.300      0.000 
      63      0.000      0.000      0.300      0.000 
      64      0.000      0.000      0.300      0.000 
      65      0.000      0.000      0.300      0.000 
      66      0.000      0.000      0.300      0.000 
      67      0.000      0.000      0.300      0.000 
      68      0.000      0.000      0.300      0.000 
      69      0.000      0.000      0.300      0.000 
      70      1.300     -0.200      0.200      0.000 
      71      1.300     -0.200      0.200      0.000 
      72      0.000      0.000      0.300      0.000 
      73      0.000      0.000      0.300      0.000 
      74      0.000      0.000      0.300      0.000 
      75      0.000      0.000      0.300      0.000 
      76      0.000      0.000      0.300      0.000 
      77      0.000      0.000      0.300      0.000 
      78      0.650     -0.250      0.670      0.000 
      79      0.000      0.000      0.300      0.000 
      80      0.000      0.000      0.300      0.000 
      81      0.000      0.000      0.468      0.000 
      82      0.000      0.000      0.300      0.000 
      83      0.000      0.000      0.300      0.000 
      84      0.000      0.000      0.300      0.000 
      85      0.000      0.000      0.300      0.000 
      86      0.000      0.000      0.300      0.000 
      87      0.000      0.000      0.300      0.000 

Improper Coeffs 

       1      0.000      -1       2 
       2      0.000      -1       2 
       3      0.000      -1       2 
       4      0.000      -1       2 
       5      0.000      -1       2 
       6      0.000      -1       2 
       7      0.000      -1       2 
       8      0.000      -1       2 
       9      0.000      -1       2 
      10      0.000      -1       2 
      11      0.000      -1       2 
      12      0.000      -1       2 
      13      0.000      -1       2 
      14      0.000      -1       2 
      15      0.000      -1       2 
      16      0.000      -1       2 
      17      0.000      -1       2 
      18      0.000      -1       2 
      19      0.000      -1       2 
      20      0.000      -1       2 
      21      0.000      -1       2 
      22      0.000      -1       2 

Atoms 

     1      1      1 -0.23940000    1.000  1.00000  0.00000
     2      1      2 -0.17880000   -0.523  1.00000  0.00000
     3      1      3 -0.18020000   -1.053  1.00000  1.43237
     4      1      4 -0.17300000   -2.588  1.00179  1.49508
     5      1      5 -0.10550000   -3.124  0.93629  2.94194
     6      1      6 -0.23800000   -2.700  2.16226  3.76584
     7      1      7 -0.21050000   -4.664  0.87384  2.98573
     8      1      8 0.07540000   -5.353 -0.32606  2.31777
     9      1      9 -0.23870000   -4.898 -1.65387  2.92191
    10      1     10 -0.38900000   -6.775 -0.24531  2.52652
    11      1     11 0.00840000   -7.405  0.79734  1.78226
    12      1     12 -0.24580000   -8.902  0.72768  2.00891
    13      1     13 0.08110000    1.383  1.00130 -1.02462
    14      1     14 0.08110000    1.390  0.11384  0.51050
    15      1     15 0.08110000    1.391  1.88766  0.50890
    16      1     16 0.08880000   -0.889  0.11996 -0.53897
    17      1     17 0.08880000   -0.882  1.88973 -0.53070
    18      1     18 0.08960000   -0.656  1.88448  1.94049
    19      1     19 0.08960000   -0.672  0.11957  1.96444
    20      1     20 0.08870000   -2.951  0.13675  0.92837
    21      1     21 0.08870000   -2.975  1.89757  0.99267
    22      1     22 0.10080000   -2.708  0.04741  3.43129
    23      1     23 0.08230000   -3.204  3.06853  3.41204
    24      1     24 0.08230000   -1.623  2.34106  3.73715
    25      1     25 0.08230000   -2.971  2.01964  4.81811
    26      1     26 0.09610000   -5.038  1.79937  2.53351
    27      1     27 0.09610000   -4.996  0.91469  4.03263
    28      1     28 0.08770000   -5.159 -0.34834  1.23973
    29      1     29 0.09390000   -4.980 -1.63661  4.01471
    30      1     30 0.09390000   -3.863 -1.88456  2.65457
    31      1     31 0.09390000   -5.537 -2.47348  2.57448
    32      1     32 0.07370000   -7.181  0.68207  0.71668
    33      1     33 0.07370000   -7.055  1.77530  2.12355
    34      1     34 0.09360000   -9.299 -0.23609  1.67609
    35      1     35 0.09360000   -9.410  1.52903  1.46371
    36      1     36 0.09360000   -9.135  0.82298  3.07477

Bonds 

     1      1      2      1
     2      2      3      2
     3      3      4      3
     4      4      5      4
     5      5      6      5
     6      6      7      5
     7      7      8      7
     8      8      9      8
     9      9     10      8
    10     10     11     10
    11     11     12     11
    12     12     13      1
    13     13     14      1
    14     14     15      1
    15     15     16      2
    16     16     17      2
    17     17     18      3
    18     18     19      3
    19     19     20      4
    20     20     21      4
    21     21     22      5
    22     22     23      6
    23     23     24      6
    24     24     25      6
    25     25     26      7
    26     26     27      7
    27     27     28      8
    28     28     29      9
    29     29     30      9
    30     30     31      9
    31     31     32     11
    32     32     33     11
    33     33     34     12
    34     34     35     12
    35     35     36     12

Angles 

     1      1      1      2      3
     2      2      2      3      4
     3      3      3      4      5
     4      4      4      5      6
     5      5      4      5      7
     6      6      5      7      8
     7      7      7      8      9
     8      8      7      8     10
     9      9      8     10     11
    10     10     10     11     12
    11     11      2      1     13
    12     12      2      1     14
    13     13      2      1     15
    14     14      1      2     16
    15     15      1      2     17
    16     16      2      3     18
    17     17      2      3     19
    18     18      3      4     20
    19     19      3      4     21
    20     20      4      5     22
    21     21      5      6     23
    22     22      5      6     24
    23     23      5      6     25
    24     24      5      7     26
    25     25      5      7     27
    26     26      7      8     28
    27     27      8      9     29
    28     28      8      9     30
    29     29      8      9     31
    30     30     10     11     32
    31     31     10     11     33
    32     32     11     12     34
    33     33     11     12     35
    34     34     11     12     36
    35     35     29      9     30
    36     36      9      8     28
    37     37     12     11     32
    38     38     30      9     31
    39     39     29      9     31
    40     40      6      5     22
    41     41      3      2     17
    42     42      4      3     19
    43     43      8      7     27
    44     44      8      7     26
    45     45     34     12     36
    46     46      3      2     16
    47     47     32     11     33
    48     48     18      3     19
    49     49      4      3     18
    50     50     16      2     17
    51     51      6      5      7
    52     52     13      1     14
    53     53     14      1     15
    54     54     34     12     35
    55     55     35     12     36
    56     56     26      7     27
    57     57     10      8     28
    58     58     23      6     24
    59     59      5      4     20
    60     60     24      6     25
    61     61      5      4     21
    62     62     23      6     25
    63     63      7      5     22
    64     64     13      1     15
    65     65      9      8     10
    66     66     12     11     33
    67     67     20      4     21

Dihedrals

     1      1      4      3      2      1 
     2      2      5      4      3      2 
     3      3      6      5      4      3 
     4      4      8      7      5      4 
     5      5      9      8      7      5 
     6      6     11     10      8      7 
     7      7     12     11     10      8 
     8      8     13      1      2      3 
     9      9     23      6      5      4 
    10     10     29      9      8      7 
    11     11     34     12     11     10 
    12     12     10      8      7      5 
    13     13     24      6      5     22 
    14     14     27      7      8     10 
    15     15     27      7      5      4 
    16     16     20      4      3     18 
    17     17     25      6      5      7 
    18     18     35     12     11     10 
    19     19     30      9      8     10 
    20     20     18      3      2     17 
    21     21     19      3      2     16 
    22     22     26      7      5      6 
    23     23     23      6      5      7 
    24     24     36     12     11     32 
    25     25     35     12     11     33 
    26     26     17      2      3      4 
    27     27     16      2      3      4 
    28     28     26      7      5     22 
    29     29     31      9      8      7 
    30     30     26      7      8     10 
    31     31     19      3      2      1 
    32     32     26      7      5      4 
    33     33     35     12     11     32 
    34     34     34     12     11     33 
    35     35     34     12     11     32 
    36     36     21      4      3     19 
    37     37     33     11     10      8 
    38     38     17      2      1     15 
    39     39     28      8      7      5 
    40     40     29      9      8     28 
    41     41     22      5      4      3 
    42     42     30      9      8      7 
    43     43     31      9      8     28 
    44     44     17      2      1     13 
    45     45     16      2      1     14 
    46     46     28      8     10     11 
    47     47     28      8      7     27 
    48     48     18      3      2     16 
    49     49     18      3      2      1 
    50     50     24      6      5      7 
    51     51     20      4      5      6 
    52     52     21      4      3      2 
    53     53     18      3      4      5 
    54     54     30      9      8     28 
    55     55     29      9      8     10 
    56     56     24      6      5      4 
    57     57     27      7      8      9 
    58     58     31      9      8     10 
    59     59     32     11     10      8 
    60     60     20      4      3      2 
    61     61     25      6      5     22 
    62     62     27      7      5     22 
    63     63     15      1      2      3 
    64     64     36     12     11     33 
    65     65     25      6      5      4 
    66     66     27      7      5      6 
    67     67     22      5      4     20 
    68     68     23      6      5     22 
    69     69     26      7      8      9 
    70     70      8      7      5      6 
    71     71      7      5      4      3 
    72     72     16      2      1     13 
    73     73     19      3      2     17 
    74     74     20      4      3     19 
    75     75     21      4      3     18 
    76     76     20      4      5      7 
    77     77     21      4      5      6 
    78     78     11     10      8      9 
    79     79     19      3      4      5 
    80     80     14      1      2      3 
    81     81     36     12     11     10 
    82     82     21      4      5      7 
    83     83     28      8      7     26 
    84     84     16      2      1     15 
    85     85     17      2      1     14 
    86     86     22      5      7      8 
    87     87     22      5      4     21 

Impropers

     1      1      5      4      6      7 
     2      2      8      9     10      7 
     3      3      1      2     13     14 
     4      4      1      2     13     15 
     5      5      2      1      3     16 
     6      6      2     17      3      1 
     7      7      3     18      4      2 
     8      8      3      2     19      4 
     9      9      4      3     20      5 
    10     10      4      5      3     21 
    11     11      5      4     22      6 
    12     12      6      5     23     24 
    13     13      6     25      5     23 
    14     14      7     26      5      8 
    15     15      7     27      5      8 
    16     16      8      9     28      7 
    17     17      9     29     30      8 
    18     18      9     29     31      8 
    19     19     11     10     12     32 
    20     20     11     33     10     12 
    21     21     12     34     35     11 
    22     22     12     34     11     36 

