LAMMPS data file Created by LigParGen - (Written by Leela S. Dodda)

      30 atoms
      29 bonds
      54 angles
      69 dihedrals
      18 impropers
 
      30 atom types
      29 bond types
      54 angle types
      69 dihedral types
      18 improper types
 
   -9.070610    40.929390 xlo xhi
   -0.731210    49.268790 ylo yhi
   -1.026660    48.973340 zlo zhi

Masses

       1     12.011  
       2     12.011  
       3     12.011  
       4     12.011  
       5     30.974  
       6     12.011  
       7     12.011  
       8     12.011  
       9     30.974  
      10     12.011  
      11      1.008  
      12      1.008  
      13      1.008  
      14      1.008  
      15      1.008  
      16      1.008  
      17      1.008  
      18      1.008  
      19      1.008  
      20      1.008  
      21      1.008  
      22      1.008  
      23      1.008  
      24      1.008  
      25      1.008  
      26      1.008  
      27      1.008  
      28      1.008  
      29      1.008  
      30      1.008  

Pair Coeffs 

       1      0.066  3.5000000 
       2      0.066  3.5000000 
       3      0.066  3.5000000 
       4      0.066  3.5000000 
       5      0.200  3.7400000 
       6      0.066  3.5000000 
       7      0.066  3.5000000 
       8      0.066  3.5000000 
       9      0.200  3.7400000 
      10      0.066  3.5000000 
      11      0.030  2.5000000 
      12      0.030  2.5000000 
      13      0.030  2.5000000 
      14      0.030  2.5000000 
      15      0.030  2.5000000 
      16      0.030  2.5000000 
      17      0.030  2.5000000 
      18      0.030  2.5000000 
      19      0.030  2.5000000 
      20      0.000  0.0000000 
      21      0.030  2.5000000 
      22      0.030  2.5000000 
      23      0.030  2.5000000 
      24      0.030  2.5000000 
      25      0.030  2.5000000 
      26      0.030  2.5000000 
      27      0.000  0.0000000 
      28      0.030  2.5000000 
      29      0.030  2.5000000 
      30      0.030  2.5000000 

Bond Coeffs 

       1   268.0000     1.5290 
       2   268.0000     1.5290 
       3   268.0000     1.5290 
       4   212.0000     1.8430 
       5   212.0000     1.8430 
       6   268.0000     1.5290 
       7   268.0000     1.5290 
       8   212.0000     1.8430 
       9   212.0000     1.8430 
      10   340.0000     1.0900 
      11   340.0000     1.0900 
      12   340.0000     1.0900 
      13   340.0000     1.0900 
      14   340.0000     1.0900 
      15   340.0000     1.0900 
      16   340.0000     1.0900 
      17   340.0000     1.0900 
      18   340.0000     1.0900 
      19   256.7000     1.3100 
      20   340.0000     1.0900 
      21   340.0000     1.0900 
      22   340.0000     1.0900 
      23   340.0000     1.0900 
      24   340.0000     1.0900 
      25   340.0000     1.0900 
      26   256.7000     1.3100 
      27   340.0000     1.0900 
      28   340.0000     1.0900 
      29   340.0000     1.0900 

Angle Coeffs 

       1     58.350    112.700
       2     58.350    112.700
       3     43.000    109.500
       4     62.000     98.900
       5     43.000    109.500
       6     58.350    112.700
       7     43.000    109.500
       8     62.000     98.900
       9     37.500    110.700
      10     37.500    110.700
      11     37.500    110.700
      12     37.500    110.700
      13     37.500    110.700
      14     37.500    110.700
      15     37.500    110.700
      16     37.500    110.700
      17     37.500    110.700
      18     63.570    108.400
      19     41.000    109.500
      20     41.000    109.500
      21     37.500    110.700
      22     37.500    110.700
      23     37.500    110.700
      24     37.500    110.700
      25     63.570    108.400
      26     41.000    109.500
      27     41.000    109.500
      28     41.000    109.500
      29     33.000    107.800
      30     41.000    109.500
      31     37.500    110.700
      32     33.000    107.800
      33     33.000    107.800
      34     37.500    110.700
      35     33.000    107.800
      36     37.500    110.700
      37     33.000    107.800
      38     33.000    107.800
      39     43.000    109.500
      40     37.500    110.700
      41     33.000    107.800
      42     33.000    107.800
      43     63.570    108.400
      44     33.000    107.800
      45     63.570    108.400
      46     33.000    107.800
      47     41.000    109.500
      48     37.500    110.700
      49     37.500    110.700
      50     33.000    107.800
      51     41.000    109.500
      52     33.000    107.800
      53     37.500    110.700
      54     33.000    107.800

Dihedral Coeffs  

       1      1.300     -0.200      0.200      0.000 
       2      1.000     -0.500      0.500      0.000 
       3      1.000     -0.500      0.500      0.000 
       4      0.845     -0.962      0.713      0.000 
       5      0.845     -0.962      0.713      0.000 
       6      1.000     -0.500      0.500      0.000 
       7      0.000      0.000      0.300      0.000 
       8      0.000      0.000      0.300      0.000 
       9      0.000      0.000      0.300      0.000 
      10      0.000      0.000      0.300      0.000 
      11      0.000      0.000      0.000      0.000 
      12      0.000      0.000      0.000      0.000 
      13      0.000      0.000      0.300      0.000 
      14      0.000      0.000      0.300      0.000 
      15      0.000      0.000      0.300      0.000 
      16      0.000      0.000      0.000      0.000 
      17      0.000      0.000      0.300      0.000 
      18      0.000      0.000      0.300      0.000 
      19      0.000      0.000      0.300      0.000 
      20      0.845     -0.962      0.713      0.000 
      21      0.000      0.000      0.300      0.000 
      22      0.000      0.000      0.300      0.000 
      23      0.000      0.000      0.300      0.000 
      24      0.000      0.000      0.000      0.000 
      25      0.000      0.000      0.300      0.000 
      26      0.000      0.000      0.300      0.000 
      27      0.000      0.000      0.000      0.000 
      28      0.000      0.000      0.000      0.000 
      29      0.000      0.000      0.300      0.000 
      30      0.000      0.000      0.300      0.000 
      31      0.000      0.000      0.300      0.000 
      32      0.000      0.000      0.300      0.000 
      33      1.000     -0.500      0.500      0.000 
      34      0.000      0.000      0.300      0.000 
      35      0.000      0.000      0.300      0.000 
      36      0.000      0.000      0.000      0.000 
      37      0.000      0.000      0.300      0.000 
      38      0.000      0.000      0.300      0.000 
      39      0.000      0.000      0.300      0.000 
      40      0.000      0.000      0.300      0.000 
      41      0.000      0.000      0.300      0.000 
      42      0.000      0.000      0.000      0.000 
      43      0.000      0.000      0.300      0.000 
      44      0.000      0.000      0.300      0.000 
      45      0.000      0.000      0.300      0.000 
      46      0.000      0.000      0.000      0.000 
      47      0.000      0.000      0.300      0.000 
      48      0.000      0.000      0.000      0.000 
      49      0.000      0.000      0.300      0.000 
      50      0.000      0.000      0.300      0.000 
      51      0.000      0.000      0.300      0.000 
      52      0.000      0.000      0.300      0.000 
      53      0.000      0.000      0.000      0.000 
      54      0.000      0.000      0.000      0.000 
      55      0.000      0.000      0.300      0.000 
      56      0.000      0.000      0.300      0.000 
      57      0.000      0.000      0.300      0.000 
      58      0.000      0.000      0.300      0.000 
      59      0.000      0.000      0.300      0.000 
      60      0.000      0.000      0.300      0.000 
      61      0.000      0.000      0.300      0.000 
      62      0.000      0.000      0.300      0.000 
      63      0.000      0.000      0.300      0.000 
      64      0.000      0.000      0.300      0.000 
      65      0.000      0.000      0.300      0.000 
      66      0.000      0.000      0.300      0.000 
      67      0.000      0.000      0.300      0.000 
      68      0.000      0.000      0.300      0.000 
      69      0.000      0.000      0.300      0.000 

Improper Coeffs 

       1      0.000      -1       2 
       2      0.000      -1       2 
       3      0.000      -1       2 
       4      0.000      -1       2 
       5      0.000      -1       2 
       6      0.000      -1       2 
       7      0.000      -1       2 
       8      0.000      -1       2 
       9      0.000      -1       2 
      10      0.000      -1       2 
      11      0.000      -1       2 
      12      0.000      -1       2 
      13      0.000      -1       2 
      14      0.000      -1       2 
      15      0.000      -1       2 
      16      0.000      -1       2 
      17      0.000      -1       2 
      18      0.000      -1       2 

Atoms 

     1      1      1 -0.23790000    1.000  1.00000  0.00000
     2      1      2 -0.17310000   -0.522  1.00000  0.00000
     3      1      3 -0.19910000   -1.160  1.00000  1.40940
     4      1      4 -0.23230000   -0.734  2.21782  2.23038
     5      1      5 0.13270000   -3.019  0.95829  1.18741
     6      1      6 -0.27550000   -3.648  0.81996  2.92126
     7      1      7 -0.17350000   -5.176  0.70737  2.91226
     8      1      8 -0.28490000   -5.762  0.70105  4.32475
     9      1      9 0.17650000   -7.614  0.64317  4.25681
    10      1     10 -0.35640000   -8.002  0.56325  6.04482
    11      1     11 0.08230000    1.371  0.90662 -1.02666
    12      1     12 0.08230000    1.394  0.16113  0.58057
    13      1     13 0.08230000    1.405  1.93148  0.40640
    14      1     14 0.09630000   -0.858  0.11295 -0.55481
    15      1     15 0.09630000   -0.865  1.87351 -0.57118
    16      1     16 0.09090000   -0.859  0.08893  1.94077
    17      1     17 0.08770000   -1.036  3.15495  1.75236
    18      1     18 0.08770000    0.351  2.24215  2.36741
    19      1     19 0.08770000   -1.167  2.19704  3.23520
    20      1     20 -0.01650000   -3.137 -0.40619  0.82653
    21      1     21 0.09500000   -3.361  1.71542  3.48133
    22      1     22 0.09500000   -3.200 -0.04882  3.41553
    23      1     23 0.10580000   -5.476 -0.20729  2.38078
    24      1     24 0.10580000   -5.599  1.54981  2.34923
    25      1     25 0.09480000   -5.458  1.61051  4.85648
    26      1     26 0.09480000   -5.387 -0.15962  4.88865
    27      1     27 -0.02480000   -7.756 -0.73121  3.95106
    28      1     28 0.09350000   -7.759  1.50954  6.53675
    29      1     29 0.09350000   -7.443 -0.23754  6.53720
    30      1     30 0.09350000   -9.071  0.37356  6.18576

Bonds 

     1      1      2      1
     2      2      3      2
     3      3      4      3
     4      4      5      3
     5      5      6      5
     6      6      7      6
     7      7      8      7
     8      8      9      8
     9      9     10      9
    10     10     11      1
    11     11     12      1
    12     12     13      1
    13     13     14      2
    14     14     15      2
    15     15     16      3
    16     16     17      4
    17     17     18      4
    18     18     19      4
    19     19     20      5
    20     20     21      6
    21     21     22      6
    22     22     23      7
    23     23     24      7
    24     24     25      8
    25     25     26      8
    26     26     27      9
    27     27     28     10
    28     28     29     10
    29     29     30     10

Angles 

     1      1      1      2      3
     2      2      2      3      4
     3      3      2      3      5
     4      4      3      5      6
     5      5      5      6      7
     6      6      6      7      8
     7      7      7      8      9
     8      8      8      9     10
     9      9      2      1     11
    10     10      2      1     12
    11     11      2      1     13
    12     12      1      2     14
    13     13      1      2     15
    14     14      2      3     16
    15     15      3      4     17
    16     16      3      4     18
    17     17      3      4     19
    18     18      3      5     20
    19     19      5      6     21
    20     20      5      6     22
    21     21      6      7     23
    22     22      6      7     24
    23     23      7      8     25
    24     24      7      8     26
    25     25      8      9     27
    26     26      9     10     28
    27     27      9     10     29
    28     28      9     10     30
    29     29     23      7     24
    30     30      9      8     25
    31     31      3      2     14
    32     32     17      4     19
    33     33     11      1     13
    34     34      7      6     22
    35     35     21      6     22
    36     36      3      2     15
    37     37     17      4     18
    38     38     28     10     29
    39     39      4      3      5
    40     40      8      7     23
    41     41     11      1     12
    42     42     12      1     13
    43     43      6      5     20
    44     44     14      2     15
    45     45     10      9     27
    46     46     25      8     26
    47     47      9      8     26
    48     48      4      3     16
    49     49      8      7     24
    50     50     28     10     30
    51     51      5      3     16
    52     52     18      4     19
    53     53      7      6     21
    54     54     29     10     30

Dihedrals

     1      1      4      3      2      1 
     2      2      6      5      3      2 
     3      3      7      6      5      3 
     4      4      8      7      6      5 
     5      5      9      8      7      6 
     6      6     10      9      8      7 
     7      7     11      1      2      3 
     8      8     17      4      3      2 
     9      9     28     10      9      8 
    10     10     18      4      3     16 
    11     11     29     10      9     27 
    12     12     21      6      5     20 
    13     13     15      2      3      5 
    14     14     14      2      3      5 
    15     15     15      2      3      4 
    16     16     20      5      3      4 
    17     17     14      2      1     11 
    18     18     18      4      3      2 
    19     19     14      2      1     13 
    20     20      5      3      2      1 
    21     21     24      7      8      9 
    22     22     23      7      8      9 
    23     23     25      8      7     23 
    24     24     27      9      8      7 
    25     25     16      3      5      6 
    26     26     25      8      9     10 
    27     27     22      6      5     20 
    28     28     27      9      8     25 
    29     29     18      4      3      5 
    30     30     24      7      6     22 
    31     31     29     10      9      8 
    32     32     15      2      1     12 
    33     33      6      5      3      4 
    34     34     19      4      3      2 
    35     35     22      6      5      3 
    36     36     28     10      9     27 
    37     37     17      4      3     16 
    38     38     26      8      7     24 
    39     39     23      7      6      5 
    40     40     19      4      3      5 
    41     41     16      3      2      1 
    42     42     20      5      6      7 
    43     43     14      2      3      4 
    44     44     17      4      3      5 
    45     45     21      6      7      8 
    46     46     20      5      3      2 
    47     47     16      3      2     14 
    48     48     20      5      3     16 
    49     49     22      6      7      8 
    50     50     21      6      5      3 
    51     51     13      1      2      3 
    52     52     19      4      3     16 
    53     53     27      9      8     26 
    54     54     30     10      9     27 
    55     55     30     10      9      8 
    56     56     25      8      7      6 
    57     57     26      8      9     10 
    58     58     26      8      7      6 
    59     59     23      7      6     21 
    60     60     16      3      2     15 
    61     61     24      7      6     21 
    62     62     23      7      6     22 
    63     63     15      2      1     11 
    64     64     14      2      1     12 
    65     65     12      1      2      3 
    66     66     24      7      6      5 
    67     67     15      2      1     13 
    68     68     25      8      7     24 
    69     69     26      8      7     23 

Impropers

     1      1      3      2      4      5 
     2      2      1      2     11     12 
     3      3      1      2     11     13 
     4      4      2      1      3     14 
     5      5      2      1      3     15 
     6      6      3      2      4     16 
     7      7      4     17     18      3 
     8      8      4     17     19      3 
     9      9      5      3     20      6 
    10     10      6      5     21      7 
    11     11      6      5     22      7 
    12     12      7      8     23      6 
    13     13      7      8      6     24 
    14     14      8     25      9      7 
    15     15      8      9     26      7 
    16     16      9     10     27      8 
    17     17     10      9     28     29 
    18     18     10      9     28     30 

