LAMMPS data file Created by LigParGen - (Written by Leela S. Dodda)

      36 atoms
      37 bonds
      75 angles
     120 dihedrals
      23 impropers
 
      36 atom types
      37 bond types
      75 angle types
     120 dihedral types
      23 improper types
 
   -4.212850    45.787150 xlo xhi
   -0.017820    49.982180 ylo yhi
   -2.994970    47.005030 zlo zhi

Masses

       1     12.011  
       2     12.011  
       3     12.011  
       4     15.999  
       5     12.011  
       6     12.011  
       7     12.011  
       8     12.011  
       9     12.011  
      10     12.011  
      11     12.011  
      12     12.011  
      13     12.011  
      14     12.011  
      15      1.008  
      16      1.008  
      17      1.008  
      18      1.008  
      19      1.008  
      20      1.008  
      21      1.008  
      22      1.008  
      23      1.008  
      24      1.008  
      25      1.008  
      26      1.008  
      27      1.008  
      28      1.008  
      29      1.008  
      30      1.008  
      31      1.008  
      32      1.008  
      33      1.008  
      34      1.008  
      35      1.008  
      36      1.008  

Pair Coeffs 

       1      0.066  3.5000000 
       2      0.066  3.5000000 
       3      0.070  3.5500000 
       4      0.210  2.9600000 
       5      0.066  3.5000000 
       6      0.066  3.5000000 
       7      0.066  3.5000000 
       8      0.066  3.5000000 
       9      0.066  3.5000000 
      10      0.066  3.5000000 
      11      0.066  3.5000000 
      12      0.066  3.5000000 
      13      0.066  3.5000000 
      14      0.066  3.5000000 
      15      0.030  2.5000000 
      16      0.030  2.5000000 
      17      0.030  2.5000000 
      18      0.030  2.5000000 
      19      0.030  2.5000000 
      20      0.030  2.5000000 
      21      0.030  2.5000000 
      22      0.030  2.5000000 
      23      0.030  2.5000000 
      24      0.030  2.5000000 
      25      0.030  2.5000000 
      26      0.030  2.5000000 
      27      0.030  2.5000000 
      28      0.030  2.5000000 
      29      0.030  2.5000000 
      30      0.030  2.5000000 
      31      0.030  2.5000000 
      32      0.030  2.5000000 
      33      0.030  2.5000000 
      34      0.030  2.5000000 
      35      0.030  2.5000000 
      36      0.030  2.5000000 

Bond Coeffs 

       1   268.0000     1.5290 
       2   317.0000     1.5220 
       3   570.0000     1.2290 
       4   317.0000     1.5220 
       5   268.0000     1.5290 
       6   268.0000     1.5290 
       7   268.0000     1.5290 
       8   268.0000     1.5290 
       9   268.0000     1.5290 
      10   268.0000     1.5290 
      11   268.0000     1.5290 
      12   268.0000     1.5290 
      13   268.0000     1.5290 
      14   340.0000     1.0900 
      15   340.0000     1.0900 
      16   340.0000     1.0900 
      17   340.0000     1.0900 
      18   340.0000     1.0900 
      19   340.0000     1.0900 
      20   340.0000     1.0900 
      21   340.0000     1.0900 
      22   340.0000     1.0900 
      23   340.0000     1.0900 
      24   340.0000     1.0900 
      25   340.0000     1.0900 
      26   340.0000     1.0900 
      27   340.0000     1.0900 
      28   340.0000     1.0900 
      29   340.0000     1.0900 
      30   340.0000     1.0900 
      31   340.0000     1.0900 
      32   340.0000     1.0900 
      33   340.0000     1.0900 
      34   340.0000     1.0900 
      35   340.0000     1.0900 
      36   268.0000     1.5290 
      37   268.0000     1.5290 

Angle Coeffs 

       1     63.000    111.100
       2     80.000    120.400
       3     70.000    116.000
       4     63.000    111.100
       5     58.350    112.700
       6     58.350    112.700
       7     58.350    112.700
       8     58.350    112.700
       9     63.000    111.100
      10     58.350    112.700
      11     58.350    112.700
      12     58.350    112.700
      13     37.500    110.700
      14     37.500    110.700
      15     37.500    110.700
      16     37.500    110.700
      17     35.000    109.500
      18     37.500    110.700
      19     37.500    110.700
      20     37.500    110.700
      21     37.500    110.700
      22     37.500    110.700
      23     37.500    110.700
      24     37.500    110.700
      25     37.500    110.700
      26     37.500    110.700
      27     37.500    110.700
      28     37.500    110.700
      29     37.500    110.700
      30     37.500    110.700
      31     37.500    110.700
      32     37.500    110.700
      33     37.500    110.700
      34     37.500    110.700
      35     33.000    107.800
      36     33.000    107.800
      37     33.000    107.800
      38     37.500    110.700
      39     37.500    110.700
      40     37.500    110.700
      41     58.350    112.700
      42     58.350    112.700
      43     35.000    109.500
      44     33.000    107.800
      45     58.350    112.700
      46     33.000    107.800
      47     58.350    112.700
      48     37.500    110.700
      49     37.500    110.700
      50     33.000    107.800
      51     58.350    112.700
      52     58.350    112.700
      53     33.000    107.800
      54     80.000    120.400
      55     37.500    110.700
      56     58.350    112.700
      57     58.350    112.700
      58     33.000    107.800
      59     37.500    110.700
      60     63.000    111.100
      61     37.500    110.700
      62     33.000    107.800
      63     33.000    107.800
      64     33.000    107.800
      65     58.350    112.700
      66     58.350    112.700
      67     33.000    107.800
      68     33.000    107.800
      69     33.000    107.800
      70     33.000    107.800
      71     58.350    112.700
      72     33.000    107.800
      73     37.500    110.700
      74     37.500    110.700
      75     37.500    110.700

Dihedral Coeffs  

       1      0.000      0.000      0.000      0.000 
       2      1.454     -0.144     -0.775      0.000 
       3     -2.060     -0.313      0.315      0.000 
       4      1.300     -0.200      0.200      0.000 
       5      1.300     -0.200      0.200      0.000 
       6      1.300     -0.200      0.200      0.000 
       7      0.000      0.000     -0.100      0.000 
       8      0.000      0.000      0.300      0.000 
       9      0.000      0.000      0.300      0.000 
      10      0.000      0.000      0.300      0.000 
      11      0.000      0.000      0.300      0.000 
      12      0.000      0.000      0.300      0.000 
      13      0.000      0.000      0.300      0.000 
      14      0.000      0.000      0.300      0.000 
      15      1.300     -0.200      0.200      0.000 
      16      0.000      0.000      0.300      0.000 
      17      0.000      0.000      0.000      0.000 
      18      0.000      0.000      0.300      0.000 
      19      1.300     -0.200      0.200      0.000 
      20      0.000      0.000      0.300      0.000 
      21      0.000      0.000      0.300      0.000 
      22      0.000      0.000      0.300      0.000 
      23      0.000      0.000      0.300      0.000 
      24      1.454     -0.144     -0.775      0.000 
      25      1.300     -0.200      0.200      0.000 
      26      0.000      0.000      0.300      0.000 
      27      0.000      0.000      0.300      0.000 
      28     -2.060     -0.313      0.315      0.000 
      29      0.000      0.000      0.300      0.000 
      30      0.000      0.000      0.300      0.000 
      31      1.454     -0.144     -0.775      0.000 
      32      0.000      0.000      0.300      0.000 
      33      0.000      0.000      0.300      0.000 
      34      0.000      0.000      0.300      0.000 
      35      0.000      0.000      0.300      0.000 
      36      0.000      0.000      0.300      0.000 
      37      1.300     -0.200      0.200      0.000 
      38      0.000      0.000      0.300      0.000 
      39      0.000      0.000      0.300      0.000 
      40      0.000      0.000      0.300      0.000 
      41      0.000      0.000      0.300      0.000 
      42      0.000      0.000      0.300      0.000 
      43      1.300     -0.200      0.200      0.000 
      44      0.000      0.000      0.300      0.000 
      45      0.000      0.000     -0.100      0.000 
      46      0.000      0.000      0.300      0.000 
      47      1.300     -0.200      0.200      0.000 
      48     -2.060     -0.313      0.315      0.000 
      49      0.000      0.000      0.300      0.000 
      50      0.000      0.000      0.300      0.000 
      51      0.000      0.000      0.300      0.000 
      52      0.000      0.000      0.300      0.000 
      53      0.000      0.000      0.000      0.000 
      54      0.000      0.000      0.000      0.000 
      55      1.300     -0.200      0.200      0.000 
      56      0.000      0.000      0.300      0.000 
      57      0.000      0.000      0.275      0.000 
      58      1.300     -0.200      0.200      0.000 
      59      0.000      0.000      0.300      0.000 
      60      0.000      0.000      0.300      0.000 
      61      1.300     -0.200      0.200      0.000 
      62      0.000      0.000      0.300      0.000 
      63      1.300     -0.200      0.200      0.000 
      64      0.000      0.000      0.300      0.000 
      65      0.000      0.000      0.300      0.000 
      66      0.000      0.000      0.300      0.000 
      67      0.000      0.000      0.300      0.000 
      68      1.300     -0.200      0.200      0.000 
      69      0.000      0.000      0.300      0.000 
      70      0.000      0.000      0.300      0.000 
      71      0.000      0.000     -0.100      0.000 
      72      0.000      0.000      0.300      0.000 
      73     -2.060     -0.313      0.315      0.000 
      74      1.300     -0.200      0.200      0.000 
      75      0.000      0.000      0.300      0.000 
      76      0.000      0.000      0.300      0.000 
      77      1.300     -0.200      0.200      0.000 
      78      0.000      0.000      0.300      0.000 
      79      0.000      0.000      0.300      0.000 
      80      0.000      0.000      0.300      0.000 
      81      0.000      0.000      0.300      0.000 
      82      0.000      0.000      0.300      0.000 
      83      0.000      0.000      0.300      0.000 
      84      0.000      0.000      0.300      0.000 
      85      0.000      0.000      0.300      0.000 
      86      0.000      0.000      0.300      0.000 
      87      0.000      0.000      0.300      0.000 
      88      0.000      0.000      0.300      0.000 
      89      1.300     -0.200      0.200      0.000 
      90      0.000      0.000      0.000      0.000 
      91      0.000      0.000     -0.100      0.000 
      92      0.000      0.000      0.300      0.000 
      93      0.000      0.000      0.300      0.000 
      94      0.000      0.000     -0.100      0.000 
      95      0.000      0.000     -0.100      0.000 
      96      0.000      0.000      0.300      0.000 
      97      1.454     -0.144     -0.775      0.000 
      98      0.000      0.000      0.300      0.000 
      99      0.000      0.000      0.300      0.000 
     100      0.000      0.000      0.300      0.000 
     101      1.300     -0.200      0.200      0.000 
     102      0.000      0.000      0.275      0.000 
     103      0.000      0.000      0.300      0.000 
     104      0.000      0.000      0.300      0.000 
     105      0.000      0.000      0.300      0.000 
     106      0.000      0.000      0.300      0.000 
     107      0.000      0.000      0.300      0.000 
     108      0.000      0.000      0.000      0.000 
     109      0.000      0.000      0.300      0.000 
     110     -2.060     -0.313      0.315      0.000 
     111      1.300     -0.200      0.200      0.000 
     112      1.300     -0.200      0.200      0.000 
     113      1.300     -0.200      0.200      0.000 
     114      0.000      0.000      0.300      0.000 
     115      0.000      0.000      0.300      0.000 
     116      1.300     -0.200      0.200      0.000 
     117      0.000      0.000     -0.100      0.000 
     118      0.000      0.000      0.300      0.000 
     119      0.000      0.000      0.300      0.000 
     120      0.000      0.000      0.300      0.000 

Improper Coeffs 

       1     10.500      -1       2 
       2      0.000      -1       2 
       3      0.000      -1       2 
       4      0.000      -1       2 
       5      0.000      -1       2 
       6      0.000      -1       2 
       7      0.000      -1       2 
       8      0.000      -1       2 
       9      0.000      -1       2 
      10      0.000      -1       2 
      11      0.000      -1       2 
      12      0.000      -1       2 
      13      0.000      -1       2 
      14      0.000      -1       2 
      15      0.000      -1       2 
      16      0.000      -1       2 
      17      0.000      -1       2 
      18      0.000      -1       2 
      19      0.000      -1       2 
      20      0.000      -1       2 
      21      0.000      -1       2 
      22      0.000      -1       2 
      23      0.000      -1       2 

Atoms 

     1      1      1 -0.22660000    1.000  1.00000  0.00000
     2      1      2 -0.15250000   -0.532  1.00000  0.00000
     3      1      3 0.38040000   -1.010  1.00000  1.45361
     4      1      4 -0.46610000   -0.536  0.19998  2.26860
     5      1      5 -0.16120000   -2.060  1.97646  1.89726
     6      1      6 -0.15580000   -1.400  3.24924  2.42308
     7      1      7 -0.17640000   -0.924  4.20818  1.33837
     8      1      8 -0.16760000   -1.853  4.28385  0.13539
     9      1      9 -0.03120000   -2.380  2.91677 -0.39572
    10      1     10 -0.23180000   -3.491  3.27573 -1.42343
    11      1     11 -0.16070000   -3.058  2.21162  0.77908
    12      1     12 -0.00780000   -1.223  2.00338 -1.02421
    13      1     13 -0.22860000   -0.190  2.88370 -1.77289
    14      1     14 -0.24120000   -1.821  1.07752 -2.13738
    15      1     15 0.09250000    1.394  0.22225  0.66571
    16      1     16 0.09250000    1.404  1.95313  0.35463
    17      1     17 0.09250000    1.398  0.78174 -0.99435
    18      1     18 0.12130000   -0.812 -0.01782 -0.31340
    19      1     19 0.12590000   -2.594  1.49584  2.72985
    20      1     20 0.09830000   -0.544  2.99972  3.06440
    21      1     21 0.09830000   -2.119  3.77329  3.06185
    22      1     22 0.08950000    0.082  3.92876  1.01484
    23      1     23 0.08950000   -0.831  5.21100  1.77515
    24      1     24 0.08870000   -1.369  4.85755 -0.66362
    25      1     25 0.08870000   -2.715  4.89825  0.43694
    26      1     26 0.08370000   -4.213  3.98311 -0.99746
    27      1     27 0.08370000   -4.072  2.39768 -1.72429
    28      1     28 0.08370000   -3.072  3.74424 -2.32037
    29      1     29 0.09840000   -3.497  1.25977  0.45503
    30      1     30 0.09840000   -3.886  2.82206  1.16356
    31      1     31 0.08410000    0.417  3.48278 -1.08905
    32      1     32 0.08410000   -0.681  3.57339 -2.46832
    33      1     33 0.08410000    0.497  2.27778 -2.37566
    34      1     34 0.08310000   -2.640  0.46010 -1.75205
    35      1     35 0.08310000   -1.054  0.39548 -2.53246
    36      1     36 0.08310000   -2.189  1.64535 -2.99497

Bonds 

     1      1      2      1
     2      2      3      2
     3      3      4      3
     4      4      5      3
     5      5      6      5
     6      6      7      6
     7      7      8      7
     8      8      9      8
     9      9     10      9
    10     10     11      5
    11     11     12      2
    12     12     13     12
    13     13     14     12
    14     14     15      1
    15     15     16      1
    16     16     17      1
    17     17     18      2
    18     18     19      5
    19     19     20      6
    20     20     21      6
    21     21     22      7
    22     22     23      7
    23     23     24      8
    24     24     25      8
    25     25     26     10
    26     26     27     10
    27     27     28     10
    28     28     29     11
    29     29     30     11
    30     30     31     13
    31     31     32     13
    32     32     33     13
    33     33     34     14
    34     34     35     14
    35     35     36     14
    36     36     11      9
    37     37     12      9

Angles 

     1      1      1      2      3
     2      2      2      3      4
     3      3      2      3      5
     4      4      3      5      6
     5      5      5      6      7
     6      6      6      7      8
     7      7      7      8      9
     8      8      8      9     10
     9      9      3      5     11
    10     10      1      2     12
    11     11      2     12     13
    12     12      2     12     14
    13     13      2      1     15
    14     14      2      1     16
    15     15      2      1     17
    16     16      1      2     18
    17     17      3      5     19
    18     18      5      6     20
    19     19      5      6     21
    20     20      6      7     22
    21     21      6      7     23
    22     22      7      8     24
    23     23      7      8     25
    24     24      9     10     26
    25     25      9     10     27
    26     26      9     10     28
    27     27      5     11     29
    28     28      5     11     30
    29     29     12     13     31
    30     30     12     13     32
    31     31     12     13     33
    32     32     12     14     34
    33     33     12     14     35
    34     34     12     14     36
    35     35     16      1     17
    36     36     26     10     27
    37     37     27     10     28
    38     38      9      8     25
    39     39     12      2     18
    40     40      9     11     29
    41     41     13     12     14
    42     42      9     12     14
    43     43      3      2     18
    44     44     20      6     21
    45     45      5     11      9
    46     46     34     14     36
    47     47      8      9     12
    48     48      9      8     24
    49     49      6      5     19
    50     50     31     13     33
    51     51      6      5     11
    52     52      8      9     11
    53     53     34     14     35
    54     54      4      3      5
    55     55      8      7     23
    56     56      9     12     13
    57     57      2     12      9
    58     58     15      1     16
    59     59     11      5     19
    60     60      3      2     12
    61     61      8      7     22
    62     62     32     13     33
    63     63     26     10     28
    64     64     15      1     17
    65     65     11      9     12
    66     66     10      9     11
    67     67     31     13     32
    68     68     35     14     36
    69     69     22      7     23
    70     70     24      8     25
    71     71     10      9     12
    72     72     29     11     30
    73     73      7      6     21
    74     74      7      6     20
    75     75      9     11     30

Dihedrals

     1      1      4      3      2      1 
     2      2      6      5      3      2 
     3      3      7      6      5      3 
     4      4      8      7      6      5 
     5      5      9      8      7      6 
     6      6     10      9      8      7 
     7      7     15      1      2      3 
     8      8     26     10      9      8 
     9      9     31     13     12      2 
    10     10     34     14     12      2 
    11     11     22      7      6     20 
    12     12     25      8      7     22 
    13     13     29     11      5     19 
    14     14     25      8      7     23 
    15     15     11      9      8      7 
    16     16     24      8      7     22 
    17     17     19      5      3      4 
    18     18     33     13     12      2 
    19     19     12      9     11      5 
    20     20     19      5      6      7 
    21     21     34     14     12      9 
    22     22     34     14     12     13 
    23     23     35     14     12     13 
    24     24     12      2      3      5 
    25     25     14     12      9     11 
    26     26     30     11      9     10 
    27     27     24      8      9     10 
    28     28      9     11      5      3 
    29     29     25      8      7      6 
    30     30     33     13     12     14 
    31     31     11      5      3      2 
    32     32     24      8      9     12 
    33     33     25      8      9     11 
    34     34     23      7      6     21 
    35     35     21      6      7      8 
    36     36     23      7      6     20 
    37     37      8      9     11      5 
    38     38     22      7      6     21 
    39     39     21      6      5     11 
    40     40     30     11      9      8 
    41     41     26     10      9     11 
    42     42     15      1      2     12 
    43     43     10      9     12      2 
    44     44     31     13     12      9 
    45     45     30     11      5      3 
    46     46     18      2     12     14 
    47     47     13     12      9      8 
    48     48     13     12      2      3 
    49     49     30     11      5      6 
    50     50     20      6      5     19 
    51     51     28     10      9      8 
    52     52     22      7      8      9 
    53     53      6      5      3      4 
    54     54     11      5      3      4 
    55     55      9     12      2      1 
    56     56     32     13     12      2 
    57     57     19      5      3      2 
    58     58     14     12      9     10 
    59     59     18      2      1     15 
    60     60     22      7      6      5 
    61     61     13     12      9     11 
    62     62     30     11      9     12 
    63     63      9     11      5      6 
    64     64     29     11      9      8 
    65     65     28     10      9     12 
    66     66     36     14     12      2 
    67     67     35     14     12      9 
    68     68     10      9     11      5 
    69     69     30     11      5     19 
    70     70     33     13     12      9 
    71     71     21      6      5      3 
    72     72     25      8      9     12 
    73     73     14     12      2      3 
    74     74     14     12      9      8 
    75     75     18      2      1     17 
    76     76     29     11      9     10 
    77     77      8      9     12      2 
    78     78     18      2     12      9 
    79     79     27     10      9      8 
    80     80     23      7      6      5 
    81     81     24      8      9     11 
    82     82     25      8      9     10 
    83     83     29     11      9     12 
    84     84     18      2     12     13 
    85     85     20      6      7      8 
    86     86     24      8      7      6 
    87     87     24      8      7     23 
    88     88     32     13     12     14 
    89     89     13     12      2      1 
    90     90     12      2      3      4 
    91     91     17      1      2      3 
    92     92     16      1      2     12 
    93     93     27     10      9     11 
    94     94     20      6      5      3 
    95     95     29     11      5      3 
    96     96     26     10      9     12 
    97     97      5      3      2      1 
    98     98     23      7      8      9 
    99     99     28     10      9     11 
   100    100     32     13     12      9 
   101    101     13     12      9     10 
   102    102     18      2      3      5 
   103    103     21      6      5     19 
   104    104     20      6      5     11 
   105    105     19      5     11      9 
   106    106     17      1      2     12 
   107    107     36     14     12      9 
   108    108     18      2      3      4 
   109    109     29     11      5      6 
   110    110      9     12      2      3 
   111    111     12      9      8      7 
   112    112     11      9     12      2 
   113    113     11      5      6      7 
   114    114     31     13     12     14 
   115    115     27     10      9     12 
   116    116     14     12      2      1 
   117    117     16      1      2      3 
   118    118     35     14     12      2 
   119    119     36     14     12     13 
   120    120     18      2      1     16 

Impropers

     1      1      3      2      4      5 
     2      2      5     11      3      6 
     3      3      2      1      3     12 
     4      4     12      9      2     13 
     5      5     12      9      2     14 
     6      6      1      2     15     16 
     7      7      1     17     15      2 
     8      8      2      1     18      3 
     9      9      5     19      3      6 
    10     10      6     20      5      7 
    11     11      6      5     21      7 
    12     12      7      8     22      6 
    13     13      7      8     23      6 
    14     14      8      9      7     24 
    15     15      8     25      9      7 
    16     16     10      9     27     26 
    17     17     10      9     28     26 
    18     18     11      9      5     29 
    19     19     11      9      5     30 
    20     20     13     12     31     32 
    21     21     13     33     12     31 
    22     22     14     34     35     12 
    23     23     14     12     34     36 

