LAMMPS data file Created by LigParGen - (Written by Leela S. Dodda)

      37 atoms
      38 bonds
      76 angles
     122 dihedrals
      27 impropers
 
      37 atom types
      38 bond types
      76 angle types
     122 dihedral types
      27 improper types
 
   -7.694570    42.305430 xlo xhi
   -2.949320    47.050680 ylo yhi
   -1.030410    48.969590 zlo zhi

Masses

       1     12.011  
       2     12.011  
       3     12.011  
       4     12.011  
       5     12.011  
       6     12.011  
       7     12.011  
       8     12.011  
       9     12.011  
      10     14.007  
      11     12.011  
      12     12.011  
      13     12.011  
      14     15.999  
      15     12.011  
      16     12.011  
      17      1.008  
      18      1.008  
      19      1.008  
      20      1.008  
      21      1.008  
      22      1.008  
      23      1.008  
      24      1.008  
      25      1.008  
      26      1.008  
      27      1.008  
      28      1.008  
      29      1.008  
      30      1.008  
      31      1.008  
      32      1.008  
      33      1.008  
      34      1.008  
      35      1.008  
      36      1.008  
      37      1.008  

Pair Coeffs 

       1      0.066  3.5000000 
       2      0.066  3.5000000 
       3      0.066  3.5000000 
       4      0.066  3.5000000 
       5      0.066  3.5000000 
       6      0.066  3.5000000 
       7      0.083  3.4500000 
       8      0.066  3.5000000 
       9      0.066  3.3000000 
      10      0.170  3.2000000 
      11      0.083  3.4500000 
      12      0.066  3.5000000 
      13      0.070  3.5500000 
      14      0.210  2.9600000 
      15      0.083  3.4500000 
      16      0.083  3.4500000 
      17      0.030  2.5000000 
      18      0.030  2.5000000 
      19      0.030  2.5000000 
      20      0.030  2.5000000 
      21      0.030  2.5000000 
      22      0.030  2.5000000 
      23      0.030  2.5000000 
      24      0.030  2.5000000 
      25      0.030  2.5000000 
      26      0.030  2.5000000 
      27      0.030  2.5000000 
      28      0.030  2.5000000 
      29      0.030  2.5000000 
      30      0.030  2.5000000 
      31      0.030  2.5000000 
      32      0.030  2.5000000 
      33      0.030  2.5000000 
      34      0.030  2.5000000 
      35      0.030  2.5000000 
      36      0.030  2.5000000 
      37      0.030  2.5000000 

Bond Coeffs 

       1   268.0000     1.5290 
       2   268.0000     1.5290 
       3   268.0000     1.5290 
       4   268.0000     1.5290 
       5   268.0000     1.5290 
       6   280.0000     1.5100 
       7   280.0000     1.5100 
       8   390.0000     1.4700 
       9   650.0000     1.1570 
      10   260.0000     1.5200 
      11   280.0000     1.5100 
      12   317.0000     1.5220 
      13   570.0000     1.2290 
      14   260.0000     1.5200 
      15   280.0000     1.5100 
      16   340.0000     1.0900 
      17   340.0000     1.0900 
      18   340.0000     1.0900 
      19   340.0000     1.0900 
      20   340.0000     1.0900 
      21   340.0000     1.0900 
      22   340.0000     1.0900 
      23   340.0000     1.0900 
      24   340.0000     1.0900 
      25   340.0000     1.0900 
      26   340.0000     1.0900 
      27   340.0000     1.0900 
      28   340.0000     1.0900 
      29   340.0000     1.0900 
      30   340.0000     1.0880 
      31   340.0000     1.0900 
      32   340.0000     1.0900 
      33   340.0000     1.0900 
      34   340.0000     1.0880 
      35   340.0000     1.0880 
      36   340.0000     1.0880 
      37   260.0000     1.5200 
      38   260.0000     1.5200 

Angle Coeffs 

       1     58.350    112.700
       2     58.350    112.700
       3     58.350    112.700
       4     58.350    112.700
       5     58.350    112.700
       6     35.000    114.300
       7     58.350    112.700
       8    150.000    180.000
       9     37.500    117.200
      10     37.500    117.200
      11     63.000    111.100
      12     80.000    120.400
      13     30.000     83.000
      14     58.350    112.700
      15     37.500    110.700
      16     37.500    110.700
      17     37.500    110.700
      18     37.500    110.700
      19     37.500    110.700
      20     37.500    110.700
      21     37.500    110.700
      22     37.500    110.700
      23     37.500    110.700
      24     37.500    110.700
      25     37.500    110.700
      26     37.500    110.700
      27     37.500    110.700
      28     37.500    110.700
      29     37.500    117.200
      30     37.500    110.700
      31     37.500    110.700
      32     35.000    115.000
      33     37.500    117.200
      34     37.500    117.200
      35     35.000    114.300
      36     35.000    108.500
      37     37.500    117.200
      38     33.000    107.800
      39     37.500    110.700
      40     35.000    114.300
      41     30.000     83.000
      42     37.500    117.200
      43     35.000    109.500
      44     37.500    110.700
      45     33.000    107.800
      46     30.000     83.000
      47     33.000    107.800
      48     37.500    117.200
      49     37.500    110.700
      50     37.500    117.200
      51     35.000    114.300
      52     37.500    110.700
      53     37.500    110.700
      54     37.500    117.200
      55     35.000    108.500
      56     37.500    110.700
      57     58.350    112.700
      58     35.000    123.000
      59     37.500    117.200
      60     35.000    109.500
      61     33.000    107.800
      62     37.500    110.700
      63     33.000    107.800
      64     33.000    107.800
      65     37.500    110.700
      66     33.000    107.800
      67     37.500    117.200
      68     33.000    107.800
      69     37.500    110.700
      70     30.000     83.000
      71     37.500    117.200
      72     37.500    117.200
      73     33.000    107.800
      74     37.500    110.700
      75     37.500    117.200
      76     37.500    117.200

Dihedral Coeffs  

       1      1.300     -0.200      0.200      0.000 
       2      1.300     -0.200      0.200      0.000 
       3      1.300     -0.200      0.200      0.000 
       4      1.300     -0.200      0.200      0.000 
       5      1.300     -0.200      0.200      0.000 
       6      0.000     -0.650      0.000      0.000 
       7      0.000      0.000      0.000      0.000 
       8      0.000      0.000      0.000      0.000 
       9     -2.060     -0.313      0.315      0.000 
      10      0.000      0.000      0.000      0.000 
      11      0.000      0.000      0.300      0.000 
      12      0.000      0.000      0.300      0.000 
      13      0.000      0.000      0.300      0.000 
      14      0.000      0.000      0.300      0.000 
      15      0.000      0.000      0.300      0.000 
      16      0.000      0.000      0.000      0.000 
      17      0.000      0.000      0.000      0.000 
      18      0.000      0.000      0.300      0.000 
      19      0.000      0.000      0.300      0.000 
      20      0.000      0.000      0.000      0.000 
      21      0.000      0.000      0.300      0.000 
      22      0.000      0.000      0.300      0.000 
      23      0.000      0.000      0.300      0.000 
      24      0.000      0.000      0.300      0.000 
      25      0.000      0.000      0.300      0.000 
      26      0.000      0.000      0.000      0.000 
      27      0.000      0.000      0.300      0.000 
      28      0.000      0.000      0.300      0.000 
      29      0.000      0.000      0.000      0.000 
      30      0.000      0.000      0.000      0.000 
      31      0.000      0.000      0.000      0.000 
      32      0.000      0.000      0.300      0.000 
      33      0.000      0.000      0.300      0.000 
      34      0.000      0.000      0.000      0.000 
      35      0.000      0.000      0.000      0.000 
      36      0.000      0.000      0.000      0.000 
      37      0.000      0.000      0.000      0.000 
      38      0.000      0.000      0.000      0.000 
      39      0.000      0.000      0.300      0.000 
      40      0.000      0.000      0.300      0.000 
      41      0.000      0.000      0.000      0.000 
      42      0.000      0.000      0.300      0.000 
      43      0.000      0.000      0.000      0.000 
      44      0.000      0.000      0.300      0.000 
      45      0.000      0.000      0.300      0.000 
      46      0.000      0.000      0.000      0.000 
      47      0.000      0.000      0.300      0.000 
      48      0.000      0.000      0.300      0.000 
      49      0.000      0.000      0.000      0.000 
      50      0.000      0.000      0.000      0.000 
      51      0.000      0.000      0.300      0.000 
      52      0.000      0.000      0.300      0.000 
      53      0.000      0.000      0.000      0.000 
      54      0.000      0.000      0.300      0.000 
      55      0.000      0.000      0.300      0.000 
      56      0.000      0.000      0.000      0.000 
      57      0.000      0.000      0.300      0.000 
      58      0.000      0.000      0.300      0.000 
      59      0.000      0.000      0.000      0.000 
      60      0.000      0.000      0.000      0.000 
      61      0.000      0.000      0.300      0.000 
      62      0.000      0.000      0.000      0.000 
      63      0.000      0.000      0.000      0.000 
      64      0.000      0.000      0.000      0.000 
      65      0.000      0.000      0.300      0.000 
      66      0.000      0.000      0.300      0.000 
      67      0.000      0.000      0.360      0.000 
      68      0.000      0.000      0.300      0.000 
      69      0.000      0.000     -0.100      0.000 
      70      0.000      0.000      0.000      0.000 
      71      0.000      0.000      0.000      0.000 
      72      0.000      0.000      0.000      0.000 
      73      0.000      0.000      0.000      0.000 
      74      0.000      0.000      0.300      0.000 
      75      0.000      0.000      0.300      0.000 
      76      0.000      0.000      0.300      0.000 
      77      1.300     -0.200      0.200      0.000 
      78      0.000      0.000      0.300      0.000 
      79      0.000      0.000      0.000      0.000 
      80      0.000      0.000      0.000      0.000 
      81      0.000      0.000      0.300      0.000 
      82      0.000      0.000      0.300      0.000 
      83      0.000      0.000      0.300      0.000 
      84      0.000      0.000      0.300      0.000 
      85      0.000      0.000      0.300      0.000 
      86      0.000      0.000      0.300      0.000 
      87      0.000      0.000      0.300      0.000 
      88      0.000      0.000      0.300      0.000 
      89      0.000      0.000      0.360      0.000 
      90      0.000      0.000      0.300      0.000 
      91      0.000      0.000      0.000      0.000 
      92      0.000      0.000      0.300      0.000 
      93      0.000      0.000      0.000      0.000 
      94      0.000      0.000      0.300      0.000 
      95      0.000      0.000      0.000      0.000 
      96      0.000      0.000      0.000      0.000 
      97      0.000      0.000      0.000      0.000 
      98      0.000      0.000      0.000      0.000 
      99      0.000      0.000      0.300      0.000 
     100      0.000      0.000      0.300      0.000 
     101      0.000      0.000      0.300      0.000 
     102      0.000      0.000      0.300      0.000 
     103      0.000      0.000      0.000      0.000 
     104      0.000      0.000      0.300      0.000 
     105      0.000      0.000      0.000      0.000 
     106     -2.060     -0.313      0.315      0.000 
     107      0.000      0.000      0.300      0.000 
     108      0.000      0.000      0.300      0.000 
     109      0.000      0.000      0.000      0.000 
     110      0.000      0.000      0.300      0.000 
     111      0.000      0.000      0.300      0.000 
     112      0.000      0.000      0.300      0.000 
     113      0.000      0.000      0.000      0.000 
     114      0.000      0.000      0.000      0.000 
     115      0.000      0.000      0.300      0.000 
     116      0.000      0.000      0.300      0.000 
     117      0.000      0.000      0.000      0.000 
     118      0.000      0.000      0.000      0.000 
     119      0.000      0.000      0.300      0.000 
     120      0.000      0.000      0.000      0.000 
     121      0.000      0.000      0.300      0.000 
     122      1.300     -0.200      0.200      0.000 

Improper Coeffs 

       1      0.000      -1       2 
       2      0.000      -1       2 
       3      0.000      -1       2 
       4      0.000      -1       2 
       5      0.000      -1       2 
       6      0.000      -1       2 
       7      0.000      -1       2 
       8      0.000      -1       2 
       9      0.000      -1       2 
      10      0.000      -1       2 
      11      0.000      -1       2 
      12      0.000      -1       2 
      13      0.000      -1       2 
      14      0.000      -1       2 
      15      0.000      -1       2 
      16      0.000      -1       2 
      17      0.000      -1       2 
      18      0.000      -1       2 
      19      0.000      -1       2 
      20     10.500      -1       2 
      21      0.000      -1       2 
      22      0.000      -1       2 
      23      0.000      -1       2 
      24      0.000      -1       2 
      25      0.000      -1       2 
      26      0.000      -1       2 
      27      0.000      -1       2 

Atoms 

     1      1      1 -0.23890000    1.000  1.00000  0.00000
     2      1      2 -0.17920000   -0.521  1.00000  0.00000
     3      1      3 -0.16580000   -1.116  1.00000  1.41451
     4      1      4 -0.11560000   -2.636  1.14392  1.37777
     5      1      5 -0.17910000   -3.426  0.03004  0.70664
     6      1      6 -0.15880000   -4.864  0.36143  1.14886
     7      1      7 -0.08120000   -4.737  0.58122  2.67338
     8      1      8 -0.05570000   -5.274 -0.62665  3.46798
     9      1      9 0.16350000   -4.646 -1.91205  3.14587
    10      1     10 -0.39400000   -4.198 -2.94932  2.89818
    11      1     11 -0.12180000   -5.212  1.87420  3.45958
    12      1     12 -0.24730000   -6.537  2.54464  3.13829
    13      1     13 0.31320000   -6.763  3.82999  3.90049
    14      1     14 -0.43840000   -5.988  4.27940  4.73740
    15      1     15 -0.18900000   -3.934  2.58864  3.00911
    16      1     16 -0.11520000   -3.282  1.20220  2.77048
    17      1     17 0.08170000    1.373  0.99870 -1.03041
    18      1     18 0.08170000    1.394  0.11257  0.50336
    19      1     19 0.08170000    1.397  1.89108  0.49708
    20      1     20 0.08780000   -0.871  0.12137 -0.55098
    21      1     21 0.08780000   -0.866  1.88657 -0.54727
    22      1     22 0.09380000   -0.699  1.84919  1.97384
    23      1     23 0.09380000   -0.817  0.09365  1.95234
    24      1     24 0.10100000   -2.850  2.06582  0.81757
    25      1     25 0.10500000   -3.103 -0.94599  1.08778
    26      1     26 0.10500000   -3.319  0.02539 -0.37985
    27      1     27 0.09800000   -5.550 -0.44936  0.88459
    28      1     28 0.09800000   -5.207  1.27024  0.64643
    29      1     29 0.12740000   -6.353 -0.70715  3.26646
    30      1     30 0.12740000   -5.184 -0.46298  4.54776
    31      1     31 0.12550000   -5.170  1.71031  4.54947
    32      1     32 0.12210000   -7.363  1.87209  3.40487
    33      1     33 0.12210000   -6.617  2.76998  2.07234
    34      1     34 0.10750000   -7.695  4.36184  3.65843
    35      1     35 0.11060000   -3.446  3.21156  3.76359
    36      1     36 0.11060000   -4.090  3.20254  2.11262
    37      1     37 0.13460000   -2.696  0.81211  3.61006

Bonds 

     1      1      2      1
     2      2      3      2
     3      3      4      3
     4      4      5      4
     5      5      6      5
     6      6      7      6
     7      7      8      7
     8      8      9      8
     9      9     10      9
    10     10     11      7
    11     11     12     11
    12     12     13     12
    13     13     14     13
    14     14     15     11
    15     15     16      4
    16     16     17      1
    17     17     18      1
    18     18     19      1
    19     19     20      2
    20     20     21      2
    21     21     22      3
    22     22     23      3
    23     23     24      4
    24     24     25      5
    25     25     26      5
    26     26     27      6
    27     27     28      6
    28     28     29      8
    29     29     30      8
    30     30     31     11
    31     31     32     12
    32     32     33     12
    33     33     34     13
    34     34     35     15
    35     35     36     15
    36     36     37     16
    37     37     16      7
    38     38     16     15

Angles 

     1      1      1      2      3
     2      2      2      3      4
     3      3      3      4      5
     4      4      4      5      6
     5      5      5      6      7
     6      6      6      7      8
     7      7      7      8      9
     8      8      8      9     10
     9      9      6      7     11
    10     10      7     11     12
    11     11     11     12     13
    12     12     12     13     14
    13     13      7     11     15
    14     14      3      4     16
    15     15      2      1     17
    16     16      2      1     18
    17     17      2      1     19
    18     18      1      2     20
    19     19      1      2     21
    20     20      2      3     22
    21     21      2      3     23
    22     22      3      4     24
    23     23      4      5     25
    24     24      4      5     26
    25     25      5      6     27
    26     26      5      6     28
    27     27      7      8     29
    28     28      7      8     30
    29     29      7     11     31
    30     30     11     12     32
    31     31     11     12     33
    32     32     12     13     34
    33     33     11     15     35
    34     34     11     15     36
    35     35      4     16     37
    36     36      9      8     30
    37     37      8      7     11
    38     38     17      1     19
    39     39      3      2     20
    40     40     35     15     36
    41     41     11     15     16
    42     42     16     15     36
    43     43     13     12     33
    44     44      3      2     21
    45     45     17      1     18
    46     46      7     16     15
    47     47     27      6     28
    48     48      8      7     16
    49     49      5      4     24
    50     50     15     16     37
    51     51     12     11     31
    52     52      4      3     22
    53     53      7      6     28
    54     54      7     16     37
    55     55      9      8     29
    56     56      4      3     23
    57     57      5      4     16
    58     58     14     13     34
    59     59      4     16      7
    60     60     13     12     32
    61     61     18      1     19
    62     62      7      6     27
    63     63     25      5     26
    64     64     22      3     23
    65     65      6      5     26
    66     66     20      2     21
    67     67      4     16     15
    68     68     32     12     33
    69     69      6      5     25
    70     70     11      7     16
    71     71     12     11     15
    72     72     16     15     35
    73     73     29      8     30
    74     74     16      4     24
    75     75     15     11     31
    76     76      6      7     16

Dihedrals

     1      1      4      3      2      1 
     2      2      5      4      3      2 
     3      3      6      5      4      3 
     4      4      7      6      5      4 
     5      5      8      7      6      5 
     6      6      9      8      7      6 
     7      7     10      9      8      7 
     8      8     12     11      7      6 
     9      9     13     12     11      7 
    10     10     14     13     12     11 
    11     11     17      1      2      3 
    12     12     24      4     16      7 
    13     13     28      6      7      8 
    14     14     24      4      3     23 
    15     15     25      5      4      3 
    16     16     15     11      7      8 
    17     17     36     15     11     31 
    18     18     21      2      1     17 
    19     19     20      2      1     18 
    20     20     36     15     11      7 
    21     21     19      1      2      3 
    22     22     22      3      4     16 
    23     23     24      4     16     15 
    24     24     23      3      2     20 
    25     25     28      6      7     11 
    26     26     36     15     16      4 
    27     27     25      5      6      7 
    28     28     28      6      5      4 
    29     29     36     15     11     12 
    30     30     15     11      7      6 
    31     31     30      8      9     10 
    32     32     30      8      7     16 
    33     33     23      3      4      5 
    34     34     37     16      7     11 
    35     35     33     12     13     14 
    36     36     35     15     11      7 
    37     37     11      7     16      4 
    38     38     36     15     16      7 
    39     39     30      8      7      6 
    40     40     37     16      4     24 
    41     41     16      7      8      9 
    42     42     32     12     11     15 
    43     43     15     16      4      5 
    44     44     25      5      4     16 
    45     45     23      3      2      1 
    46     46      6      7     16      4 
    47     47     26      5      4     24 
    48     48     24      4      5      6 
    49     49     31     11      7     16 
    50     50     16     15     11     12 
    51     51     27      6      5     25 
    52     52     20      2      1     19 
    53     53     15     16      7      8 
    54     54     25      5      4     24 
    55     55     24      4      3     22 
    56     56     12     11      7      8 
    57     57     37     16      4      3 
    58     58     26      5      4      3 
    59     59     16      7      6      5 
    60     60     29      8      9     10 
    61     61     27      6      7     11 
    62     62     35     15     11     12 
    63     63     37     16     15     11 
    64     64     11      7      6      5 
    65     65     27      6      5      4 
    66     66     33     12     11     15 
    67     67     34     13     12     33 
    68     68     29      8      7     16 
    69     69     31     11     12     13 
    70     70     31     11      7      6 
    71     71      8      7     16      4 
    72     72     37     16      7      6 
    73     73     37     16      7      8 
    74     74     20      2      1     17 
    75     75     22      3      2     20 
    76     76     33     12     11      7 
    77     77     16      4      3      2 
    78     78     24      4      3      2 
    79     79     37     16     15     35 
    80     80     35     15     16      4 
    81     81     30      8      7     11 
    82     82     22      3      2     21 
    83     83     27      6      7      8 
    84     84     20      2      3      4 
    85     85     26      5      4     16 
    86     86     23      3      2     21 
    87     87     21      2      3      4 
    88     88     28      6      5     25 
    89     89     34     13     12     32 
    90     90     32     12     11     31 
    91     91     32     12     13     14 
    92     92     28      6      7     16 
    93     93     11      7      8      9 
    94     94     27      6      5     26 
    95     95     31     11      7      8 
    96     96     15     16      7      6 
    97     97      7     16      4      3 
    98     98     16      7     11     12 
    99     99     22      3      2      1 
   100    100     33     12     11     31 
   101    101     23      3      4     16 
   102    102     37     16      4      5 
   103    103     31     11     15     16 
   104    104     18      1      2      3 
   105    105      7     16      4      5 
   106    106     15     11     12     13 
   107    107     21      2      1     19 
   108    108     32     12     11      7 
   109    109     35     15     16      7 
   110    110     29      8      7     11 
   111    111     27      6      7     16 
   112    112     22      3      4      5 
   113    113     15     16      4      3 
   114    114     35     15     11     31 
   115    115     29      8      7      6 
   116    116     26      5      6      7 
   117    117     11     15     16      4 
   118    118     34     13     12     11 
   119    119     21      2      1     18 
   120    120     37     16     15     36 
   121    121     28      6      5     26 
   122    122     16      4      5      6 

Impropers

     1      1      7     11      6      8 
     2      2     11     12      7     15 
     3      3      4      3      5     16 
     4      4      1     18     17      2 
     5      5      1      2     19     17 
     6      6      2      1      3     20 
     7      7      2      1      3     21 
     8      8      3      2      4     22 
     9      9      3      2      4     23 
    10     10      4      3      5     24 
    11     11      5     25      4      6 
    12     12      5     26      4      6 
    13     13      6     27      5      7 
    14     14      6     28      5      7 
    15     15      8      9     29      7 
    16     16      8      9     30      7 
    17     17     11     12      7     31 
    18     18     12     11     13     32 
    19     19     12     33     11     13 
    20     20     13     34     12     14 
    21     21     15     35     11     16 
    22     22     15     11     36     16 
    23     23     16      4     37      7 
    24     24     11      7     15     16 
    25     25     11     15      7     16 
    26     26     11      7     15     16 
    27     27     11      7     15     16 

