LAMMPS data file Created by LigParGen - (Written by Leela S. Dodda)

      44 atoms
      44 bonds
      87 angles
     132 dihedrals
      28 impropers
 
      44 atom types
      44 bond types
      87 angle types
     132 dihedral types
      28 improper types
 
   -4.515430    45.484570 xlo xhi
   -2.942230    47.057770 ylo yhi
   -1.032150    48.967850 zlo zhi

Masses

       1     12.011  
       2     12.011  
       3     12.011  
       4     12.011  
       5     12.011  
       6     12.011  
       7     12.011  
       8     32.060  
       9     15.999  
      10     15.999  
      11     12.011  
      12     12.011  
      13     12.011  
      14     12.011  
      15     12.011  
      16     12.011  
      17     12.011  
      18     15.999  
      19      1.008  
      20      1.008  
      21      1.008  
      22      1.008  
      23      1.008  
      24      1.008  
      25      1.008  
      26      1.008  
      27      1.008  
      28      1.008  
      29      1.008  
      30      1.008  
      31      1.008  
      32      1.008  
      33      1.008  
      34      1.008  
      35      1.008  
      36      1.008  
      37      1.008  
      38      1.008  
      39      1.008  
      40      1.008  
      41      1.008  
      42      1.008  
      43      1.008  
      44      1.008  

Pair Coeffs 

       1      0.066  3.5000000 
       2      0.066  3.5000000 
       3      0.066  3.5000000 
       4      0.066  3.5000000 
       5      0.066  3.5000000 
       6      0.066  3.5000000 
       7      0.066  3.5000000 
       8      0.250  3.5500000 
       9      0.170  2.9600000 
      10      0.170  2.9600000 
      11      0.066  3.5000000 
      12      0.066  3.5000000 
      13      0.066  3.5000000 
      14      0.066  3.5000000 
      15      0.066  3.5000000 
      16      0.066  3.5000000 
      17      0.070  3.5500000 
      18      0.210  2.9600000 
      19      0.030  2.5000000 
      20      0.030  2.5000000 
      21      0.030  2.5000000 
      22      0.030  2.5000000 
      23      0.030  2.5000000 
      24      0.030  2.5000000 
      25      0.030  2.5000000 
      26      0.030  2.5000000 
      27      0.030  2.5000000 
      28      0.030  2.5000000 
      29      0.030  2.5000000 
      30      0.030  2.5000000 
      31      0.030  2.5000000 
      32      0.030  2.5000000 
      33      0.030  2.5000000 
      34      0.030  2.5000000 
      35      0.030  2.5000000 
      36      0.030  2.5000000 
      37      0.030  2.5000000 
      38      0.030  2.5000000 
      39      0.030  2.5000000 
      40      0.030  2.5000000 
      41      0.030  2.5000000 
      42      0.030  2.5000000 
      43      0.030  2.5000000 
      44      0.030  2.5000000 

Bond Coeffs 

       1   268.0000     1.5290 
       2   268.0000     1.5290 
       3   268.0000     1.5290 
       4   268.0000     1.5290 
       5   268.0000     1.5290 
       6   268.0000     1.5290 
       7   340.0000     1.7700 
       8   700.0000     1.4400 
       9   700.0000     1.4400 
      10   340.0000     1.7700 
      11   268.0000     1.5290 
      12   268.0000     1.5290 
      13   268.0000     1.5290 
      14   268.0000     1.5290 
      15   268.0000     1.5290 
      16   317.0000     1.5220 
      17   570.0000     1.2290 
      18   340.0000     1.0900 
      19   340.0000     1.0900 
      20   340.0000     1.0900 
      21   340.0000     1.0900 
      22   340.0000     1.0900 
      23   340.0000     1.0900 
      24   340.0000     1.0900 
      25   340.0000     1.0900 
      26   340.0000     1.0900 
      27   340.0000     1.0900 
      28   340.0000     1.0900 
      29   340.0000     1.0900 
      30   340.0000     1.0900 
      31   340.0000     1.0900 
      32   340.0000     1.0900 
      33   340.0000     1.0900 
      34   340.0000     1.0900 
      35   340.0000     1.0900 
      36   340.0000     1.0900 
      37   340.0000     1.0900 
      38   340.0000     1.0900 
      39   340.0000     1.0900 
      40   340.0000     1.0900 
      41   340.0000     1.0900 
      42   340.0000     1.0900 
      43   340.0000     1.0900 
      44   268.0000     1.5290 

Angle Coeffs 

       1     58.350    112.700
       2     58.350    112.700
       3     58.350    112.700
       4     58.350    112.700
       5     58.350    112.700
       6     50.000    108.600
       7     74.000    108.900
       8     74.000    108.900
       9     62.000    102.000
      10     50.000    108.600
      11     58.350    112.700
      12     58.350    112.700
      13     58.350    112.700
      14     58.350    112.700
      15     63.000    111.100
      16     80.000    120.400
      17     37.500    110.700
      18     37.500    110.700
      19     37.500    110.700
      20     37.500    110.700
      21     37.500    110.700
      22     37.500    110.700
      23     37.500    110.700
      24     37.500    110.700
      25     37.500    110.700
      26     37.500    110.700
      27     37.500    110.700
      28     37.500    110.700
      29     37.500    110.700
      30     37.500    110.700
      31     35.000    109.500
      32     35.000    109.500
      33     37.500    110.700
      34     37.500    110.700
      35     37.500    110.700
      36     37.500    110.700
      37     37.500    110.700
      38     37.500    110.700
      39     37.500    110.700
      40     37.500    110.700
      41     37.500    110.700
      42     35.000    115.000
      43     37.500    110.700
      44     33.000    107.800
      45     58.350    112.700
      46     33.000    107.800
      47     33.000    107.800
      48     37.500    110.700
      49     33.000    107.800
      50     58.350    112.700
      51     33.000    107.800
      52     33.000    107.800
      53     37.500    110.700
      54     74.000    108.900
      55     37.500    110.700
      56     58.350    112.700
      57     33.000    107.800
      58     33.000    107.800
      59     33.000    107.800
      60     37.500    110.700
      61     35.000    109.500
      62     33.000    107.800
      63     74.000    108.900
      64    104.000    119.000
      65     33.000    107.800
      66     37.500    110.700
      67     33.000    107.800
      68     37.500    110.700
      69     37.500    110.700
      70     58.350    112.700
      71     37.500    110.700
      72     37.500    110.700
      73     33.000    107.800
      74     37.500    110.700
      75     37.500    110.700
      76     58.350    112.700
      77     35.000    109.500
      78     35.000    123.000
      79     37.500    110.700
      80     37.500    110.700
      81     37.500    110.700
      82     33.000    107.800
      83     35.000    109.500
      84     50.000    108.600
      85     37.500    110.700
      86     33.000    107.800
      87     37.500    110.700

Dihedral Coeffs  

       1      1.300     -0.200      0.200      0.000 
       2      1.300     -0.200      0.200      0.000 
       3      1.300     -0.200      0.200      0.000 
       4      1.300     -0.200      0.200      0.000 
       5      0.000      0.000      0.000      0.000 
       6      0.000      0.000      0.000      0.000 
       7      1.262     -0.198      0.465      0.000 
       8      1.300     -0.200      0.200      0.000 
       9     -2.060     -0.313      0.315      0.000 
      10      0.000      0.000      0.000      0.000 
      11      0.000      0.000      0.300      0.000 
      12      0.000      0.000      0.300      0.000 
      13      0.000      0.000      0.300      0.000 
      14      0.000      0.000      0.350      0.000 
      15      0.000      0.000      0.360      0.000 
      16      0.000      0.000      0.300      0.000 
      17      1.300     -0.200      0.200      0.000 
      18      0.000      0.000      0.300      0.000 
      19      0.000      0.000      0.300      0.000 
      20      0.000      0.000      0.300      0.000 
      21      1.300     -0.200      0.200      0.000 
      22      0.000      0.000      0.350      0.000 
      23      0.000      0.000      0.000      0.000 
      24      0.000      0.000      0.300      0.000 
      25      0.000      0.000      0.300      0.000 
      26      1.300     -0.200      0.200      0.000 
      27      0.000      0.000      0.350      0.000 
      28      0.000      0.000      0.300      0.000 
      29      0.000      0.000      0.000      0.000 
      30      0.000      0.000      0.300      0.000 
      31      0.000      0.000      0.300      0.000 
      32      0.000      0.000      0.300      0.000 
      33      0.000      0.000      0.300      0.000 
      34      0.000      0.000      0.300      0.000 
      35      0.000      0.000      0.300      0.000 
      36      0.000      0.000      0.360      0.000 
      37      0.000      0.000      0.300      0.000 
      38      0.000      0.000      0.300      0.000 
      39      0.000      0.000      0.000      0.000 
      40      1.300     -0.200      0.200      0.000 
      41      1.300     -0.200      0.200      0.000 
      42      0.000      0.000      0.300      0.000 
      43      1.300     -0.200      0.200      0.000 
      44      0.000      0.000      0.300      0.000 
      45      0.000      0.000      0.300      0.000 
      46      0.000      0.000      0.300      0.000 
      47      0.000      0.000      0.300      0.000 
      48      0.000      0.000      0.300      0.000 
      49      0.000      0.000      0.300      0.000 
      50      0.000      0.000      0.300      0.000 
      51      0.000      0.000      0.300      0.000 
      52      0.000      0.000      0.000      0.000 
      53      0.000      0.000      0.000      0.000 
      54      0.000      0.000      0.000      0.000 
      55      0.000      0.000      0.300      0.000 
      56      0.000      0.000      0.300      0.000 
      57      0.000      0.000     -0.100      0.000 
      58      1.262     -0.198      0.465      0.000 
      59      0.000      0.000      0.350      0.000 
      60      1.300     -0.200      0.200      0.000 
      61      0.000      0.000      0.300      0.000 
      62      0.000      0.000      0.300      0.000 
      63      0.000      0.000      0.300      0.000 
      64      0.000      0.000      0.452      0.000 
      65      0.000      0.000      0.300      0.000 
      66      0.000      0.000      0.452      0.000 
      67      0.000      0.000      0.300      0.000 
      68      1.300     -0.200      0.200      0.000 
      69      1.300     -0.200      0.200      0.000 
      70      0.000      0.000      0.300      0.000 
      71      0.000      0.000      0.300      0.000 
      72      0.000      0.000      0.300      0.000 
      73      0.000      0.000      0.000      0.000 
      74      0.000      0.000      0.300      0.000 
      75      0.000      0.000      0.300      0.000 
      76      0.000      0.000      0.300      0.000 
      77      0.000      0.000      0.300      0.000 
      78      0.000      0.000      0.350      0.000 
      79      0.000      0.000      0.300      0.000 
      80      0.000      0.000      0.350      0.000 
      81      0.000      0.000     -0.100      0.000 
      82      0.000      0.000      0.452      0.000 
      83      0.000      0.000      0.300      0.000 
      84      0.000      0.000      0.300      0.000 
      85      0.000      0.000      0.300      0.000 
      86      1.262     -0.198      0.465      0.000 
      87      0.000      0.000      0.300      0.000 
      88      0.000      0.000      0.000      0.000 
      89      0.000      0.000      0.452      0.000 
      90      0.000      0.000      0.350      0.000 
      91      0.000      0.000      0.000      0.000 
      92      0.000      0.000      0.000      0.000 
      93      0.000      0.000      0.300      0.000 
      94      0.000      0.000      0.300      0.000 
      95      0.000      0.000      0.300      0.000 
      96      0.000      0.000      0.350      0.000 
      97      1.300     -0.200      0.200      0.000 
      98      0.000      0.000      0.300      0.000 
      99      0.000      0.000      0.300      0.000 
     100      0.000      0.000      0.300      0.000 
     101      0.000      0.000      0.452      0.000 
     102      0.000      0.000      0.300      0.000 
     103      0.000      0.000      0.300      0.000 
     104      0.000      0.000      0.350      0.000 
     105      0.000      0.000      0.300      0.000 
     106      0.000      0.000      0.300      0.000 
     107      0.000      0.000      0.300      0.000 
     108      0.000      0.000      0.300      0.000 
     109      0.000      0.000      0.300      0.000 
     110      0.000      0.000      0.300      0.000 
     111      0.000      0.000      0.300      0.000 
     112      0.000      0.000      0.300      0.000 
     113      0.000      0.000      0.300      0.000 
     114      0.000      0.000      0.300      0.000 
     115      0.000      0.000      0.300      0.000 
     116      0.000      0.000      0.300      0.000 
     117      0.000      0.000      0.300      0.000 
     118      0.000      0.000      0.300      0.000 
     119      0.000      0.000      0.300      0.000 
     120      0.000      0.000      0.300      0.000 
     121      0.000      0.000      0.300      0.000 
     122      0.000      0.000      0.300      0.000 
     123      0.000      0.000      0.300      0.000 
     124      0.000      0.000      0.300      0.000 
     125      0.000      0.000      0.300      0.000 
     126      0.000      0.000      0.300      0.000 
     127      0.000      0.000      0.300      0.000 
     128      0.000      0.000      0.300      0.000 
     129      1.262     -0.198      0.465      0.000 
     130      0.000      0.000      0.300      0.000 
     131      0.000      0.000      0.300      0.000 
     132      1.300     -0.200      0.200      0.000 

Improper Coeffs 

       1      0.000      -1       2 
       2      0.000      -1       2 
       3      0.000      -1       2 
       4      0.000      -1       2 
       5      0.000      -1       2 
       6      0.000      -1       2 
       7      0.000      -1       2 
       8      0.000      -1       2 
       9      0.000      -1       2 
      10      0.000      -1       2 
      11      0.000      -1       2 
      12      0.000      -1       2 
      13      0.000      -1       2 
      14      0.000      -1       2 
      15      0.000      -1       2 
      16      0.000      -1       2 
      17      0.000      -1       2 
      18      0.000      -1       2 
      19      0.000      -1       2 
      20      0.000      -1       2 
      21      0.000      -1       2 
      22      0.000      -1       2 
      23      0.000      -1       2 
      24      0.000      -1       2 
      25      0.000      -1       2 
      26      0.000      -1       2 
      27      0.000      -1       2 
      28     10.500      -1       2 

Atoms 

     1      1      1 -0.23990000    1.000  1.00000  0.00000
     2      1      2 -0.17380000   -0.524  1.00000  0.00000
     3      1      3 -0.10090000   -1.224  1.00000  1.39242
     4      1      4 -0.15130000   -0.795 -0.29055  2.14240
     5      1      5 -0.40490000   -1.469 -0.69276  3.45992
     6      1      6 -0.15460000   -2.979 -0.95992  3.44864
     7      1      7 -0.22640000   -3.437 -1.98402  2.42809
     8      1      8 1.29460000   -1.017  0.40285  4.80458
     9      1      9 -0.57510000    0.360  0.82568  4.63020
    10      1     10 -0.57510000   -1.399 -0.25335  6.04296
    11      1     11 -0.50770000   -2.059  1.82098  4.64517
    12      1     12 -0.07220000   -2.219  2.51078  3.28364
    13      1     13 -0.23640000   -3.646  2.43411  2.69814
    14      1     14 -0.10910000   -1.065  2.32686  2.23273
    15      1     15 -0.16040000   -0.945  3.62939  1.37603
    16      1     16 -0.26130000   -0.539  4.86697  2.20603
    17      1     17 0.30930000   -0.359  6.11333  1.38291
    18      1     18 -0.44250000   -0.512  6.17560  0.16623
    19      1     19 0.08520000    1.365  0.95252 -1.03215
    20      1     20 0.08520000    1.410  0.12903  0.51819
    21      1     21 0.08520000    1.410  1.90219  0.45945
    22      1     22 0.09110000   -0.850  0.10160 -0.54301
    23      1     23 0.09110000   -0.888  1.83872 -0.60384
    24      1     24 0.09740000   -2.278  0.87361  1.13435
    25      1     25 0.11450000    0.283 -0.23235  2.33491
    26      1     26 0.11450000   -0.911 -1.13543  1.44967
    27      1     27 0.16470000   -0.994 -1.64188  3.75202
    28      1     28 0.10210000   -3.541 -0.04542  3.29055
    29      1     29 0.10210000   -3.286 -1.30997  4.44251
    30      1     30 0.08770000   -3.253 -1.64238  1.40595
    31      1     31 0.08770000   -4.515 -2.14585  2.53389
    32      1     32 0.08770000   -2.933 -2.94223  2.58105
    33      1     33 0.16570000   -1.609  2.54400  5.34095
    34      1     34 0.16570000   -3.032  1.55722  5.07190
    35      1     35 0.09440000   -2.198  3.55494  3.60305
    36      1     36 0.08800000   -3.850  1.54189  2.10725
    37      1     37 0.08800000   -3.832  3.28737  2.03676
    38      1     38 0.08800000   -4.400  2.47195  3.49100
    39      1     39 0.12790000   -0.107  2.26345  2.75879
    40      1     40 0.10910000   -1.882  3.82648  0.84128
    41      1     41 0.10910000   -0.172  3.50803  0.60997
    42      1     42 0.12450000    0.409  4.67712  2.72459
    43      1     43 0.12450000   -1.294  5.13290  2.95187
    44      1     44 0.10670000   -0.070  7.01236  1.95954

Bonds 

     1      1      2      1
     2      2      3      2
     3      3      4      3
     4      4      5      4
     5      5      6      5
     6      6      7      6
     7      7      8      5
     8      8      9      8
     9      9     10      8
    10     10     11      8
    11     11     12     11
    12     12     13     12
    13     13     14      3
    14     14     15     14
    15     15     16     15
    16     16     17     16
    17     17     18     17
    18     18     19      1
    19     19     20      1
    20     20     21      1
    21     21     22      2
    22     22     23      2
    23     23     24      3
    24     24     25      4
    25     25     26      4
    26     26     27      5
    27     27     28      6
    28     28     29      6
    29     29     30      7
    30     30     31      7
    31     31     32      7
    32     32     33     11
    33     33     34     11
    34     34     35     12
    35     35     36     13
    36     36     37     13
    37     37     38     13
    38     38     39     14
    39     39     40     15
    40     40     41     15
    41     41     42     16
    42     42     43     16
    43     43     44     17
    44     44     14     12

Angles 

     1      1      1      2      3
     2      2      2      3      4
     3      3      3      4      5
     4      4      4      5      6
     5      5      5      6      7
     6      6      4      5      8
     7      7      5      8      9
     8      8      5      8     10
     9      9      5      8     11
    10     10      8     11     12
    11     11     11     12     13
    12     12      2      3     14
    13     13      3     14     15
    14     14     14     15     16
    15     15     15     16     17
    16     16     16     17     18
    17     17      2      1     19
    18     18      2      1     20
    19     19      2      1     21
    20     20      1      2     22
    21     21      1      2     23
    22     22      2      3     24
    23     23      3      4     25
    24     24      3      4     26
    25     25      4      5     27
    26     26      5      6     28
    27     27      5      6     29
    28     28      6      7     30
    29     29      6      7     31
    30     30      6      7     32
    31     31      8     11     33
    32     32      8     11     34
    33     33     11     12     35
    34     34     12     13     36
    35     35     12     13     37
    36     36     12     13     38
    37     37      3     14     39
    38     38     14     15     40
    39     39     14     15     41
    40     40     15     16     42
    41     41     15     16     43
    42     42     16     17     44
    43     43     16     15     40
    44     44     33     11     34
    45     45     13     12     14
    46     46     25      4     26
    47     47     19      1     21
    48     48      4      3     24
    49     49     30      7     32
    50     50      4      3     14
    51     51     20      1     21
    52     52     36     13     37
    53     53     16     15     41
    54     54     10      8     11
    55     55      5      4     26
    56     56     12     14     15
    57     57     42     16     43
    58     58     36     13     38
    59     59     31      7     32
    60     60      5      4     25
    61     61      8      5     27
    62     62     37     13     38
    63     63      9      8     11
    64     64      9      8     10
    65     65     30      7     31
    66     66     14      3     24
    67     67     28      6     29
    68     68      7      6     28
    69     69      6      5     27
    70     70      3     14     12
    71     71      7      6     29
    72     72     12     11     34
    73     73     22      2     23
    74     74     12     11     33
    75     75     15     14     39
    76     76     11     12     14
    77     77     17     16     43
    78     78     18     17     44
    79     79     14     12     35
    80     80      3      2     22
    81     81      3      2     23
    82     82     40     15     41
    83     83     17     16     42
    84     84      6      5      8
    85     85     13     12     35
    86     86     19      1     20
    87     87     12     14     39

Dihedrals

     1      1      4      3      2      1 
     2      2      5      4      3      2 
     3      3      6      5      4      3 
     4      4      7      6      5      4 
     5      5      9      8      5      4 
     6      6     12     11      8      5 
     7      7     13     12     11      8 
     8      8     16     15     14      3 
     9      9     17     16     15     14 
    10     10     18     17     16     15 
    11     11     19      1      2      3 
    12     12     30      7      6      5 
    13     13     36     13     12     11 
    14     14     33     11      8      5 
    15     15     44     17     16     43 
    16     16     31      7      6      5 
    17     17     15     14      3      4 
    18     18     37     13     12     35 
    19     19     29      6      5      4 
    20     20     39     14     15     16 
    21     21     11     12     14      3 
    22     22     33     11      8      9 
    23     23     43     16     17     18 
    24     24     24      3     14     12 
    25     25     39     14     12     35 
    26     26     12     14      3      2 
    27     27     27      5      8     11 
    28     28     32      7      6     28 
    29     29     12     11      8     10 
    30     30     41     15     14     12 
    31     31     39     14      3     24 
    32     32     40     15     14     12 
    33     33     28      6      5      4 
    34     34     32      7      6     29 
    35     35     25      4      5      6 
    36     36     44     17     16     42 
    37     37     23      2      3      4 
    38     38     24      3      2     22 
    39     39     11      8      5      6 
    40     40     15     14     12     11 
    41     41     15     14      3      2 
    42     42     22      2      1     20 
    43     43     14      3      4      5 
    44     44     34     11     12     13 
    45     45     33     11     12     14 
    46     46     26      4      3      2 
    47     47     43     16     15     40 
    48     48     40     15     14     39 
    49     49     26      4      3     14 
    50     50     31      7      6     28 
    51     51     38     13     12     14 
    52     52     12     11      8      9 
    53     53     10      8      5      4 
    54     54     44     17     16     15 
    55     55     23      2      1     19 
    56     56     25      4      3     24 
    57     57     41     15     16     17 
    58     58     14     12     11      8 
    59     59     27      5      8      9 
    60     60     13     12     14      3 
    61     61     27      5      4     25 
    62     62     37     13     12     11 
    63     63     35     12     11     33 
    64     64     25      4      5      8 
    65     65     21      1      2      3 
    66     66     26      4      5      8 
    67     67     35     12     14      3 
    68     68     16     15     14     12 
    69     69     12     14      3      4 
    70     70     43     16     15     14 
    71     71     27      5      6      7 
    72     72     38     13     12     35 
    73     73      9      8      5      6 
    74     74     24      3      4      5 
    75     75     41     15     14     39 
    76     76     22      2      1     19 
    77     77     41     15     14      3 
    78     78     33     11      8     10 
    79     79     38     13     12     11 
    80     80     34     11      8     10 
    81     81     40     15     16     17 
    82     82     29      6      5      8 
    83     83     30      7      6     29 
    84     84     40     15     14      3 
    85     85     39     14     12     11 
    86     86      8      5      6      7 
    87     87     35     12     14     15 
    88     88     10      8      5      6 
    89     89     28      6      5      8 
    90     90     34     11      8      9 
    91     91     11      8      5      4 
    92     92     42     16     17     18 
    93     93     24      3     14     15 
    94     94     29      6      5     27 
    95     95     39     14     12     13 
    96     96     27      5      8     10 
    97     97     14      3      2      1 
    98     98     23      2      1     21 
    99     99     31      7      6     29 
   100    100     35     12     11     34 
   101    101     35     12     11      8 
   102    102     24      3      2     23 
   103    103     24      3      2      1 
   104    104     34     11      8      5 
   105    105     20      1      2      3 
   106    106     32      7      6      5 
   107    107     42     16     15     40 
   108    108     37     13     12     14 
   109    109     42     16     15     41 
   110    110     26      4      5      6 
   111    111     27      5      4     26 
   112    112     23      2      3     14 
   113    113     22      2      3     14 
   114    114     42     16     15     14 
   115    115     27      5      4      3 
   116    116     25      4      3     14 
   117    117     23      2      1     20 
   118    118     22      2      1     21 
   119    119     22      2      3      4 
   120    120     28      6      5     27 
   121    121     34     11     12     14 
   122    122     25      4      3      2 
   123    123     33     11     12     13 
   124    124     39     14      3      4 
   125    125     43     16     15     41 
   126    126     39     14      3      2 
   127    127     36     13     12     14 
   128    128     26      4      3     24 
   129    129      8      5      4      3 
   130    130     36     13     12     35 
   131    131     30      7      6     28 
   132    132     15     14     12     13 

Impropers

     1      1      5      4      6      8 
     2      2      8      9     10      5 
     3      3      8      9     11      5 
     4      4      3      2      4     14 
     5      5     14      3     12     15 
     6      6      1      2     19     20 
     7      7      1      2     19     21 
     8      8      2      1      3     22 
     9      9      2      1      3     23 
    10     10      3      2      4     24 
    11     11      4     25      3      5 
    12     12      4     26      3      5 
    13     13      5     27      4      6 
    14     14      6     28      5      7 
    15     15      6      5     29      7 
    16     16      7     30     31      6 
    17     17      7     30      6     32 
    18     18     11     33     12      8 
    19     19     11     34     12      8 
    20     20     12     35     13     11 
    21     21     13     12     37     36 
    22     22     13     36     12     38 
    23     23     14      3     12     39 
    24     24     15     16     14     40 
    25     25     15     41     14     16 
    26     26     16     17     42     15 
    27     27     16     17     43     15 
    28     28     17     18     44     16 

