LAMMPS data file Created by LigParGen - (Written by Leela S. Dodda)

      29 atoms
      28 bonds
      54 angles
      72 dihedrals
      18 impropers
 
      29 atom types
      28 bond types
      54 angle types
      72 dihedral types
      18 improper types
 
   -5.051410    44.948590 xlo xhi
   -2.308480    47.691520 ylo yhi
   -1.028410    48.971590 zlo zhi

Masses

       1     12.011  
       2     12.011  
       3     12.011  
       4     12.011  
       5     12.011  
       6     12.011  
       7     12.011  
       8     12.011  
       9     12.011  
      10     35.450  
      11      1.008  
      12      1.008  
      13      1.008  
      14      1.008  
      15      1.008  
      16      1.008  
      17      1.008  
      18      1.008  
      19      1.008  
      20      1.008  
      21      1.008  
      22      1.008  
      23      1.008  
      24      1.008  
      25      1.008  
      26      1.008  
      27      1.008  
      28      1.008  
      29      1.008  

Pair Coeffs 

       1      0.066  3.5000000 
       2      0.066  3.5000000 
       3      0.066  3.5000000 
       4      0.066  3.5000000 
       5      0.066  3.5000000 
       6      0.066  3.5000000 
       7      0.066  3.5000000 
       8      0.066  3.5000000 
       9      0.066  3.5000000 
      10      0.300  3.4000000 
      11      0.030  2.5000000 
      12      0.030  2.5000000 
      13      0.030  2.5000000 
      14      0.030  2.5000000 
      15      0.030  2.5000000 
      16      0.030  2.5000000 
      17      0.030  2.5000000 
      18      0.030  2.5000000 
      19      0.030  2.5000000 
      20      0.030  2.5000000 
      21      0.030  2.5000000 
      22      0.030  2.5000000 
      23      0.030  2.5000000 
      24      0.030  2.5000000 
      25      0.030  2.5000000 
      26      0.030  2.5000000 
      27      0.030  2.5000000 
      28      0.030  2.5000000 
      29      0.030  2.5000000 

Bond Coeffs 

       1   268.0000     1.5290 
       2   268.0000     1.5290 
       3   268.0000     1.5290 
       4   268.0000     1.5290 
       5   268.0000     1.5290 
       6   268.0000     1.5290 
       7   268.0000     1.5290 
       8   268.0000     1.5290 
       9   245.0000     1.7810 
      10   340.0000     1.0900 
      11   340.0000     1.0900 
      12   340.0000     1.0900 
      13   340.0000     1.0900 
      14   340.0000     1.0900 
      15   340.0000     1.0900 
      16   340.0000     1.0900 
      17   340.0000     1.0900 
      18   340.0000     1.0900 
      19   340.0000     1.0900 
      20   340.0000     1.0900 
      21   340.0000     1.0900 
      22   340.0000     1.0900 
      23   340.0000     1.0900 
      24   340.0000     1.0900 
      25   340.0000     1.0900 
      26   340.0000     1.0900 
      27   340.0000     1.0900 
      28   340.0000     1.0900 

Angle Coeffs 

       1     58.350    112.700
       2     58.350    112.700
       3     58.350    112.700
       4     58.350    112.700
       5     58.350    112.700
       6     58.350    112.700
       7     58.350    112.700
       8     69.000    109.800
       9     37.500    110.700
      10     37.500    110.700
      11     37.500    110.700
      12     37.500    110.700
      13     37.500    110.700
      14     37.500    110.700
      15     37.500    110.700
      16     37.500    110.700
      17     37.500    110.700
      18     37.500    110.700
      19     37.500    110.700
      20     37.500    110.700
      21     37.500    110.700
      22     37.500    110.700
      23     37.500    110.700
      24     37.500    110.700
      25     37.500    110.700
      26     37.500    110.700
      27     37.500    110.700
      28     33.000    107.800
      29     33.000    107.800
      30     37.500    110.700
      31     37.500    110.700
      32     33.000    107.800
      33     51.000    107.600
      34     33.000    107.800
      35     58.350    112.700
      36     33.000    107.800
      37     51.000    107.600
      38     33.000    107.800
      39     58.350    112.700
      40     37.500    110.700
      41     33.000    107.800
      42     33.000    107.800
      43     37.500    110.700
      44     33.000    107.800
      45     33.000    107.800
      46     33.000    107.800
      47     33.000    107.800
      48     33.000    107.800
      49     58.350    112.700
      50     37.500    110.700
      51     37.500    110.700
      52     37.500    110.700
      53     33.000    107.800
      54     37.500    110.700

Dihedral Coeffs  

       1      1.300     -0.200      0.200      0.000 
       2      1.300     -0.200      0.200      0.000 
       3      1.300     -0.200      0.200      0.000 
       4      1.300     -0.200      0.200      0.000 
       5      0.000      0.000      0.400      0.000 
       6      0.000      0.000      0.300      0.000 
       7      0.000      0.000      0.300      0.000 
       8      0.000      0.000      0.300      0.000 
       9      0.000      0.000      0.300      0.000 
      10      0.000      0.000      0.300      0.000 
      11      0.000      0.000      0.300      0.000 
      12      0.000      0.000      0.300      0.000 
      13      0.000      0.000      0.300      0.000 
      14      0.000      0.000      0.300      0.000 
      15      0.000      0.000      0.300      0.000 
      16      0.000      0.000      0.300      0.000 
      17      0.000      0.000      0.300      0.000 
      18      0.000      0.000      0.300      0.000 
      19      0.000      0.000      0.300      0.000 
      20      0.000      0.000      0.300      0.000 
      21      0.000      0.000      0.300      0.000 
      22      0.000      0.000      0.300      0.000 
      23      0.000      0.000      0.300      0.000 
      24      0.000      0.000      0.300      0.000 
      25      0.000      0.000      0.300      0.000 
      26      0.000      0.000      0.300      0.000 
      27      0.000      0.000      0.300      0.000 
      28      0.000      0.000      0.300      0.000 
      29      0.000      0.000      0.300      0.000 
      30      0.000      0.000      0.300      0.000 
      31      0.000      0.000      0.300      0.000 
      32      0.000      0.000      0.300      0.000 
      33      0.000      0.000      0.300      0.000 
      34      0.000      0.000      0.300      0.000 
      35      0.000      0.000      0.300      0.000 
      36      0.000      0.000      0.300      0.000 
      37      0.000      0.000      0.300      0.000 
      38      0.000      0.000      0.300      0.000 
      39      0.000      0.000      0.300      0.000 
      40      0.000      0.000      0.300      0.000 
      41      0.000      0.000      0.300      0.000 
      42      0.000      0.000      0.300      0.000 
      43      0.000      0.000      0.300      0.000 
      44      0.000      0.000      0.300      0.000 
      45      0.000      0.000      0.300      0.000 
      46      0.000      0.000      0.300      0.000 
      47      0.000      0.000      0.300      0.000 
      48      0.000      0.000      0.300      0.000 
      49      0.000      0.000      0.300      0.000 
      50      0.000      0.000      0.300      0.000 
      51      0.000      0.000      0.400      0.000 
      52      0.000      0.000      0.400      0.000 
      53      0.000      0.000      0.300      0.000 
      54      1.300     -0.200      0.200      0.000 
      55      0.000      0.000      0.300      0.000 
      56      1.300     -0.200      0.200      0.000 
      57      0.000      0.000      0.300      0.000 
      58      0.000      0.000      0.300      0.000 
      59      0.000      0.000      0.300      0.000 
      60      1.300     -0.200      0.200      0.000 
      61      0.000      0.000      0.300      0.000 
      62      0.000      0.000      0.300      0.000 
      63      1.300     -0.200      0.200      0.000 
      64      0.000      0.000      0.300      0.000 
      65      0.000      0.000      0.300      0.000 
      66      1.300     -0.200      0.200      0.000 
      67      0.000      0.000      0.300      0.000 
      68      0.000      0.000      0.300      0.000 
      69      1.300     -0.200      0.200      0.000 
      70      0.000      0.000      0.300      0.000 
      71      0.000      0.000      0.300      0.000 
      72      0.000      0.000      0.300      0.000 

Improper Coeffs 

       1      0.000      -1       2 
       2      0.000      -1       2 
       3      0.000      -1       2 
       4      0.000      -1       2 
       5      0.000      -1       2 
       6      0.000      -1       2 
       7      0.000      -1       2 
       8      0.000      -1       2 
       9      0.000      -1       2 
      10      0.000      -1       2 
      11      0.000      -1       2 
      12      0.000      -1       2 
      13      0.000      -1       2 
      14      0.000      -1       2 
      15      0.000      -1       2 
      16      0.000      -1       2 
      17      0.000      -1       2 
      18      0.000      -1       2 

Atoms 

     1      1      1 -0.23900000    1.000  1.00000  0.00000
     2      1      2 -0.17860000   -0.521  1.00000  0.00000
     3      1      3 -0.17120000   -1.085  1.00000  1.42729
     4      1      4 -0.04130000   -2.646  1.06486  1.54235
     5      1      5 -0.16930000   -3.314 -0.15752  0.83539
     6      1      6 -0.23390000   -2.889 -1.53550  1.33343
     7      1      7 -0.17260000   -2.990  1.07973  3.06867
     8      1      8 -0.23710000   -4.475  1.05307  3.42121
     9      1      9 0.02420000   -3.200  2.33857  0.83352
    10      1     10 -0.28970000   -2.566  3.87657  1.47683
    11      1     11 0.08200000    1.376  0.99870 -1.02841
    12      1     12 0.08200000    1.393  0.11377  0.50673
    13      1     13 0.08200000    1.391  1.89085  0.50098
    14      1     14 0.08880000   -0.869  0.11696 -0.54653
    15      1     15 0.08880000   -0.859  1.88390 -0.54994
    16      1     16 0.09690000   -0.642  1.84126  1.97531
    17      1     17 0.09690000   -0.719  0.10151  1.94441
    18      1     18 0.08720000   -3.118 -0.11106 -0.24286
    19      1     19 0.08720000   -4.405 -0.08452  0.93118
    20      1     20 0.08380000   -1.824 -1.71502  1.16000
    21      1     21 0.08380000   -3.440 -2.30848  0.78805
    22      1     22 0.08380000   -3.098 -1.66634  2.39721
    23      1     23 0.09620000   -2.548  1.96717  3.53690
    24      1     24 0.09620000   -2.511  0.22665  3.56560
    25      1     25 0.08190000   -5.051  1.79335  2.86164
    26      1     26 0.08190000   -4.606  1.27546  4.48533
    27      1     27 0.08190000   -4.907  0.06482  3.23735
    28      1     28 0.11360000   -4.290  2.39298  0.90855
    29      1     29 0.11360000   -2.970  2.32727 -0.23631

Bonds 

     1      1      2      1
     2      2      3      2
     3      3      4      3
     4      4      5      4
     5      5      6      5
     6      6      7      4
     7      7      8      7
     8      8      9      4
     9      9     10      9
    10     10     11      1
    11     11     12      1
    12     12     13      1
    13     13     14      2
    14     14     15      2
    15     15     16      3
    16     16     17      3
    17     17     18      5
    18     18     19      5
    19     19     20      6
    20     20     21      6
    21     21     22      6
    22     22     23      7
    23     23     24      7
    24     24     25      8
    25     25     26      8
    26     26     27      8
    27     27     28      9
    28     28     29      9

Angles 

     1      1      1      2      3
     2      2      2      3      4
     3      3      3      4      5
     4      4      4      5      6
     5      5      3      4      7
     6      6      4      7      8
     7      7      3      4      9
     8      8      4      9     10
     9      9      2      1     11
    10     10      2      1     12
    11     11      2      1     13
    12     12      1      2     14
    13     13      1      2     15
    14     14      2      3     16
    15     15      2      3     17
    16     16      4      5     18
    17     17      4      5     19
    18     18      5      6     20
    19     19      5      6     21
    20     20      5      6     22
    21     21      4      7     23
    22     22      4      7     24
    23     23      7      8     25
    24     24      7      8     26
    25     25      7      8     27
    26     26      4      9     28
    27     27      4      9     29
    28     28     25      8     27
    29     29     16      3     17
    30     30      3      2     14
    31     31      3      2     15
    32     32     11      1     13
    33     33     10      9     28
    34     34     20      6     21
    35     35      5      4      7
    36     36     21      6     22
    37     37     10      9     29
    38     38     20      6     22
    39     39      5      4      9
    40     40      6      5     19
    41     41     11      1     12
    42     42     28      9     29
    43     43      8      7     23
    44     44     23      7     24
    45     45     12      1     13
    46     46     14      2     15
    47     47     25      8     26
    48     48     18      5     19
    49     49      7      4      9
    50     50      4      3     16
    51     51      4      3     17
    52     52      8      7     24
    53     53     26      8     27
    54     54      6      5     18

Dihedrals

     1      1      4      3      2      1 
     2      2      5      4      3      2 
     3      3      6      5      4      3 
     4      4      8      7      4      3 
     5      5     10      9      4      3 
     6      6     11      1      2      3 
     7      7     20      6      5      4 
     8      8     25      8      7      4 
     9      9     25      8      7     23 
    10     10     16      3      4      9 
    11     11     15      2      3      4 
    12     12     17      3      4      9 
    13     13     29      9      4      5 
    14     14     29      9      4      3 
    15     15     15      2      1     12 
    16     16     17      3      2     14 
    17     17     23      7      4      3 
    18     18     19      5      4      9 
    19     19     22      6      5      4 
    20     20     19      5      4      7 
    21     21     20      6      5     19 
    22     22     22      6      5     19 
    23     23     24      7      4      3 
    24     24     17      3      2     15 
    25     25     21      6      5     18 
    26     26     22      6      5     18 
    27     27     14      2      1     11 
    28     28     21      6      5     19 
    29     29     12      1      2      3 
    30     30     26      8      7      4 
    31     31     18      5      4      9 
    32     32     23      7      4      5 
    33     33     26      8      7     24 
    34     34     16      3      4      7 
    35     35     19      5      4      3 
    36     36     14      2      3      4 
    37     37     28      9      4      5 
    38     38     23      7      4      9 
    39     39     24      7      4      9 
    40     40     16      3      2      1 
    41     41     14      2      1     12 
    42     42     28      9      4      3 
    43     43     17      3      4      5 
    44     44     27      8      7     23 
    45     45     17      3      2      1 
    46     46     17      3      4      7 
    47     47     16      3      2     14 
    48     48     18      5      4      7 
    49     49     28      9      4      7 
    50     50     13      1      2      3 
    51     51     10      9      4      7 
    52     52     10      9      4      5 
    53     53     21      6      5      4 
    54     54      8      7      4      5 
    55     55     14      2      1     13 
    56     56      7      4      3      2 
    57     57     24      7      4      5 
    58     58     20      6      5     18 
    59     59     27      8      7      4 
    60     60      9      4      3      2 
    61     61     29      9      4      7 
    62     62     16      3      2     15 
    63     63      9      4      7      8 
    64     64     16      3      4      5 
    65     65     15      2      1     11 
    66     66      7      4      5      6 
    67     67     27      8      7     24 
    68     68     18      5      4      3 
    69     69      9      4      5      6 
    70     70     15      2      1     13 
    71     71     25      8      7     24 
    72     72     26      8      7     23 

Impropers

     1      1      4      3      5      7 
     2      2      4      9      3      5 
     3      3      1      2     11     12 
     4      4      1      2     11     13 
     5      5      2      1      3     14 
     6      6      2      1      3     15 
     7      7      3      2      4     16 
     8      8      3     17      2      4 
     9      9      5     18      4      6 
    10     10      5     19      4      6 
    11     11      6      5     20     21 
    12     12      6     20      5     22 
    13     13      7      4     23      8 
    14     14      7      8      4     24 
    15     15      8     25     26      7 
    16     16      8     25     27      7 
    17     17      9      4     28     10 
    18     18      9     10      4     29 

