LAMMPS data file Created by LigParGen - (Written by Leela S. Dodda)

      34 atoms
      34 bonds
      65 angles
      85 dihedrals
      20 impropers
 
      34 atom types
      34 bond types
      65 angle types
      85 dihedral types
      20 improper types
 
   -4.319760    45.680240 xlo xhi
   -5.709240    44.290760 ylo yhi
   -1.025820    48.974180 zlo zhi

Masses

       1     12.011  
       2     12.011  
       3     12.011  
       4     12.011  
       5     12.011  
       6     15.999  
       7     12.011  
       8     15.999  
       9     12.011  
      10     32.060  
      11     15.999  
      12     15.999  
      13     12.011  
      14     32.060  
      15     15.999  
      16     15.999  
      17     15.999  
      18     12.011  
      19      1.008  
      20      1.008  
      21      1.008  
      22      1.008  
      23      1.008  
      24      1.008  
      25      1.008  
      26      1.008  
      27      1.008  
      28      1.008  
      29      1.008  
      30      1.008  
      31      1.008  
      32      1.008  
      33      1.008  
      34      1.008  

Pair Coeffs 

       1      0.066  3.5000000 
       2      0.066  3.5000000 
       3      0.083  3.4500000 
       4      0.083  3.4500000 
       5      0.070  3.5500000 
       6      0.210  2.9600000 
       7      0.083  3.4500000 
       8      0.140  2.9000000 
       9      0.066  3.5000000 
      10      0.250  3.5500000 
      11      0.170  2.9600000 
      12      0.170  2.9600000 
      13      0.066  3.5000000 
      14      0.250  3.5500000 
      15      0.170  2.9600000 
      16      0.170  2.9600000 
      17      0.140  2.9000000 
      18      0.066  3.5000000 
      19      0.030  2.5000000 
      20      0.030  2.5000000 
      21      0.030  2.5000000 
      22      0.030  2.5000000 
      23      0.030  2.5000000 
      24      0.030  2.5000000 
      25      0.030  2.5000000 
      26      0.030  2.5000000 
      27      0.030  2.5000000 
      28      0.030  2.5000000 
      29      0.030  2.5000000 
      30      0.030  2.5000000 
      31      0.030  2.5000000 
      32      0.030  2.5000000 
      33      0.030  2.5000000 
      34      0.030  2.5000000 

Bond Coeffs 

       1   268.0000     1.5290 
       2   280.0000     1.5100 
       3   260.0000     1.5200 
       4   317.0000     1.5220 
       5   570.0000     1.2290 
       6   260.0000     1.5200 
       7   320.0000     1.4100 
       8   320.0000     1.4100 
       9   340.0000     1.7700 
      10   700.0000     1.4400 
      11   700.0000     1.4400 
      12   340.0000     1.7700 
      13   340.0000     1.7700 
      14   700.0000     1.4400 
      15   700.0000     1.4400 
      16   293.9700     1.6600 
      17   320.0000     1.4100 
      18   340.0000     1.0900 
      19   340.0000     1.0900 
      20   340.0000     1.0900 
      21   340.0000     1.0900 
      22   340.0000     1.0900 
      23   340.0000     1.0880 
      24   340.0000     1.0880 
      25   340.0000     1.0900 
      26   340.0000     1.0880 
      27   340.0000     1.0900 
      28   340.0000     1.0900 
      29   340.0000     1.0900 
      30   340.0000     1.0900 
      31   340.0000     1.0900 
      32   340.0000     1.0900 
      33   340.0000     1.0900 
      34   260.0000     1.5200 

Angle Coeffs 

       1     58.350    112.700
       2     37.500    117.200
       3     63.000    111.100
       4     80.000    120.400
       5     37.500    117.200
       6     50.000    109.500
       7     60.000    109.500
       8     51.650    110.580
       9     74.000    108.900
      10     74.000    108.900
      11     62.000    102.000
      12     51.650    110.580
      13     74.000    108.900
      14     74.000    108.900
      15     78.670    104.360
      16     69.510    114.540
      17     37.500    110.700
      18     37.500    110.700
      19     37.500    110.700
      20     37.500    110.700
      21     37.500    110.700
      22     35.000    114.300
      23     37.500    117.200
      24     35.000    115.000
      25     37.500    117.200
      26     35.000    109.500
      27     35.000    109.500
      28     35.000    109.500
      29     35.000    109.500
      30     35.000    109.500
      31     35.000    109.500
      32     35.000    109.500
      33     35.000    109.500
      34     30.000     83.000
      35     35.000    109.500
      36     35.000    109.500
      37    104.000    119.000
      38     33.000    107.800
      39     35.000    109.500
      40     63.000    111.100
      41     35.000    109.500
      42     33.000    107.800
      43     30.000     83.000
      44     74.000    108.900
      45     30.000     83.000
      46     37.500    117.200
      47     37.500    117.200
      48     37.500    110.700
      49     37.500    110.700
      50     33.000    107.800
      51     74.000    108.900
      52     35.000    109.500
      53     50.000    109.500
      54     37.500    117.200
      55     33.000    107.800
      56     35.000    123.000
      57     33.000    107.800
      58     78.670    104.360
      59     33.000    107.800
      60    104.000    119.000
      61     78.670    104.360
      62     33.000    107.800
      63     33.000    107.800
      64     37.500    117.200
      65     33.000    107.800

Dihedral Coeffs  

       1      0.000      0.000      0.000      0.000 
       2      0.000      0.000      0.000      0.000 
       3      0.000      0.000      0.000      0.000 
       4      0.000      0.000      0.000      0.000 
       5      0.000      0.000      0.000      0.000 
       6      0.650     -0.250      0.670      0.000 
       7      0.000      0.000      0.760      0.000 
       8      0.000      0.000      0.000      0.000 
       9      0.000      0.000      0.350      0.000 
      10      0.000      0.000      0.000      0.000 
      11      0.650     -0.250      0.670      0.000 
      12      0.000      0.000      0.300      0.000 
      13      0.000      0.000      0.000      0.000 
      14      0.000      0.000      0.760      0.000 
      15      0.000      0.000      0.000      0.000 
      16      0.000      0.000      0.000      0.000 
      17      0.000      0.000      0.000      0.000 
      18      0.000      0.000      0.000      0.000 
      19      0.000      0.000      0.000      0.000 
      20      0.000      0.000      0.000      0.000 
      21      0.000      0.000      0.000      0.000 
      22      0.000      0.000      0.350      0.000 
      23      0.000      0.000      0.350      0.000 
      24      0.000      0.000      0.300      0.000 
      25      0.000      0.000      0.350      0.000 
      26      0.000      0.000      0.000      0.000 
      27      0.000      0.000      0.300      0.000 
      28      0.000      0.000      0.300      0.000 
      29      0.000      0.000      0.760      0.000 
      30      0.000      0.000      0.000      0.000 
      31      0.000      0.000      0.350      0.000 
      32      0.000      0.000      0.000      0.000 
      33      0.000      0.000      0.000      0.000 
      34      0.000      0.000      0.000      0.000 
      35      0.000      0.000      0.760      0.000 
      36      0.000      0.000      0.760      0.000 
      37      0.000      0.000      0.000      0.000 
      38      0.000      0.000      0.350      0.000 
      39      0.000      0.000      0.350      0.000 
      40      0.000      0.000      0.350      0.000 
      41      0.000      0.000      0.300      0.000 
      42      0.000      0.000      0.300      0.000 
      43      0.650     -0.250      0.670      0.000 
      44      0.000      0.000      0.000      0.000 
      45      0.000      0.000      0.000      0.000 
      46      0.000      0.000      0.350      0.000 
      47      0.000      0.000      0.350      0.000 
      48      0.000      0.000      0.300      0.000 
      49      0.000      0.000      0.000      0.000 
      50      0.000      0.000      0.350      0.000 
      51      0.000      0.000      0.000      0.000 
      52      0.000      0.000      0.350      0.000 
      53      0.000      0.000      0.300      0.000 
      54      0.000      0.000      0.350      0.000 
      55      0.000      0.000      0.350      0.000 
      56      0.000      0.000      0.000      0.000 
      57      0.000      0.000      0.000      0.000 
      58      0.000      0.000      0.350      0.000 
      59      0.000      0.000      0.000      0.000 
      60      0.000      0.000      0.760      0.000 
      61      0.000      0.000      0.760      0.000 
      62      0.000      0.000      0.300      0.000 
      63      0.000      0.000      0.000      0.000 
      64      0.000      0.000      0.000      0.000 
      65      0.000      0.000      0.000      0.000 
      66      0.000      0.000      0.350      0.000 
      67      0.000      0.000      0.300      0.000 
      68      0.000      0.000      0.300      0.000 
      69      0.000      0.000      0.000      0.000 
      70      0.000      0.000      0.300      0.000 
      71      0.000      0.000      0.300      0.000 
      72      0.000      0.000      0.350      0.000 
      73      0.000      0.000      0.350      0.000 
      74      0.000      0.000      0.000      0.000 
      75      0.000      0.000      0.000      0.000 
      76      0.000      0.000      0.350      0.000 
      77      0.000      0.000      0.300      0.000 
      78      0.000      0.000      0.300      0.000 
      79      0.000      0.000      0.300      0.000 
      80      0.000      0.000      0.000      0.000 
      81      0.000      0.000      0.000      0.000 
      82      0.000      0.000      0.000      0.000 
      83      0.000      0.000      0.300      0.000 
      84      0.000      0.000      0.350      0.000 
      85      0.000      0.000      0.000      0.000 

Improper Coeffs 

       1      0.000      -1       2 
       2      0.000      -1       2 
       3      0.000      -1       2 
       4      0.000      -1       2 
       5      0.000      -1       2 
       6      0.000      -1       2 
       7      0.000      -1       2 
       8      0.000      -1       2 
       9      0.000      -1       2 
      10      0.000      -1       2 
      11     10.500      -1       2 
      12      0.000      -1       2 
      13      0.000      -1       2 
      14      0.000      -1       2 
      15      0.000      -1       2 
      16      0.000      -1       2 
      17      0.000      -1       2 
      18      0.000      -1       2 
      19      0.000      -1       2 
      20      0.000      -1       2 

Atoms 

     1      1      1 -0.23580000    1.000  1.00000  0.00000
     2      1      2 -0.16150000   -0.520  1.00000  0.00000
     3      1      3 -0.15700000   -1.069  1.00000  1.39750
     4      1      4 -0.28060000   -2.560  0.99837  1.65658
     5      1      5 0.35590000   -3.557  0.99669  0.56260
     6      1      6 -0.44760000   -3.538  0.16439 -0.33483
     7      1      7 0.03170000   -1.734 -0.23385  1.95343
     8      1      8 -0.30390000   -1.545 -0.46622  3.35923
     9      1      9 -0.27340000   -0.718 -1.59087  3.68127
    10      1     10 1.32770000   -0.479 -1.75618  5.46193
    11      1     11 -0.48700000    0.200 -0.55138  5.90047
    12      1     12 -0.48700000   -1.755 -2.15167  6.02485
    13      1     13 -0.98140000    0.642 -3.10549  5.61477
    14      1     14 1.41290000    0.959 -3.37292  7.33496
    15      1     15 -0.50410000    1.593 -2.21521  7.92496
    16      1     16 -0.50410000   -0.172 -4.03680  7.94830
    17      1     17 -0.53560000    2.128 -4.50154  7.16142
    18      1     18 0.01800000    2.721 -4.96439  8.36772
    19      1     19 0.08460000    1.381  0.99870 -1.02582
    20      1     20 0.08460000    1.391  0.11774  0.51669
    21      1     21 0.08460000    1.389  1.88943  0.50693
    22      1     22 0.10610000   -0.872  0.12563 -0.55992
    23      1     23 0.10610000   -0.875  1.89253 -0.52816
    24      1     24 0.15830000   -0.481  1.62145  2.06601
    25      1     25 0.16720000   -2.882  1.57865  2.51824
    26      1     26 0.12600000   -4.320  1.79248  0.60266
    27      1     27 0.17370000   -1.886 -1.08839  1.29940
    28      1     28 0.13790000    0.269 -1.46439  3.22489
    29      1     29 0.13790000   -1.194 -2.50944  3.32411
    30      1     30 0.24690000    1.577 -2.85265  5.11038
    31      1     31 0.24690000    0.189 -4.00534  5.19256
    32      1     32 0.11740000    3.483 -5.70924  8.12486
    33      1     33 0.11740000    1.966 -5.42974  9.00863
    34      1     34 0.11740000    3.201 -4.13800  8.90217

Bonds 

     1      1      2      1
     2      2      3      2
     3      3      4      3
     4      4      5      4
     5      5      6      5
     6      6      7      3
     7      7      8      7
     8      8      9      8
     9      9     10      9
    10     10     11     10
    11     11     12     10
    12     12     13     10
    13     13     14     13
    14     14     15     14
    15     15     16     14
    16     16     17     14
    17     17     18     17
    18     18     19      1
    19     19     20      1
    20     20     21      1
    21     21     22      2
    22     22     23      2
    23     23     24      3
    24     24     25      4
    25     25     26      5
    26     26     27      7
    27     27     28      9
    28     28     29      9
    29     29     30     13
    30     30     31     13
    31     31     32     18
    32     32     33     18
    33     33     34     18
    34     34      7      4

Angles 

     1      1      1      2      3
     2      2      2      3      4
     3      3      3      4      5
     4      4      4      5      6
     5      5      2      3      7
     6      6      3      7      8
     7      7      7      8      9
     8      8      8      9     10
     9      9      9     10     11
    10     10      9     10     12
    11     11      9     10     13
    12     12     10     13     14
    13     13     13     14     15
    14     14     13     14     16
    15     15     13     14     17
    16     16     14     17     18
    17     17      2      1     19
    18     18      2      1     20
    19     19      2      1     21
    20     20      1      2     22
    21     21      1      2     23
    22     22      2      3     24
    23     23      3      4     25
    24     24      4      5     26
    25     25      3      7     27
    26     26      8      9     28
    27     27      8      9     29
    28     28     10     13     30
    29     29     10     13     31
    30     30     17     18     32
    31     31     17     18     33
    32     32     17     18     34
    33     33      5      4     25
    34     34      3      4      7
    35     35      8      7     27
    36     36     10      9     29
    37     37     15     14     16
    38     38     22      2     23
    39     39     10      9     28
    40     40      5      4      7
    41     41     14     13     30
    42     42     32     18     34
    43     43      3      7      4
    44     44     12     10     13
    45     45      4      3      7
    46     46      4      7     27
    47     47      7      4     25
    48     48      3      2     22
    49     49      3      2     23
    50     50     19      1     21
    51     51     11     10     13
    52     52     14     13     31
    53     53      4      7      8
    54     54      4      3     24
    55     55     19      1     20
    56     56      6      5     26
    57     57     33     18     34
    58     58     15     14     17
    59     59     20      1     21
    60     60     11     10     12
    61     61     16     14     17
    62     62     32     18     33
    63     63     30     13     31
    64     64      7      3     24
    65     65     28      9     29

Dihedrals

     1      1      4      3      2      1 
     2      2      5      4      3      2 
     3      3      6      5      4      3 
     4      4      7      3      2      4 
     5      5      8      7      3      4 
     6      6      9      8      7      3 
     7      7     10      9      8      7 
     8      8     11     10      9      8 
     9      9     14     13     10      9 
    10     10     15     14     13     10 
    11     11     18     17     14     13 
    12     12     19      1      2      3 
    13     13     27      7      3      4 
    14     14     32     18     17     14 
    15     15     27      7      4      3 
    16     16     14     13     10     11 
    17     17     25      4      3      7 
    18     18      8      7      3      2 
    19     19     27      7      3     24 
    20     20     25      4      3     24 
    21     21      7      3      2      1 
    22     22     13     10      9      8 
    23     23     31     13     10     12 
    24     24     23      2      3      7 
    25     25     30     13     10     11 
    26     26     25      4      5      6 
    27     27     23      2      3      4 
    28     28     24      3      2     22 
    29     29     29      9      8      7 
    30     30     27      7      4      5 
    31     31     31     13     14     17 
    32     32      7      4      5      6 
    33     33     24      3      7      4 
    34     34     25      4      7      8 
    35     35     34     18     17     14 
    36     36     27      7      8      9 
    37     37      5      4      7      3 
    38     38     30     13     10      9 
    39     39     31     13     14     15 
    40     40     30     13     14     16 
    41     41     22      2      1     20 
    42     42     23      2      1     19 
    43     43      9      8      7      4 
    44     44     24      3      4      7 
    45     45      8      7      4      3 
    46     46     28      9     10     12 
    47     47     29      9     10     11 
    48     48     21      1      2      3 
    49     49     26      5      4      3 
    50     50     30     13     14     15 
    51     51     24      3      4      5 
    52     52     30     13     10     12 
    53     53     22      2      1     19 
    54     54     29      9     10     13 
    55     55     31     13     10     11 
    56     56     18     17     14     15 
    57     57     16     14     13     10 
    58     58     29      9     10     12 
    59     59     14     13     10     12 
    60     60     28      9      8      7 
    61     61     33     18     17     14 
    62     62     23      2      1     21 
    63     63     26      5      4      7 
    64     64      8      7      4      5 
    65     65     17     14     13     10 
    66     66     28      9     10     13 
    67     67     24      3      2     23 
    68     68     24      3      2      1 
    69     69     24      3      7      8 
    70     70     20      1      2      3 
    71     71     22      2      3      7 
    72     72     30     13     14     17 
    73     73     31     13     14     16 
    74     74     27      7      3      2 
    75     75     12     10      9      8 
    76     76     31     13     10      9 
    77     77     23      2      1     20 
    78     78     22      2      1     21 
    79     79     22      2      3      4 
    80     80     25      4      3      2 
    81     81     27      7      4     25 
    82     82     18     17     14     16 
    83     83     26      5      4     25 
    84     84     28      9     10     11 
    85     85     25      4      7      3 

Impropers

     1      1     10      9     11     12 
     2      2     10      9     11     13 
     3      3     14     13     15     16 
     4      4     14     17     13     15 
     5      5      1      2     19     20 
     6      6      1      2     19     21 
     7      7      2      1      3     22 
     8      8      2      1      3     23 
     9      9      3      2      4     24 
    10     10      4     25      3      5 
    11     11      5     26      4      6 
    12     12      9     10     28      8 
    13     13      9     10     29      8 
    14     14     13     10     30     14 
    15     15     13     10     14     31 
    16     16     18     33     17     32 
    17     17     18     17     34     32 
    18     18      3      4      7      2 
    19     19      3      4      7      2 
    20     20      4      3      7      5 

