LAMMPS data file Created by LigParGen - (Written by Leela S. Dodda)

      47 atoms
      49 bonds
     102 angles
     171 dihedrals
      32 impropers
 
      47 atom types
      49 bond types
     102 angle types
     171 dihedral types
      32 improper types
 
   -3.378100    46.621900 xlo xhi
    0.031810    50.031810 ylo yhi
   -2.742370    47.257630 zlo zhi

Masses

       1     12.011  
       2     12.011  
       3     12.011  
       4     12.011  
       5     12.011  
       6     12.011  
       7     12.011  
       8     12.011  
       9     12.011  
      10     12.011  
      11     32.060  
      12     12.011  
      13     15.999  
      14     15.999  
      15     12.011  
      16     12.011  
      17     12.011  
      18     12.011  
      19     12.011  
      20      1.008  
      21      1.008  
      22      1.008  
      23      1.008  
      24      1.008  
      25      1.008  
      26      1.008  
      27      1.008  
      28      1.008  
      29      1.008  
      30      1.008  
      31      1.008  
      32      1.008  
      33      1.008  
      34      1.008  
      35      1.008  
      36      1.008  
      37      1.008  
      38      1.008  
      39      1.008  
      40      1.008  
      41      1.008  
      42      1.008  
      43      1.008  
      44      1.008  
      45      1.008  
      46      1.008  
      47      1.008  

Pair Coeffs 

       1      0.066  3.5000000 
       2      0.066  3.5000000 
       3      0.066  3.5000000 
       4      0.066  3.5000000 
       5      0.066  3.5000000 
       6      0.066  3.5000000 
       7      0.066  3.5000000 
       8      0.066  3.5000000 
       9      0.066  3.5000000 
      10      0.066  3.5000000 
      11      0.250  3.5500000 
      12      0.066  3.5000000 
      13      0.170  2.9600000 
      14      0.170  2.9600000 
      15      0.066  3.5000000 
      16      0.066  3.5000000 
      17      0.066  3.5000000 
      18      0.066  3.5000000 
      19      0.066  3.5000000 
      20      0.030  2.5000000 
      21      0.030  2.5000000 
      22      0.030  2.5000000 
      23      0.030  2.5000000 
      24      0.030  2.5000000 
      25      0.030  2.5000000 
      26      0.030  2.5000000 
      27      0.030  2.5000000 
      28      0.030  2.5000000 
      29      0.030  2.5000000 
      30      0.030  2.5000000 
      31      0.030  2.5000000 
      32      0.030  2.5000000 
      33      0.030  2.5000000 
      34      0.030  2.5000000 
      35      0.030  2.5000000 
      36      0.030  2.5000000 
      37      0.030  2.5000000 
      38      0.030  2.5000000 
      39      0.030  2.5000000 
      40      0.030  2.5000000 
      41      0.030  2.5000000 
      42      0.030  2.5000000 
      43      0.030  2.5000000 
      44      0.030  2.5000000 
      45      0.030  2.5000000 
      46      0.030  2.5000000 
      47      0.030  2.5000000 

Bond Coeffs 

       1   268.0000     1.5290 
       2   268.0000     1.5290 
       3   268.0000     1.5290 
       4   268.0000     1.5290 
       5   268.0000     1.5290 
       6   268.0000     1.5290 
       7   268.0000     1.5290 
       8   268.0000     1.5290 
       9   268.0000     1.5290 
      10   340.0000     1.7700 
      11   340.0000     1.7700 
      12   700.0000     1.4400 
      13   700.0000     1.4400 
      14   268.0000     1.5290 
      15   268.0000     1.5290 
      16   268.0000     1.5290 
      17   268.0000     1.5290 
      18   268.0000     1.5290 
      19   340.0000     1.0900 
      20   340.0000     1.0900 
      21   340.0000     1.0900 
      22   340.0000     1.0900 
      23   340.0000     1.0900 
      24   340.0000     1.0900 
      25   340.0000     1.0900 
      26   340.0000     1.0900 
      27   340.0000     1.0900 
      28   340.0000     1.0900 
      29   340.0000     1.0900 
      30   340.0000     1.0900 
      31   340.0000     1.0900 
      32   340.0000     1.0900 
      33   340.0000     1.0900 
      34   340.0000     1.0900 
      35   340.0000     1.0900 
      36   340.0000     1.0900 
      37   340.0000     1.0900 
      38   340.0000     1.0900 
      39   340.0000     1.0900 
      40   340.0000     1.0900 
      41   340.0000     1.0900 
      42   340.0000     1.0900 
      43   340.0000     1.0900 
      44   340.0000     1.0900 
      45   340.0000     1.0900 
      46   340.0000     1.0900 
      47   268.0000     1.5290 
      48   268.0000     1.5290 
      49   268.0000     1.5290 

Angle Coeffs 

       1     58.350    112.700
       2     58.350    112.700
       3     58.350    112.700
       4     58.350    112.700
       5     58.350    112.700
       6     58.350    112.700
       7     58.350    112.700
       8     58.350    112.700
       9     50.000    108.600
      10     62.000    102.000
      11     74.000    108.900
      12     74.000    108.900
      13     58.350    112.700
      14     58.350    112.700
      15     58.350    112.700
      16     58.350    112.700
      17     58.350    112.700
      18     37.500    110.700
      19     37.500    110.700
      20     37.500    110.700
      21     37.500    110.700
      22     37.500    110.700
      23     37.500    110.700
      24     37.500    110.700
      25     37.500    110.700
      26     37.500    110.700
      27     37.500    110.700
      28     37.500    110.700
      29     37.500    110.700
      30     37.500    110.700
      31     37.500    110.700
      32     37.500    110.700
      33     37.500    110.700
      34     35.000    109.500
      35     35.000    109.500
      36     35.000    109.500
      37     37.500    110.700
      38     37.500    110.700
      39     37.500    110.700
      40     37.500    110.700
      41     37.500    110.700
      42     37.500    110.700
      43     37.500    110.700
      44     37.500    110.700
      45     37.500    110.700
      46     50.000    108.600
      47     33.000    107.800
      48     37.500    110.700
      49     37.500    110.700
      50     33.000    107.800
      51     37.500    110.700
      52     33.000    107.800
      53     33.000    107.800
      54     33.000    107.800
      55     37.500    110.700
      56     37.500    110.700
      57     58.350    112.700
      58     58.350    112.700
      59     37.500    110.700
      60     74.000    108.900
      61     58.350    112.700
      62     33.000    107.800
      63     33.000    107.800
      64     37.500    110.700
      65     33.000    107.800
      66     37.500    110.700
      67     37.500    110.700
      68     33.000    107.800
      69     58.350    112.700
      70     37.500    110.700
      71     33.000    107.800
      72     35.000    109.500
      73     58.350    112.700
      74     37.500    110.700
      75    104.000    119.000
      76     33.000    107.800
      77     37.500    110.700
      78     37.500    110.700
      79     37.500    110.700
      80     58.350    112.700
      81     58.350    112.700
      82     58.350    112.700
      83     37.500    110.700
      84     37.500    110.700
      85     37.500    110.700
      86     33.000    107.800
      87     58.350    112.700
      88     33.000    107.800
      89     58.350    112.700
      90     33.000    107.800
      91     37.500    110.700
      92     58.350    112.700
      93     33.000    107.800
      94     37.500    110.700
      95     37.500    110.700
      96     37.500    110.700
      97     37.500    110.700
      98     74.000    108.900
      99     58.350    112.700
     100     37.500    110.700
     101     37.500    110.700
     102     37.500    110.700

Dihedral Coeffs  

       1      1.300     -0.200      0.200      0.000 
       2      1.300     -0.200      0.200      0.000 
       3      1.300     -0.200      0.200      0.000 
       4      1.300     -0.200      0.200      0.000 
       5      1.300     -0.200      0.200      0.000 
       6      1.300     -0.200      0.200      0.000 
       7      1.300     -0.200      0.200      0.000 
       8      1.262     -0.198      0.465      0.000 
       9      0.000      0.000      0.000      0.000 
      10      0.000      0.000      0.300      0.000 
      11      0.000      0.000      0.350      0.000 
      12      0.000      0.000      0.300      0.000 
      13      0.000      0.000      0.350      0.000 
      14      0.000      0.000      0.300      0.000 
      15      0.000      0.000      0.300      0.000 
      16      0.000      0.000      0.300      0.000 
      17      0.000      0.000      0.300      0.000 
      18      0.000      0.000      0.000      0.000 
      19      0.000      0.000      0.350      0.000 
      20      0.000      0.000      0.300      0.000 
      21      0.000      0.000      0.300      0.000 
      22      0.000      0.000      0.300      0.000 
      23      0.000      0.000      0.300      0.000 
      24      0.000      0.000      0.300      0.000 
      25      0.000      0.000      0.300      0.000 
      26      1.300     -0.200      0.200      0.000 
      27      0.000      0.000      0.300      0.000 
      28      0.000      0.000      0.300      0.000 
      29      0.000      0.000      0.300      0.000 
      30      0.000      0.000      0.300      0.000 
      31      0.000      0.000      0.300      0.000 
      32      0.000      0.000      0.300      0.000 
      33      0.000      0.000      0.300      0.000 
      34      1.300     -0.200      0.200      0.000 
      35      0.000      0.000      0.300      0.000 
      36      0.000      0.000      0.000      0.000 
      37      1.300     -0.200      0.200      0.000 
      38      0.000      0.000      0.300      0.000 
      39      0.000      0.000      0.300      0.000 
      40      0.000      0.000      0.300      0.000 
      41      0.000      0.000      0.300      0.000 
      42      0.000      0.000      0.300      0.000 
      43      0.000      0.000      0.300      0.000 
      44      0.000      0.000      0.300      0.000 
      45      0.000      0.000      0.300      0.000 
      46      1.300     -0.200      0.200      0.000 
      47      1.300     -0.200      0.200      0.000 
      48      0.000      0.000      0.300      0.000 
      49      0.000      0.000      0.300      0.000 
      50      1.300     -0.200      0.200      0.000 
      51      0.000      0.000      0.300      0.000 
      52      0.000      0.000      0.300      0.000 
      53      0.000      0.000      0.300      0.000 
      54      0.000      0.000      0.300      0.000 
      55      1.300     -0.200      0.200      0.000 
      56      0.000      0.000      0.300      0.000 
      57      1.300     -0.200      0.200      0.000 
      58      0.000      0.000      0.300      0.000 
      59      0.000      0.000      0.300      0.000 
      60      1.300     -0.200      0.200      0.000 
      61      0.000      0.000      0.300      0.000 
      62      0.000      0.000      0.300      0.000 
      63      0.000      0.000      0.300      0.000 
      64      0.000      0.000      0.300      0.000 
      65      1.300     -0.200      0.200      0.000 
      66      1.300     -0.200      0.200      0.000 
      67      0.000      0.000      0.300      0.000 
      68      0.000      0.000      0.300      0.000 
      69      1.300     -0.200      0.200      0.000 
      70      0.000      0.000      0.300      0.000 
      71      0.000      0.000      0.300      0.000 
      72      0.000      0.000      0.300      0.000 
      73      0.000      0.000      0.452      0.000 
      74      1.300     -0.200      0.200      0.000 
      75      0.000      0.000      0.350      0.000 
      76      0.000      0.000      0.350      0.000 
      77      0.000      0.000      0.300      0.000 
      78      0.000      0.000      0.300      0.000 
      79      0.000      0.000      0.300      0.000 
      80      0.000      0.000      0.300      0.000 
      81      0.000      0.000      0.300      0.000 
      82      0.000      0.000      0.300      0.000 
      83      0.000      0.000      0.300      0.000 
      84      0.000      0.000      0.300      0.000 
      85      0.000      0.000      0.300      0.000 
      86      0.000      0.000      0.000      0.000 
      87      0.000      0.000      0.300      0.000 
      88      0.000      0.000      0.300      0.000 
      89      1.300     -0.200      0.200      0.000 
      90      0.000      0.000      0.300      0.000 
      91      0.000      0.000      0.350      0.000 
      92      0.000      0.000      0.452      0.000 
      93      0.000      0.000      0.350      0.000 
      94      0.000      0.000      0.300      0.000 
      95      0.000      0.000      0.300      0.000 
      96      0.000      0.000      0.300      0.000 
      97      1.300     -0.200      0.200      0.000 
      98      0.000      0.000      0.300      0.000 
      99      0.000      0.000      0.300      0.000 
     100      0.000      0.000      0.300      0.000 
     101      0.000      0.000      0.300      0.000 
     102      0.000      0.000      0.300      0.000 
     103      0.000      0.000      0.300      0.000 
     104      0.000      0.000      0.300      0.000 
     105      1.300     -0.200      0.200      0.000 
     106      1.300     -0.200      0.200      0.000 
     107      1.300     -0.200      0.200      0.000 
     108      0.000      0.000      0.300      0.000 
     109      0.000      0.000      0.300      0.000 
     110      0.000      0.000      0.300      0.000 
     111      0.000      0.000      0.350      0.000 
     112      0.000      0.000      0.300      0.000 
     113      0.000      0.000      0.300      0.000 
     114      0.000      0.000      0.300      0.000 
     115      0.000      0.000      0.300      0.000 
     116      0.000      0.000      0.452      0.000 
     117      1.300     -0.200      0.200      0.000 
     118      0.000      0.000      0.300      0.000 
     119      0.000      0.000      0.452      0.000 
     120      0.000      0.000      0.300      0.000 
     121      0.000      0.000      0.300      0.000 
     122      1.300     -0.200      0.200      0.000 
     123      0.000      0.000      0.300      0.000 
     124      0.000      0.000      0.350      0.000 
     125      0.000      0.000      0.300      0.000 
     126      0.000      0.000      0.300      0.000 
     127      0.000      0.000      0.300      0.000 
     128      0.000      0.000      0.300      0.000 
     129      0.000      0.000      0.300      0.000 
     130      1.300     -0.200      0.200      0.000 
     131      1.300     -0.200      0.200      0.000 
     132      0.000      0.000      0.300      0.000 
     133      0.000      0.000      0.300      0.000 
     134      0.000      0.000      0.300      0.000 
     135      0.000      0.000      0.300      0.000 
     136      0.000      0.000      0.300      0.000 
     137      0.000      0.000      0.300      0.000 
     138      0.000      0.000      0.300      0.000 
     139      1.262     -0.198      0.465      0.000 
     140      0.000      0.000      0.000      0.000 
     141      0.000      0.000      0.300      0.000 
     142      0.000      0.000      0.300      0.000 
     143      0.000      0.000      0.300      0.000 
     144      0.000      0.000      0.300      0.000 
     145      1.300     -0.200      0.200      0.000 
     146      0.000      0.000      0.300      0.000 
     147      0.000      0.000      0.300      0.000 
     148      0.000      0.000      0.300      0.000 
     149      1.300     -0.200      0.200      0.000 
     150      0.000      0.000      0.300      0.000 
     151      0.000      0.000      0.300      0.000 
     152      0.000      0.000      0.300      0.000 
     153      0.000      0.000      0.300      0.000 
     154      0.000      0.000      0.300      0.000 
     155      0.000      0.000      0.350      0.000 
     156      1.300     -0.200      0.200      0.000 
     157      0.000      0.000      0.350      0.000 
     158      1.300     -0.200      0.200      0.000 
     159      1.300     -0.200      0.200      0.000 
     160      0.000      0.000      0.300      0.000 
     161      0.000      0.000      0.300      0.000 
     162      0.000      0.000      0.000      0.000 
     163      1.300     -0.200      0.200      0.000 
     164      0.000      0.000      0.300      0.000 
     165      0.000      0.000      0.300      0.000 
     166      0.000      0.000      0.300      0.000 
     167      0.000      0.000      0.300      0.000 
     168      0.000      0.000      0.300      0.000 
     169      1.300     -0.200      0.200      0.000 
     170      0.000      0.000      0.350      0.000 
     171      0.000      0.000      0.300      0.000 

Improper Coeffs 

       1      0.000      -1       2 
       2      0.000      -1       2 
       3      0.000      -1       2 
       4      0.000      -1       2 
       5      0.000      -1       2 
       6      0.000      -1       2 
       7      0.000      -1       2 
       8      0.000      -1       2 
       9      0.000      -1       2 
      10      0.000      -1       2 
      11      0.000      -1       2 
      12      0.000      -1       2 
      13      0.000      -1       2 
      14      0.000      -1       2 
      15      0.000      -1       2 
      16      0.000      -1       2 
      17      0.000      -1       2 
      18      0.000      -1       2 
      19      0.000      -1       2 
      20      0.000      -1       2 
      21      0.000      -1       2 
      22      0.000      -1       2 
      23      0.000      -1       2 
      24      0.000      -1       2 
      25      0.000      -1       2 
      26      0.000      -1       2 
      27      0.000      -1       2 
      28      0.000      -1       2 
      29      0.000      -1       2 
      30      0.000      -1       2 
      31      0.000      -1       2 
      32      0.000      -1       2 

Atoms 

     1      1      1 -0.22900000    1.000  1.00000  0.00000
     2      1      2 -0.11210000   -0.520  1.00000  0.00000
     3      1      3 -0.12570000   -1.207  1.00000  1.39600
     4      1      4 -0.16830000   -0.792  2.17851  2.30258
     5      1      5 -0.11390000   -1.333  3.41236  1.55150
     6      1      6 -0.09010000   -2.253  4.40623  2.33359
     7      1      7 -0.16500000   -1.769  4.95746  3.69568
     8      1      8 -0.16530000   -0.858  6.20384  3.68498
     9      1      9 -0.12750000   -1.100  7.21152  2.54713
    10      1     10 -0.44870000   -1.323  6.45026  1.25215
    11      1     11 1.30230000   -1.312  7.42082 -0.23152
    12      1     12 -0.57060000   -1.463  6.18325 -1.51817
    13      1     13 -0.56800000   -2.503  8.24313 -0.26183
    14      1     14 -0.56800000    0.008  8.00208 -0.36828
    15      1     15 -0.13720000   -2.585  5.61096  1.43318
    16      1     16 -0.13210000   -2.122  2.74390  0.37414
    17      1     17 -0.19180000   -2.615  1.44566  1.01189
    18      1     18 -0.11960000   -1.115  2.25379 -0.68466
    19      1     19 -0.23360000   -1.808  1.93093 -2.00941
    20      1     20 0.08310000    1.386  0.12182  0.52532
    21      1     21 0.08310000    1.416  1.89638  0.46783
    22      1     22 0.08310000    1.374  0.96423 -1.03018
    23      1     23 0.10340000   -0.846  0.09758 -0.53685
    24      1     24 0.11590000   -1.153  0.03181  1.89742
    25      1     25 0.09750000    0.293  2.23022  2.44372
    26      1     26 0.09750000   -1.256  2.07537  3.28953
    27      1     27 0.09530000   -0.459  3.93609  1.15856
    28      1     28 0.10250000   -3.191  3.87146  2.53899
    29      1     29 0.09010000   -1.308  4.17045  4.30059
    30      1     30 0.09010000   -2.675  5.25017  4.24608
    31      1     31 0.09190000    0.182  5.86554  3.63352
    32      1     32 0.09190000   -0.963  6.72738  4.64550
    33      1     33 0.10900000   -0.238  7.88585  2.47008
    34      1     34 0.10900000   -1.969  7.84322  2.77785
    35      1     35 0.15760000   -0.431  5.83658  1.10555
    36      1     36 0.16320000   -2.472  5.76799 -1.51502
    37      1     37 0.16320000   -0.724  5.40005 -1.33619
    38      1     38 0.16320000   -1.271  6.66078 -2.48103
    39      1     39 0.10350000   -3.013  5.29069  0.48675
    40      1     40 0.10350000   -3.378  6.21021  1.90358
    41      1     41 0.11070000   -2.919  3.34727 -0.05778
    42      1     42 0.10250000   -3.112  0.77258  0.30743
    43      1     43 0.10250000   -3.270  1.60863  1.87382
    44      1     44 0.10160000   -0.350  3.01406 -0.88163
    45      1     45 0.08310000   -2.593  1.17745 -1.89185
    46      1     46 0.08310000   -1.089  1.55315 -2.74237
    47      1     47 0.08310000   -2.275  2.83166 -2.42433

Bonds 

     1      1      2      1
     2      2      3      2
     3      3      4      3
     4      4      5      4
     5      5      6      5
     6      6      7      6
     7      7      8      7
     8      8      9      8
     9      9     10      9
    10     10     11     10
    11     11     12     11
    12     12     13     11
    13     13     14     11
    14     14     15      6
    15     15     16      5
    16     16     17      3
    17     17     18      2
    18     18     19     18
    19     19     20      1
    20     20     21      1
    21     21     22      1
    22     22     23      2
    23     23     24      3
    24     24     25      4
    25     25     26      4
    26     26     27      5
    27     27     28      6
    28     28     29      7
    29     29     30      7
    30     30     31      8
    31     31     32      8
    32     32     33      9
    33     33     34      9
    34     34     35     10
    35     35     36     12
    36     36     37     12
    37     37     38     12
    38     38     39     15
    39     39     40     15
    40     40     41     16
    41     41     42     17
    42     42     43     17
    43     43     44     18
    44     44     45     19
    45     45     46     19
    46     46     47     19
    47     47     15     10
    48     48     17     16
    49     49     18     16

Angles 

     1      1      1      2      3
     2      2      2      3      4
     3      3      3      4      5
     4      4      4      5      6
     5      5      5      6      7
     6      6      6      7      8
     7      7      7      8      9
     8      8      8      9     10
     9      9      9     10     11
    10     10     10     11     12
    11     11     10     11     13
    12     12     10     11     14
    13     13      5      6     15
    14     14      4      5     16
    15     15      2      3     17
    16     16      1      2     18
    17     17      2     18     19
    18     18      2      1     20
    19     19      2      1     21
    20     20      2      1     22
    21     21      1      2     23
    22     22      2      3     24
    23     23      3      4     25
    24     24      3      4     26
    25     25      4      5     27
    26     26      5      6     28
    27     27      6      7     29
    28     28      6      7     30
    29     29      7      8     31
    30     30      7      8     32
    31     31      8      9     33
    32     32      8      9     34
    33     33      9     10     35
    34     34     11     12     36
    35     35     11     12     37
    36     36     11     12     38
    37     37      6     15     39
    38     38      6     15     40
    39     39      5     16     41
    40     40      3     17     42
    41     41      3     17     43
    42     42      2     18     44
    43     43     18     19     45
    44     44     18     19     46
    45     45     18     19     47
    46     46     11     10     15
    47     47     31      8     32
    48     48     18     16     41
    49     49      9      8     31
    50     50     25      4     26
    51     51     16     17     42
    52     52     36     12     37
    53     53     39     15     40
    54     54     45     19     47
    55     55      4      3     24
    56     56     17     16     41
    57     57     16     18     19
    58     58      6      5     16
    59     59     10      9     33
    60     60     12     11     14
    61     61      4      3     17
    62     62     20      1     21
    63     63     29      7     30
    64     64      8      7     30
    65     65     36     12     38
    66     66     18      2     23
    67     67     19     18     44
    68     68     37     12     38
    69     69      5     16     18
    70     70      5      4     26
    71     71     42     17     43
    72     72     11     10     35
    73     73      7      6     15
    74     74      5      4     25
    75     75     13     11     14
    76     76     46     19     47
    77     77      9      8     32
    78     78     15      6     28
    79     79      7      6     28
    80     80      6     15     10
    81     81     17     16     18
    82     82      5     16     17
    83     83      6      5     27
    84     84      8      7     29
    85     85     16     17     43
    86     86     21      1     22
    87     87      2     18     16
    88     88     20      1     22
    89     89      3     17     16
    90     90     45     19     46
    91     91     17      3     24
    92     92      3      2     18
    93     93     33      9     34
    94     94     10      9     34
    95     95      3      2     23
    96     96     10     15     39
    97     97     16     18     44
    98     98     12     11     13
    99     99      9     10     15
   100    100     10     15     40
   101    101     15     10     35
   102    102     16      5     27

Dihedrals

     1      1      4      3      2      1 
     2      2      5      4      3      2 
     3      3      6      5      4      3 
     4      4      7      6      5      4 
     5      5      8      7      6      5 
     6      6      9      8      7      6 
     7      7     10      9      8      7 
     8      8     11     10      9      8 
     9      9     12     11     10      9 
    10     10     20      1      2      3 
    11     11     36     12     11     10 
    12     12     45     19     18      2 
    13     13     35     10     11     12 
    14     14     35     10      9      8 
    15     15     28      6      7      8 
    16     16     39     15      6      7 
    17     17     42     17     16      5 
    18     18     13     11     10      9 
    19     19     36     12     11     13 
    20     20     43     17     16     18 
    21     21     47     19     18     16 
    22     22     41     16     18     19 
    23     23     31      8      7      6 
    24     24     25      4      3     24 
    25     25     30      7      6     15 
    26     26     19     18      2      1 
    27     27     20      1      2     18 
    28     28     34      9     10     15 
    29     29     33      9     10     15 
    30     30     23      2      1     21 
    31     31     35     10     15      6 
    32     32     28      6      5     27 
    33     33     41     16      5      6 
    34     34     16      5      6     15 
    35     35     28      6      5      4 
    36     36     15     10     11     13 
    37     37      5     16     18      2 
    38     38     46     19     18     16 
    39     39     29      7      6     15 
    40     40     30      7      6      5 
    41     41     29      7      8      9 
    42     42     25      4      5      6 
    43     43     33      9      8      7 
    44     44     29      7      6     28 
    45     45     23      2      3      4 
    46     46     18      2      3     17 
    47     47     16      5      4      3 
    48     48     34      9      8     32 
    49     49     32      8      7     30 
    50     50     17     16      5      6 
    51     51     33      9      8     32 
    52     52     34      9      8     31 
    53     53     45     19     18     44 
    54     54     43     17      3     24 
    55     55     16     17      3      4 
    56     56     41     16      5      4 
    57     57     19     18     16      5 
    58     58     47     19     18     44 
    59     59     39     15     10     35 
    60     60     15     10      9      8 
    61     61     27      5     16     17 
    62     62     26      4      3      2 
    63     63     25      4      5     16 
    64     64     42     17      3      4 
    65     65      9     10     15      6 
    66     66     16     18      2      3 
    67     67     44     18      2     23 
    68     68     35     10      9     33 
    69     69     16     18      2      1 
    70     70     28      6      5     16 
    71     71     25      4      3     17 
    72     72     43     17     16      5 
    73     73     34      9     10     11 
    74     74     10     15      6      7 
    75     75     36     12     11     14 
    76     76     37     12     11     13 
    77     77     24      3     17     16 
    78     78     42     17      3     24 
    79     79     21      1      2     18 
    80     80     42     17      3      2 
    81     81     44     18     16     41 
    82     82     33      9      8     31 
    83     83     27      5     16     18 
    84     84     46     19     18     44 
    85     85     27      5      4     25 
    86     86     15     10     11     12 
    87     87     32      8      9     10 
    88     88     21      1      2      3 
    89     89     19     18      2      3 
    90     90     40     15      6      5 
    91     91     38     12     11     13 
    92     92     40     15     10     11 
    93     93     37     12     11     14 
    94     94     40     15     10     35 
    95     95     27      5      6      7 
    96     96     47     19     18      2 
    97     97     16     17      3      2 
    98     98     31      8      7     29 
    99     99     23      2     18     16 
   100    100     30      7      8      9 
   101    101     40     15      6      7 
   102    102     32      8      7      6 
   103    103     44     18     16     17 
   104    104     24      3      4      5 
   105    105     17     16      5      4 
   106    106     17     16     18      2 
   107    107     19     18     16     17 
   108    108     35     10      9     34 
   109    109     23      2      3     17 
   110    110     41     16     17      3 
   111    111     38     12     11     14 
   112    112     24      3      2     18 
   113    113     23      2      1     22 
   114    114     34      9      8      7 
   115    115     31      8      9     10 
   116    116     39     15     10     11 
   117    117     17      3      4      5 
   118    118     44     18      2      3 
   119    119     33      9     10     11 
   120    120     44     18      2      1 
   121    121     42     17     16     18 
   122    122     18     16      5      6 
   123    123     27      5      6     15 
   124    124     37     12     11     10 
   125    125     22      1      2      3 
   126    126     26      4      3     17 
   127    127     41     16      5     27 
   128    128     26      4      5     16 
   129    129     40     15     10      9 
   130    130     18     16     17      3 
   131    131     16      5      6      7 
   132    132     24      3      2     23 
   133    133     44     18     16      5 
   134    134     31      8      7     30 
   135    135     32      8      7     29 
   136    136     24      3      2      1 
   137    137     39     15      6     28 
   138    138     39     15     10      9 
   139    139     11     10     15      6 
   140    140     15     10     11     14 
   141    141     27      5      4     26 
   142    142     42     17     16     41 
   143    143     26      4      5      6 
   144    144     39     15      6      5 
   145    145      5     16     17      3 
   146    146     23      2     18     19 
   147    147     29      7      6      5 
   148    148     41     16     18      2 
   149    149     15      6      5      4 
   150    150     40     15      6     28 
   151    151     27      5      4      3 
   152    152     23      2      1     20 
   153    153     46     19     18      2 
   154    154     22      1      2     18 
   155    155     35     10     11     14 
   156    156     18      2      3      4 
   157    157     38     12     11     10 
   158    158     17      3      2      1 
   159    159     15      6      7      8 
   160    160     25      4      3      2 
   161    161     43     17     16     41 
   162    162     14     11     10      9 
   163    163     18     16      5      4 
   164    164     43     17      3      4 
   165    165     45     19     18     16 
   166    166     28      6     15     10 
   167    167     26      4      3     24 
   168    168     43     17      3      2 
   169    169     10     15      6      5 
   170    170     35     10     11     13 
   171    171     30      7      6     28 

Impropers

     1      1     11     10     12     13 
     2      2     11     10     12     14 
     3      3      6      7      5     15 
     4      4      5      4      6     16 
     5      5      3     17      2      4 
     6      6      2      1     18      3 
     7      7     18     19     16      2 
     8      8      1      2     20     21 
     9      9      1      2     20     22 
    10     10      2      1      3     23 
    11     11      3      2      4     24 
    12     12      4     25      3      5 
    13     13      4     26      3      5 
    14     14      5     27      4      6 
    15     15      6     28      5      7 
    16     16      7     29      6      8 
    17     17      7      8     30      6 
    18     18      8      9      7     31 
    19     19      8      9      7     32 
    20     20      9     33     10      8 
    21     21      9     34     10      8 
    22     22     10      9     35     11 
    23     23     12     36     11     37 
    24     24     12     36     11     38 
    25     25     15     10     39      6 
    26     26     15     10      6     40 
    27     27     16     41     17      5 
    28     28     17     42      3     16 
    29     29     17     43      3     16 
    30     30     18     16     44      2 
    31     31     19     18     45     46 
    32     32     19     18     45     47 

