LAMMPS data file Created by LigParGen - (Written by Leela S. Dodda)

      33 atoms
      36 bonds
      78 angles
     131 dihedrals
      33 impropers
 
      33 atom types
      36 bond types
      78 angle types
     131 dihedral types
      33 improper types
 
   -5.688740    44.311260 xlo xhi
   -3.665180    46.334820 ylo yhi
   -1.031460    48.968540 zlo zhi

Masses

       1     12.011  
       2     12.011  
       3     12.011  
       4     12.011  
       5     12.011  
       6     12.011  
       7     12.011  
       8     12.011  
       9     12.011  
      10     12.011  
      11     12.011  
      12     12.011  
      13     12.011  
      14      1.008  
      15      1.008  
      16      1.008  
      17      1.008  
      18      1.008  
      19      1.008  
      20      1.008  
      21      1.008  
      22      1.008  
      23      1.008  
      24      1.008  
      25      1.008  
      26      1.008  
      27      1.008  
      28      1.008  
      29      1.008  
      30      1.008  
      31      1.008  
      32      1.008  
      33      1.008  

Pair Coeffs 

       1      0.066  3.5000000 
       2      0.066  3.5000000 
       3      0.066  3.5000000 
       4      0.066  3.5000000 
       5      0.066  3.5000000 
       6      0.066  3.5000000 
       7      0.083  3.4500000 
       8      0.083  3.4500000 
       9      0.083  3.4500000 
      10      0.083  3.4500000 
      11      0.083  3.4500000 
      12      0.083  3.4500000 
      13      0.083  3.4500000 
      14      0.030  2.5000000 
      15      0.030  2.5000000 
      16      0.030  2.5000000 
      17      0.030  2.5000000 
      18      0.030  2.5000000 
      19      0.030  2.5000000 
      20      0.030  2.5000000 
      21      0.030  2.5000000 
      22      0.030  2.5000000 
      23      0.030  2.5000000 
      24      0.030  2.5000000 
      25      0.030  2.5000000 
      26      0.030  2.5000000 
      27      0.030  2.5000000 
      28      0.030  2.5000000 
      29      0.030  2.5000000 
      30      0.030  2.5000000 
      31      0.030  2.5000000 
      32      0.030  2.5000000 
      33      0.030  2.5000000 

Bond Coeffs 

       1   268.0000     1.5290 
       2   268.0000     1.5290 
       3   268.0000     1.5290 
       4   268.0000     1.5290 
       5   268.0000     1.5290 
       6   280.0000     1.5100 
       7   260.0000     1.5200 
       8   260.0000     1.5200 
       9   260.0000     1.5200 
      10   260.0000     1.5200 
      11   280.0000     1.5100 
      12   280.0000     1.5100 
      13   340.0000     1.0900 
      14   340.0000     1.0900 
      15   340.0000     1.0900 
      16   340.0000     1.0900 
      17   340.0000     1.0900 
      18   340.0000     1.0900 
      19   340.0000     1.0900 
      20   340.0000     1.0900 
      21   340.0000     1.0900 
      22   340.0000     1.0900 
      23   340.0000     1.0900 
      24   340.0000     1.0880 
      25   340.0000     1.0880 
      26   340.0000     1.0880 
      27   340.0000     1.0880 
      28   340.0000     1.0880 
      29   340.0000     1.0880 
      30   340.0000     1.0880 
      31   340.0000     1.0880 
      32   340.0000     1.0880 
      33   260.0000     1.5200 
      34   260.0000     1.5200 
      35   260.0000     1.5200 
      36   260.0000     1.5200 

Angle Coeffs 

       1     58.350    112.700
       2     58.350    112.700
       3     58.350    112.700
       4     58.350    112.700
       5     58.350    112.700
       6     37.500    117.200
       7     30.000     83.000
       8     37.500    117.200
       9     30.000     83.000
      10     58.350    112.700
      11     58.350    112.700
      12     37.500    110.700
      13     37.500    110.700
      14     37.500    110.700
      15     37.500    110.700
      16     37.500    110.700
      17     37.500    110.700
      18     37.500    110.700
      19     37.500    110.700
      20     37.500    110.700
      21     37.500    110.700
      22     37.500    110.700
      23     35.000    114.300
      24     37.500    117.200
      25     37.500    117.200
      26     37.500    117.200
      27     37.500    117.200
      28     37.500    117.200
      29     37.500    117.200
      30     35.000    114.300
      31     35.000    114.300
      32     37.500    117.200
      33     37.500    117.200
      34     58.350    112.700
      35     37.500    117.200
      36     30.000     83.000
      37     33.000    107.800
      38     37.500    110.700
      39     37.500    117.200
      40     37.500    110.700
      41     37.500    110.700
      42     37.500    117.200
      43     37.500    110.700
      44     37.500    117.200
      45     37.500    110.700
      46     37.500    117.200
      47     37.500    117.200
      48     37.500    117.200
      49     37.500    117.200
      50     37.500    117.200
      51     37.500    117.200
      52     33.000    107.800
      53     33.000    107.800
      54     30.000     83.000
      55     37.500    117.200
      56     33.000    107.800
      57     30.000     83.000
      58     35.000    114.300
      59     58.350    112.700
      60     37.500    117.200
      61     33.000    107.800
      62     30.000     83.000
      63     30.000     83.000
      64     30.000     83.000
      65     37.500    110.700
      66     37.500    117.200
      67     37.500    117.200
      68     37.500    110.700
      69     30.000     83.000
      70     37.500    110.700
      71     30.000     83.000
      72     37.500    110.700
      73     30.000     83.000
      74     33.000    107.800
      75     37.500    117.200
      76     35.000    114.300
      77     37.500    110.700
      78     37.500    117.200

Dihedral Coeffs  

       1      1.300     -0.200      0.200      0.000 
       2      1.300     -0.200      0.200      0.000 
       3      1.300     -0.200      0.200      0.000 
       4      1.300     -0.200      0.200      0.000 
       5      0.000      0.000      0.000      0.000 
       6      0.000      0.000      0.000      0.000 
       7      0.000      0.000      0.300      0.000 
       8      0.000      0.000      0.000      0.000 
       9      0.000      0.000      0.000      0.000 
      10      0.000      0.000      0.000      0.000 
      11      0.000      0.000      0.000      0.000 
      12      0.000      0.000      0.300      0.000 
      13      0.000      0.000      0.000      0.000 
      14      0.000      0.000      0.000      0.000 
      15      0.000      0.000      0.000      0.000 
      16      0.000      0.000      0.000      0.000 
      17      0.000      0.000      0.000      0.000 
      18      0.000      0.000      0.000      0.000 
      19      0.000      0.000      0.300      0.000 
      20      0.000      0.000      0.000      0.000 
      21      0.000      0.000      0.300      0.000 
      22      0.000      0.000      0.000      0.000 
      23      0.000      0.000      0.000      0.000 
      24      0.000      0.000      0.300      0.000 
      25      0.000      0.000      0.300      0.000 
      26      0.000      0.000      0.300      0.000 
      27      0.000      0.000      0.300      0.000 
      28      0.000      0.000      0.000      0.000 
      29      0.000      0.000      0.000      0.000 
      30      0.000      0.000      0.000      0.000 
      31      0.000      0.000      0.300      0.000 
      32      0.000      0.000      0.000      0.000 
      33      0.000      0.000      0.300      0.000 
      34      0.000      0.000      0.000      0.000 
      35      0.000      0.000      0.000      0.000 
      36      0.000      0.000      0.300      0.000 
      37      0.000      0.000      0.300      0.000 
      38      0.000      0.000      0.000      0.000 
      39      0.000      0.000      0.000      0.000 
      40      0.000      0.000      0.000      0.000 
      41      0.000      0.000      0.000      0.000 
      42      0.000      0.000      0.000      0.000 
      43      0.000      0.000      0.000      0.000 
      44      0.000      0.000      0.000      0.000 
      45      0.000      0.000      0.300      0.000 
      46      0.000      0.000      0.000      0.000 
      47      0.000      0.000      0.000      0.000 
      48      0.000      0.000      0.000      0.000 
      49      0.000      0.000      0.300      0.000 
      50      1.300     -0.200      0.200      0.000 
      51      0.000      0.000      0.300      0.000 
      52      0.000      0.000      0.300      0.000 
      53      0.000      0.000      0.300      0.000 
      54      0.000      0.000      0.000      0.000 
      55      0.000      0.000      0.000      0.000 
      56      0.000      0.000      0.300      0.000 
      57      0.000      0.000      0.000      0.000 
      58      1.300     -0.200      0.200      0.000 
      59      0.000      0.000      0.300      0.000 
      60      0.000      0.000      0.300      0.000 
      61      0.000      0.000      0.000      0.000 
      62      0.000      0.000      0.000      0.000 
      63      0.000      0.000      0.000      0.000 
      64      0.000      0.000      0.000      0.000 
      65      0.000      0.000      0.000      0.000 
      66      0.000      0.000      0.000      0.000 
      67      0.000      0.000      0.000      0.000 
      68      0.000      0.000      0.300      0.000 
      69      0.000      0.000      0.000      0.000 
      70      0.000      0.000      0.300      0.000 
      71      0.000      0.000      0.000      0.000 
      72      0.000      0.000      0.300      0.000 
      73      0.000      0.000      0.000      0.000 
      74      0.000      0.000      0.300      0.000 
      75      0.000      0.000      0.000      0.000 
      76      0.000      0.000      0.300      0.000 
      77      0.000      0.000      0.000      0.000 
      78      0.000      0.000      0.300      0.000 
      79      0.000      0.000      0.300      0.000 
      80      0.000      0.000      0.300      0.000 
      81      0.000      0.000      0.000      0.000 
      82      0.000      0.000      0.300      0.000 
      83      0.000      0.000      0.300      0.000 
      84      0.000      0.000      0.000      0.000 
      85      0.000      0.000      0.000      0.000 
      86      0.000      0.000      0.000      0.000 
      87      0.000      0.000      0.000      0.000 
      88      0.000      0.000      0.300      0.000 
      89      0.000      0.000      0.300      0.000 
      90      0.000      0.000      0.000      0.000 
      91      0.000      0.000      0.000      0.000 
      92      0.000      0.000      0.000      0.000 
      93      0.000      0.000      0.300      0.000 
      94      0.000      0.000      0.000      0.000 
      95      0.000      0.000      0.300      0.000 
      96      1.300     -0.200      0.200      0.000 
      97      0.000      0.000      0.300      0.000 
      98      0.000      0.000      0.300      0.000 
      99      0.000      0.000      0.000      0.000 
     100      0.000      0.000      0.000      0.000 
     101      0.000      0.000      0.000      0.000 
     102      0.000      0.000      0.300      0.000 
     103      0.000      0.000      0.000      0.000 
     104      0.000      0.000      0.000      0.000 
     105      0.000      0.000      0.000      0.000 
     106      0.000      0.000      0.300      0.000 
     107      0.000      0.000      0.000      0.000 
     108      0.000      0.000      0.000      0.000 
     109      0.000      0.000      0.300      0.000 
     110      0.000      0.000      0.300      0.000 
     111      0.000      0.000      0.300      0.000 
     112      0.000      0.000      0.300      0.000 
     113      0.000      0.000      0.000      0.000 
     114      0.000      0.000      0.000      0.000 
     115      0.000      0.000      0.000      0.000 
     116      0.000      0.000      0.300      0.000 
     117      0.000      0.000      0.300      0.000 
     118      0.000      0.000      0.300      0.000 
     119      0.000      0.000      0.000      0.000 
     120      0.000      0.000      0.000      0.000 
     121      0.000      0.000      0.000      0.000 
     122      0.000      0.000      0.000      0.000 
     123      0.000      0.000      0.300      0.000 
     124      0.000      0.000      0.300      0.000 
     125      0.000      0.000      0.300      0.000 
     126      0.000      0.000      0.000      0.000 
     127      0.000      0.000      0.000      0.000 
     128      0.000      0.000      0.000      0.000 
     129      0.000      0.000      0.300      0.000 
     130      0.000      0.000      0.300      0.000 
     131      0.000      0.000      0.300      0.000 

Improper Coeffs 

       1      0.000      -1       2 
       2      0.000      -1       2 
       3      0.000      -1       2 
       4      0.000      -1       2 
       5      0.000      -1       2 
       6      0.000      -1       2 
       7      0.000      -1       2 
       8      0.000      -1       2 
       9      0.000      -1       2 
      10      0.000      -1       2 
      11      0.000      -1       2 
      12      0.000      -1       2 
      13      0.000      -1       2 
      14      0.000      -1       2 
      15      0.000      -1       2 
      16      0.000      -1       2 
      17      0.000      -1       2 
      18      0.000      -1       2 
      19      0.000      -1       2 
      20      0.000      -1       2 
      21      0.000      -1       2 
      22      0.000      -1       2 
      23      0.000      -1       2 
      24      0.000      -1       2 
      25      0.000      -1       2 
      26      0.000      -1       2 
      27      0.000      -1       2 
      28      0.000      -1       2 
      29      0.000      -1       2 
      30      0.000      -1       2 
      31      0.000      -1       2 
      32      0.000      -1       2 
      33      0.000      -1       2 

Atoms 

     1      1      1 -0.23850000    1.000  1.00000  0.00000
     2      1      2 -0.18140000   -0.517  1.00000  0.00000
     3      1      3 -0.16450000   -1.117  1.00000  1.41266
     4      1      4 -0.08560000   -2.647  1.06585  1.35216
     5      1      5 -0.17390000   -3.319 -0.15970  0.67533
     6      1      6 -0.08260000   -4.373 -0.71352  1.65498
     7      1      7 -0.14050000   -3.771 -1.90140  2.43768
     8      1      8 -0.19210000   -4.733 -2.61349  3.42514
     9      1      9 -0.17960000   -3.707 -2.36168  4.54107
    10      1     10 -0.11600000   -3.062 -1.25425  3.67680
    11      1     11 -0.14820000   -3.538  0.18481  3.76101
    12      1     12 -0.14570000   -3.325  1.24935  2.68865
    13      1     13 -0.20970000   -4.532  0.39514  2.66992
    14      1     14 0.08060000    1.368  0.91864 -1.03146
    15      1     15 0.08060000    1.399  0.15143  0.56390
    16      1     16 0.08060000    1.397  1.92600  0.42496
    17      1     17 0.08670000   -0.857  0.11896 -0.55540
    18      1     18 0.08670000   -0.869  1.88035 -0.55062
    19      1     19 0.09390000   -0.741  1.86955  1.96646
    20      1     20 0.09390000   -0.792  0.11067  1.96317
    21      1     21 0.09840000   -2.907  1.94746  0.75022
    22      1     22 0.09300000   -2.599 -0.92909  0.37535
    23      1     23 0.09300000   -3.821  0.18189 -0.23937
    24      1     24 0.11800000   -5.299 -0.98973  1.14443
    25      1     25 0.12540000   -3.154 -2.60052  1.86139
    26      1     26 0.10010000   -4.930 -3.66518  3.20019
    27      1     27 0.10010000   -5.689 -2.10337  3.58154
    28      1     28 0.10000000   -3.042 -3.21532  4.71785
    29      1     29 0.10000000   -4.131 -2.04287  5.49717
    30      1     30 0.10910000   -1.968 -1.30739  3.66202
    31      1     31 0.14140000   -3.795  0.47340  4.77113
    32      1     32 0.13900000   -3.399  2.28749  2.99264
    33      1     33 0.13800000   -5.517  0.77512  2.86492

Bonds 

     1      1      2      1
     2      2      3      2
     3      3      4      3
     4      4      5      4
     5      5      6      5
     6      6      7      6
     7      7      8      7
     8      8      9      8
     9      9     10      7
    10     10     11     10
    11     11     12      4
    12     12     13      6
    13     13     14      1
    14     14     15      1
    15     15     16      1
    16     16     17      2
    17     17     18      2
    18     18     19      3
    19     19     20      3
    20     20     21      4
    21     21     22      5
    22     22     23      5
    23     23     24      6
    24     24     25      7
    25     25     26      8
    26     26     27      8
    27     27     28      9
    28     28     29      9
    29     29     30     10
    30     30     31     11
    31     31     32     12
    32     32     33     13
    33     33     10      9
    34     34     12     11
    35     35     13     11
    36     36     13     12

Angles 

     1      1      1      2      3
     2      2      2      3      4
     3      3      3      4      5
     4      4      4      5      6
     5      5      5      6      7
     6      6      6      7      8
     7      7      7      8      9
     8      8      6      7     10
     9      9      7     10     11
    10     10      3      4     12
    11     11      5      6     13
    12     12      2      1     14
    13     13      2      1     15
    14     14      2      1     16
    15     15      1      2     17
    16     16      1      2     18
    17     17      2      3     19
    18     18      2      3     20
    19     19      3      4     21
    20     20      4      5     22
    21     21      4      5     23
    22     22      5      6     24
    23     23      6      7     25
    24     24      7      8     26
    25     25      7      8     27
    26     26      8      9     28
    27     27      8      9     29
    28     28      7     10     30
    29     29     10     11     31
    30     30      4     12     32
    31     31      6     13     33
    32     32      6     13     12
    33     33     10      9     29
    34     34      5      4     12
    35     35      4     12     13
    36     36     11     12     13
    37     37     22      5     23
    38     38      3      2     18
    39     39     10      7     25
    40     40      6      5     22
    41     41      3      2     17
    42     42     12     11     31
    43     43     13      6     24
    44     44     13     12     32
    45     45      4      3     19
    46     46      9     10     30
    47     47      9      8     27
    48     48      4     12     11
    49     49      6     13     11
    50     50     13     11     31
    51     51      8      7     25
    52     52     15      1     16
    53     53     14      1     15
    54     54     10     11     12
    55     55     11     12     32
    56     56     17      2     18
    57     57     11     13     12
    58     58     28      9     29
    59     59      7      6     13
    60     60     11     13     33
    61     61     19      3     20
    62     62      7     10      9
    63     63     12     11     13
    64     64      9     10     11
    65     65      6      5     23
    66     66      9      8     26
    67     67     10      9     28
    68     68      5      4     21
    69     69     10     11     13
    70     70      4      3     20
    71     71      8      9     10
    72     72      7      6     24
    73     73      8      7     10
    74     74     14      1     16
    75     75     12     13     33
    76     76     26      8     27
    77     77     12      4     21
    78     78     11     10     30

Dihedrals

     1      1      4      3      2      1 
     2      2      5      4      3      2 
     3      3      6      5      4      3 
     4      4      7      6      5      4 
     5      5      8      7      6      5 
     6      6      9      8      7      6 
     7      7     14      1      2      3 
     8      8     30     10     11     13 
     9      9     32     12     11     13 
    10     10     32     12     13     11 
    11     11      6     13     12      4 
    12     12     24      6      5     22 
    13     13     27      8      7     10 
    14     14     12     13      6      5 
    15     15     12     11     10      7 
    16     16     32     12     11     10 
    17     17     31     11     10      7 
    18     18     11     12      4      3 
    19     19     20      3      4     12 
    20     20     10     11     13      6 
    21     21     32     12      4      3 
    22     22     29      9      8      7 
    23     23     26      8      9     10 
    24     24     23      5      6      7 
    25     25     24      6      7     10 
    26     26     17      2      1     16 
    27     27     18      2      1     15 
    28     28     26      8      7     25 
    29     29     30     10      9     28 
    30     30     11     13      6      5 
    31     31     17      2      3      4 
    32     32     12     13      6      7 
    33     33     19      3      4     12 
    34     34     11     10      7      8 
    35     35     26      8      7     10 
    36     36     22      5      4     21 
    37     37     19      3      2      1 
    38     38     31     11     13     12 
    39     39     28      9      8     27 
    40     40     11     10      7      6 
    41     41     33     13      6      7 
    42     42     33     13     11     10 
    43     43     31     11     12      4 
    44     44     29      9     10      7 
    45     45     22      5      6     13 
    46     46     13     12      4      5 
    47     47     31     11     13      6 
    48     48     11     13      6      7 
    49     49     20      3      2      1 
    50     50     13      6      5      4 
    51     51     20      3      2     18 
    52     52     18      2      1     14 
    53     53     17      2      1     15 
    54     54     11     10      9      8 
    55     55     27      8      7      6 
    56     56     23      5      4     12 
    57     57     33     13     12     11 
    58     58     12      4      5      6 
    59     59     22      5      4      3 
    60     60     23      5      4     21 
    61     61     27      8      9     10 
    62     62     30     10      9     29 
    63     63     33     13     11     12 
    64     64     30     10      7      6 
    65     65     13      6      7      8 
    66     66     25      7     10     11 
    67     67     25      7      6     13 
    68     68     20      3      4      5 
    69     69     33     13     11     31 
    70     70     23      5      6     13 
    71     71     12     11     10      9 
    72     72     25      7      6      5 
    73     73     31     11     10     30 
    74     74     23      5      4      3 
    75     75     31     11     12     13 
    76     76     21      4      3      2 
    77     77     10     11     12      4 
    78     78     25      7      6     24 
    79     79     21      4     12     13 
    80     80     24      6      5      4 
    81     81     33     13     12      4 
    82     82     32     12      4     21 
    83     83     22      5      6      7 
    84     84     28      9      8      7 
    85     85     31     11     10      9 
    86     86     28      9     10      7 
    87     87     29      9     10     11 
    88     88     24      6      5     23 
    89     89     21      4      3     19 
    90     90     28      9      8     26 
    91     91     29      9      8     27 
    92     92     30     10      7     25 
    93     93     24      6     13     11 
    94     94     30     10     11     12 
    95     95     15      1      2      3 
    96     96     12      4      3      2 
    97     97     24      6      7      8 
    98     98     17      2      1     14 
    99     99     13      6      7     10 
   100    100      9     10      7      6 
   101    101     13     11     10      9 
   102    102     21      4      3     20 
   103    103     26      8      7      6 
   104    104     13     12      4      3 
   105    105     11     12      4      5 
   106    106     21      4     12     11 
   107    107     29      9      8     26 
   108    108     13     11     10      7 
   109    109     32     12      4      5 
   110    110     20      3      2     17 
   111    111     19      3      2     18 
   112    112     19      3      2     17 
   113    113     30     10      7      8 
   114    114     10      7      6      5 
   115    115     27      8      7     25 
   116    116     21      4      5      6 
   117    117     19      3      4      5 
   118    118     18      2      3      4 
   119    119     30     10      9      8 
   120    120     32     12     13      6 
   121    121     25      7     10      9 
   122    122     33     13     12     32 
   123    123     24      6     13     12 
   124    124     16      1      2      3 
   125    125     22      5      4     12 
   126    126     25      7      8      9 
   127    127     32     12     11     31 
   128    128     28      9     10     11 
   129    129     33     13      6      5 
   130    130     18      2      1     16 
   131    131     33     13      6     24 

Impropers

     1      1      7     10      6      8 
     2      2     10      9     11      7 
     3      3      4      3     12      5 
     4      4      6      5     13      7 
     5      5      1      2     14     15 
     6      6      1      2     14     16 
     7      7      2     17      3      1 
     8      8      2      1     18      3 
     9      9      3      2     19      4 
    10     10      3      4      2     20 
    11     11      4      5      3     21 
    12     12      5      4     22      6 
    13     13      5      4      6     23 
    14     14      6      5      7     24 
    15     15      7     25      6      8 
    16     16      8      9     26      7 
    17     17      8      9     27      7 
    18     18      9     10     28      8 
    19     19      9     10     29      8 
    20     20     10      9     30      7 
    21     21     11     10     12     31 
    22     22     12      4     11     32 
    23     23     13     33     11      6 
    24     24      9     10      7      8 
    25     25     11     12     13     10 
    26     26      9     10      7      8 
    27     27     12     11     13      4 
    28     28      9     10      7      8 
    29     29     13     11     12      6 
    30     30     13     11     12      6 
    31     31     11     12     13     10 
    32     32      9     10      7      8 
    33     33     12     11     13      4 

