LAMMPS data file Created by LigParGen - (Written by Leela S. Dodda)

      28 atoms
      29 bonds
      60 angles
      95 dihedrals
      17 impropers
 
      28 atom types
      29 bond types
      60 angle types
      95 dihedral types
      17 improper types
 
   -2.566330    47.433670 xlo xhi
    0.064490    50.064490 ylo yhi
   -1.162070    48.837930 zlo zhi

Masses

       1     12.011  
       2     12.011  
       3     12.011  
       4     12.011  
       5     12.011  
       6     12.011  
       7     12.011  
       8     12.011  
       9     12.011  
      10     12.011  
      11      1.008  
      12      1.008  
      13      1.008  
      14      1.008  
      15      1.008  
      16      1.008  
      17      1.008  
      18      1.008  
      19      1.008  
      20      1.008  
      21      1.008  
      22      1.008  
      23      1.008  
      24      1.008  
      25      1.008  
      26      1.008  
      27      1.008  
      28      1.008  

Pair Coeffs 

       1      0.066  3.5000000 
       2      0.066  3.5000000 
       3      0.066  3.5000000 
       4      0.066  3.5000000 
       5      0.083  3.4500000 
       6      0.083  3.4500000 
       7      0.083  3.4500000 
       8      0.066  3.5000000 
       9      0.066  3.5000000 
      10      0.066  3.5000000 
      11      0.030  2.5000000 
      12      0.030  2.5000000 
      13      0.030  2.5000000 
      14      0.030  2.5000000 
      15      0.030  2.5000000 
      16      0.030  2.5000000 
      17      0.030  2.5000000 
      18      0.030  2.5000000 
      19      0.030  2.5000000 
      20      0.030  2.5000000 
      21      0.030  2.5000000 
      22      0.030  2.5000000 
      23      0.030  2.5000000 
      24      0.030  2.5000000 
      25      0.030  2.5000000 
      26      0.030  2.5000000 
      27      0.030  2.5000000 
      28      0.030  2.5000000 

Bond Coeffs 

       1   268.0000     1.5290 
       2   268.0000     1.5290 
       3   268.0000     1.5290 
       4   280.0000     1.5100 
       5   260.0000     1.5200 
       6   260.0000     1.5200 
       7   280.0000     1.5100 
       8   268.0000     1.5290 
       9   268.0000     1.5290 
      10   340.0000     1.0900 
      11   340.0000     1.0900 
      12   340.0000     1.0900 
      13   340.0000     1.0900 
      14   340.0000     1.0900 
      15   340.0000     1.0900 
      16   340.0000     1.0900 
      17   340.0000     1.0900 
      18   340.0000     1.0880 
      19   340.0000     1.0880 
      20   340.0000     1.0880 
      21   340.0000     1.0880 
      22   340.0000     1.0900 
      23   340.0000     1.0900 
      24   340.0000     1.0900 
      25   340.0000     1.0900 
      26   340.0000     1.0900 
      27   340.0000     1.0900 
      28   260.0000     1.5200 
      29   268.0000     1.5290 

Angle Coeffs 

       1     58.350    112.700
       2     58.350    112.700
       3     58.350    112.700
       4     37.500    117.200
       5     37.500    117.200
       6     37.500    117.200
       7     58.350    112.700
       8     58.350    112.700
       9     37.500    110.700
      10     37.500    110.700
      11     37.500    110.700
      12     37.500    110.700
      13     37.500    110.700
      14     37.500    110.700
      15     37.500    110.700
      16     37.500    110.700
      17     35.000    114.300
      18     37.500    117.200
      19     37.500    117.200
      20     37.500    117.200
      21     37.500    110.700
      22     37.500    110.700
      23     37.500    110.700
      24     37.500    110.700
      25     37.500    110.700
      26     37.500    110.700
      27     33.000    107.800
      28     33.000    107.800
      29     37.500    110.700
      30     33.000    107.800
      31     35.000    114.300
      32     58.350    112.700
      33     37.500    110.700
      34     37.500    117.200
      35     30.000     83.000
      36     30.000     83.000
      37     33.000    107.800
      38     33.000    107.800
      39     37.500    117.200
      40     33.000    107.800
      41     30.000     83.000
      42     37.500    110.700
      43     37.500    110.700
      44     37.500    117.200
      45     37.500    110.700
      46     35.000    114.300
      47     37.500    110.700
      48     37.500    110.700
      49     37.500    110.700
      50     33.000    107.800
      51     37.500    110.700
      52     37.500    110.700
      53     58.350    112.700
      54     37.500    110.700
      55     37.500    110.700
      56     37.500    117.200
      57     37.500    110.700
      58     37.500    117.200
      59     37.500    117.200
      60     37.500    110.700

Dihedral Coeffs  

       1      1.300     -0.200      0.200      0.000 
       2      1.300     -0.200      0.200      0.000 
       3      0.000      0.000      0.000      0.000 
       4      0.000      0.000      0.000      0.000 
       5      0.000      0.000      0.000      0.000 
       6      0.000      0.000      0.000      0.000 
       7      1.300     -0.200      0.200      0.000 
       8      0.000      0.000      0.000      0.000 
       9      0.000      0.000      0.000      0.000 
      10      0.000      0.000      0.000      0.000 
      11      0.000      0.000      0.300      0.000 
      12      0.000      0.000      0.000      0.000 
      13      0.000      0.000      0.300      0.000 
      14      0.000      0.000      0.300      0.000 
      15      0.000      0.000      0.300      0.000 
      16      0.000      0.000      0.000      0.000 
      17      1.300     -0.200      0.200      0.000 
      18      0.000      0.000      0.300      0.000 
      19      0.000      0.000      0.300      0.000 
      20      0.000      0.000      0.300      0.000 
      21      0.000      0.000      0.300      0.000 
      22      0.000      0.000      0.000      0.000 
      23      0.000      0.000      0.300      0.000 
      24      0.000      0.000      0.300      0.000 
      25      0.000      0.000      0.300      0.000 
      26      0.000      0.000      0.000      0.000 
      27      0.000      0.000      0.300      0.000 
      28      0.000      0.000      0.300      0.000 
      29      0.000      0.000      0.000      0.000 
      30      0.000      0.000      0.000      0.000 
      31      0.000      0.000      0.300      0.000 
      32      0.000      0.000      0.300      0.000 
      33      0.000      0.000      0.300      0.000 
      34      0.000      0.000      0.300      0.000 
      35      0.000      0.000      0.300      0.000 
      36      0.000      0.000      0.300      0.000 
      37      0.000      0.000      0.300      0.000 
      38      0.000      0.000      0.300      0.000 
      39      0.000      0.000      0.000      0.000 
      40      0.000      0.000      0.300      0.000 
      41      0.000      0.000      0.300      0.000 
      42      0.000      0.000      0.300      0.000 
      43      0.000      0.000      0.000      0.000 
      44      0.000      0.000      0.000      0.000 
      45      0.000      0.000      0.300      0.000 
      46      0.000      0.000      0.000      0.000 
      47      0.000      0.000      0.300      0.000 
      48      0.000      0.000      0.300      0.000 
      49      0.000      0.000      0.000      0.000 
      50      0.000      0.000      0.300      0.000 
      51      0.000      0.000      0.300      0.000 
      52      0.000      0.000      0.300      0.000 
      53      0.000      0.000      0.000      0.000 
      54      0.000      0.000      0.000      0.000 
      55      0.000      0.000      0.300      0.000 
      56      0.000      0.000      0.300      0.000 
      57      0.000      0.000      0.300      0.000 
      58      1.300     -0.200      0.200      0.000 
      59      0.000      0.000      0.300      0.000 
      60      0.000      0.000      0.300      0.000 
      61      0.000      0.000      0.300      0.000 
      62      0.000      0.000      0.300      0.000 
      63      0.000      0.000      0.000      0.000 
      64      0.000      0.000      0.300      0.000 
      65      0.000      0.000      0.300      0.000 
      66      0.000      0.000      0.300      0.000 
      67      0.000      0.000      0.300      0.000 
      68      0.000      0.000      0.300      0.000 
      69      0.000      0.000      0.300      0.000 
      70      0.000      0.000      0.300      0.000 
      71      0.000      0.000      0.300      0.000 
      72      0.000      0.000      0.300      0.000 
      73      0.000      0.000      0.000      0.000 
      74      0.000      0.000      0.300      0.000 
      75      0.000      0.000      0.300      0.000 
      76      0.000      0.000      0.300      0.000 
      77      0.000      0.000      0.300      0.000 
      78      0.000      0.000      0.300      0.000 
      79      0.000      0.000      0.300      0.000 
      80      0.000      0.000      0.300      0.000 
      81      0.000      0.000      0.000      0.000 
      82      0.000      0.000      0.300      0.000 
      83      0.000      0.000      0.300      0.000 
      84      0.000      0.000      0.300      0.000 
      85      0.000      0.000      0.000      0.000 
      86      0.000      0.000      0.000      0.000 
      87      0.000      0.000      0.000      0.000 
      88      0.000      0.000      0.300      0.000 
      89      0.000      0.000      0.300      0.000 
      90      1.300     -0.200      0.200      0.000 
      91      0.000      0.000      0.300      0.000 
      92      0.000      0.000      0.000      0.000 
      93      0.000      0.000      0.300      0.000 
      94      0.000      0.000      0.300      0.000 
      95      0.000      0.000      0.300      0.000 

Improper Coeffs 

       1      0.000      -1       2 
       2      0.000      -1       2 
       3      0.000      -1       2 
       4      0.000      -1       2 
       5      0.000      -1       2 
       6      0.000      -1       2 
       7      0.000      -1       2 
       8      0.000      -1       2 
       9      0.000      -1       2 
      10      0.000      -1       2 
      11      0.000      -1       2 
      12      0.000      -1       2 
      13      0.000      -1       2 
      14      0.000      -1       2 
      15      0.000      -1       2 
      16      0.000      -1       2 
      17      0.000      -1       2 

Atoms 

     1      1      1 -0.17000000    1.000  1.00000  0.00000
     2      1      2 -0.17050000   -0.526  1.00000  0.00000
     3      1      3 -0.16870000   -1.128  1.00000  1.39882
     4      1      4 -0.12880000   -1.876  2.27538  1.73614
     5      1      5 -0.16100000   -1.120  3.47454  2.22019
     6      1      6 -0.26880000   -1.372  4.67931  1.33925
     7      1      7 -0.13780000    0.021  4.44221  1.81682
     8      1      8 -0.14090000    1.102  4.46373  0.79165
     9      1      9 -0.16750000    1.976  3.22884  0.70417
    10      1     10 -0.17160000    1.592  2.32246 -0.45022
    11      1     11 0.08630000    1.327  0.23816 -0.71735
    12      1     12 0.08630000    1.407  0.68872  0.96930
    13      1     13 0.08560000   -0.844  0.06449 -0.48904
    14      1     14 0.08560000   -0.939  1.80194 -0.61620
    15      1     15 0.08700000   -0.407  0.73580  2.17853
    16      1     16 0.08700000   -1.884  0.19878  1.40719
    17      1     17 0.08500000   -2.544  2.00534  2.57150
    18      1     18 0.08500000   -2.566  2.53117  0.92441
    19      1     19 0.11680000   -1.345  3.57763  3.28540
    20      1     20 0.11900000   -1.936  5.49991  1.75178
    21      1     21 0.11900000   -1.570  4.50401  0.27799
    22      1     22 0.12030000    0.337  5.07972  2.64294
    23      1     23 0.08650000    1.770  5.29219  1.09068
    24      1     24 0.08650000    0.733  4.77729 -0.19270
    25      1     25 0.08940000    2.027  2.70186  1.67230
    26      1     26 0.08940000    3.002  3.57307  0.50786
    27      1     27 0.08530000    2.506  2.10095 -1.00989
    28      1     28 0.08530000    0.933  2.83714 -1.16207

Bonds 

     1      1      2      1
     2      2      3      2
     3      3      4      3
     4      4      5      4
     5      5      6      5
     6      6      7      5
     7      7      8      7
     8      8      9      8
     9      9     10      1
    10     10     11      1
    11     11     12      1
    12     12     13      2
    13     13     14      2
    14     14     15      3
    15     15     16      3
    16     16     17      4
    17     17     18      4
    18     18     19      5
    19     19     20      6
    20     20     21      6
    21     21     22      7
    22     22     23      8
    23     23     24      8
    24     24     25      9
    25     25     26      9
    26     26     27     10
    27     27     28     10
    28     28      7      6
    29     29     10      9

Angles 

     1      1      1      2      3
     2      2      2      3      4
     3      3      3      4      5
     4      4      4      5      6
     5      5      4      5      7
     6      6      5      7      8
     7      7      7      8      9
     8      8      2      1     10
     9      9      2      1     11
    10     10      2      1     12
    11     11      1      2     13
    12     12      1      2     14
    13     13      2      3     15
    14     14      2      3     16
    15     15      3      4     17
    16     16      3      4     18
    17     17      4      5     19
    18     18      5      6     20
    19     19      5      6     21
    20     20      5      7     22
    21     21      7      8     23
    22     22      7      8     24
    23     23      8      9     25
    24     24      8      9     26
    25     25      1     10     27
    26     26      1     10     28
    27     27     27     10     28
    28     28     25      9     26
    29     29      3      2     14
    30     30     13      2     14
    31     31     20      6     21
    32     32      1     10      9
    33     33      9      8     24
    34     34      6      5     19
    35     35      5      7      6
    36     36      5      6      7
    37     37     17      4     18
    38     38     15      3     16
    39     39      6      7      8
    40     40     11      1     12
    41     41      6      5      7
    42     42      9      8     23
    43     43      9     10     28
    44     44      7      5     19
    45     45     10      9     25
    46     46      8      7     22
    47     47     10      1     11
    48     48      3      2     13
    49     49     10      9     26
    50     50     23      8     24
    51     51      4      3     16
    52     52      9     10     27
    53     53      8      9     10
    54     54      5      4     18
    55     55     10      1     12
    56     56      7      6     21
    57     57      4      3     15
    58     58      7      6     20
    59     59      6      7     22
    60     60      5      4     17

Dihedrals

     1      1      4      3      2      1 
     2      2      5      4      3      2 
     3      3      6      5      4      3 
     4      4      7      5      4      6 
     5      5      8      7      5      6 
     6      6      9      8      7      5 
     7      7     10      1      2      3 
     8      8     20      6      5      7 
     9      9     21      6      5      7 
    10     10     22      7      5      6 
    11     11     15      3      4      5 
    12     12     22      7      6     20 
    13     13     18      4      3      2 
    14     14     25      9     10      1 
    15     15     24      8      7     22 
    16     16     19      5      6      7 
    17     17     10      9      8      7 
    18     18     26      9     10      1 
    19     19     16      3      2      1 
    20     20     17      4      3     15 
    21     21     23      8      9     10 
    22     22      9      8      7      6 
    23     23     26      9      8      7 
    24     24     16      3      2     14 
    25     25     24      8      9     10 
    26     26     22      7      5     19 
    27     27     28     10      9     26 
    28     28     23      8      7     22 
    29     29     21      6      7      8 
    30     30     20      6      7      5 
    31     31     28     10      9     25 
    32     32     27     10      9     26 
    33     33     17      4      3      2 
    34     34     15      3      2      1 
    35     35     28     10      1     12 
    36     36     17      4      5      6 
    37     37     23      8      7      6 
    38     38     24      8      7      5 
    39     39     20      6      5     19 
    40     40     28     10      9      8 
    41     41     22      7      8      9 
    42     42     13      2      1     11 
    43     43     21      6      7      5 
    44     44     19      5      7      8 
    45     45     14      2      1     10 
    46     46     22      7      6      5 
    47     47     15      3      2     13 
    48     48     18      4      5      7 
    49     49     22      7      5      4 
    50     50     13      2      1     10 
    51     51     14      2      1     11 
    52     52     18      4      3     16 
    53     53     20      6      5      4 
    54     54     22      7      6     21 
    55     55     25      9      8      7 
    56     56     27     10      9     25 
    57     57     13      2      1     12 
    58     58      8      9     10      1 
    59     59     12      1      2      3 
    60     60     27     10      1      2 
    61     61     27     10      9      8 
    62     62     19      5      4      3 
    63     63     20      6      7      8 
    64     64     25      9      8     23 
    65     65     24      8      7      6 
    66     66     26      9      8     24 
    67     67     26      9      8     23 
    68     68     17      4      3     16 
    69     69     12      1     10      9 
    70     70     27     10      1     11 
    71     71     27     10      1     12 
    72     72     28     10      1     11 
    73     73     21      6      5      4 
    74     74     25      9      8     24 
    75     75     19      5      4     18 
    76     76     11      1      2      3 
    77     77     18      4      3     15 
    78     78     28     10      1      2 
    79     79     16      3      2     13 
    80     80     15      3      2     14 
    81     81     19      5      7      6 
    82     82     19      5      4     17 
    83     83     18      4      5      6 
    84     84     17      4      5      7 
    85     85     21      6      5     19 
    86     86      8      7      6      5 
    87     87      7      5      4      3 
    88     88     13      2      3      4 
    89     89     14      2      3      4 
    90     90      9     10      1      2 
    91     91     23      8      7      5 
    92     92      8      7      5      4 
    93     93     16      3      4      5 
    94     94     14      2      1     12 
    95     95     11      1     10      9 

Impropers

     1      1      1      2     11     10 
     2      2      1      2     12     10 
     3      3      2      1      3     13 
     4      4      2      1      3     14 
     5      5      3      2      4     15 
     6      6      3      2      4     16 
     7      7      4     17      3      5 
     8      8      4     18      3      5 
     9      9      5     19      4      6 
    10     10      8      9      7     23 
    11     11      8      9      7     24 
    12     12      9     25     10      8 
    13     13      9     26     10      8 
    14     14     10      1     27      9 
    15     15     10      1     28      9 
    16     16      5      6      7      4 
    17     17      5      6      7      4 

