LAMMPS data file Created by LigParGen - (Written by Leela S. Dodda)

      31 atoms
      30 bonds
      54 angles
      67 dihedrals
      17 impropers
 
      31 atom types
      30 bond types
      54 angle types
      67 dihedral types
      17 improper types
 
   -5.500220    44.499780 xlo xhi
    0.086820    50.086820 ylo yhi
   -1.018410    48.981590 zlo zhi

Masses

       1     12.011  
       2     12.011  
       3     15.999  
       4     12.011  
       5     15.999  
       6     15.999  
       7     12.011  
       8     12.011  
       9     12.011  
      10     12.011  
      11     12.011  
      12     14.007  
      13     12.011  
      14     12.011  
      15      1.008  
      16      1.008  
      17      1.008  
      18      1.008  
      19      1.008  
      20      1.008  
      21      1.008  
      22      1.008  
      23      1.008  
      24      1.008  
      25      1.008  
      26      1.008  
      27      1.008  
      28      1.008  
      29      1.008  
      30      1.008  
      31      1.008  

Pair Coeffs 

       1      0.066  3.5000000 
       2      0.066  3.5000000 
       3      0.140  2.9000000 
       4      0.070  3.5500000 
       5      0.210  2.9600000 
       6      0.140  2.9000000 
       7      0.066  3.5000000 
       8      0.066  3.5000000 
       9      0.066  3.5000000 
      10      0.066  3.5000000 
      11      0.066  3.3000000 
      12      0.170  3.2000000 
      13      0.066  3.5000000 
      14      0.066  3.5000000 
      15      0.030  2.5000000 
      16      0.030  2.5000000 
      17      0.030  2.5000000 
      18      0.030  2.5000000 
      19      0.030  2.5000000 
      20      0.030  2.5000000 
      21      0.030  2.5000000 
      22      0.030  2.5000000 
      23      0.030  2.5000000 
      24      0.030  2.5000000 
      25      0.030  2.5000000 
      26      0.030  2.5000000 
      27      0.030  2.5000000 
      28      0.030  2.5000000 
      29      0.030  2.5000000 
      30      0.030  2.5000000 
      31      0.030  2.5000000 

Bond Coeffs 

       1   268.0000     1.5290 
       2   320.0000     1.4100 
       3   214.0000     1.3270 
       4   570.0000     1.2290 
       5   214.0000     1.3270 
       6   320.0000     1.4100 
       7   268.0000     1.5290 
       8   268.0000     1.5290 
       9   268.0000     1.5290 
      10   390.0000     1.4700 
      11   650.0000     1.1570 
      12   268.0000     1.5290 
      13   268.0000     1.5290 
      14   340.0000     1.0900 
      15   340.0000     1.0900 
      16   340.0000     1.0900 
      17   340.0000     1.0900 
      18   340.0000     1.0900 
      19   340.0000     1.0900 
      20   340.0000     1.0900 
      21   340.0000     1.0900 
      22   340.0000     1.0900 
      23   340.0000     1.0900 
      24   340.0000     1.0900 
      25   340.0000     1.0900 
      26   340.0000     1.0900 
      27   340.0000     1.0900 
      28   340.0000     1.0900 
      29   340.0000     1.0900 
      30   340.0000     1.0900 

Angle Coeffs 

       1     50.000    109.500
       2     83.000    116.900
       3     83.000    123.400
       4     69.900    118.180
       5     83.000    116.900
       6     50.000    109.500
       7     50.000    109.500
       8     58.350    112.700
       9     58.350    112.700
      10    150.000    180.000
      11     58.350    112.700
      12     58.350    112.700
      13     37.500    110.700
      14     37.500    110.700
      15     37.500    110.700
      16     37.500    110.700
      17     37.500    110.700
      18     35.000    109.500
      19     37.500    110.700
      20     37.500    110.700
      21     37.500    110.700
      22     37.500    110.700
      23     37.500    110.700
      24     37.500    110.700
      25     37.500    110.700
      26     37.500    110.700
      27     37.500    110.700
      28     37.500    110.700
      29     37.500    110.700
      30     83.000    123.400
      31     33.000    107.800
      32     35.000    109.500
      33     37.500    110.700
      34     58.350    112.700
      35     33.000    107.800
      36     33.000    107.800
      37     33.000    107.800
      38     33.000    107.800
      39     33.000    107.800
      40     58.350    112.700
      41     33.000    107.800
      42     58.350    112.700
      43     35.000    109.500
      44     33.000    107.800
      45     33.000    107.800
      46     33.000    107.800
      47     58.350    112.700
      48     37.500    110.700
      49     33.000    107.800
      50     33.000    107.800
      51     33.000    107.800
      52     37.500    110.700
      53     33.000    107.800
      54     37.500    110.700

Dihedral Coeffs  

       1     -1.220     -0.126      0.422      0.000 
       2      0.000      5.124      0.000      0.000 
       3      4.669      5.124      0.000      0.000 
       4     -1.220     -0.126      0.422      0.000 
       5      1.711     -0.500      0.663      0.000 
       6      0.000      0.000      0.000      0.000 
       7      1.300     -0.200      0.200      0.000 
       8      0.000      0.000      0.468      0.000 
       9      0.000      0.000      0.468      0.000 
      10      0.000      0.000      0.300      0.000 
      11      0.000      0.000      0.300      0.000 
      12      0.000      0.000      0.300      0.000 
      13      0.000      0.000      0.366      0.000 
      14      0.000      0.000      0.300      0.000 
      15      0.000      0.000      0.300      0.000 
      16      0.000      0.000      0.366      0.000 
      17      1.711     -0.500      0.663      0.000 
      18      0.000      0.000      0.300      0.000 
      19      1.300     -0.200      0.200      0.000 
      20      0.000      0.000      0.000      0.000 
      21      0.000      0.000      0.300      0.000 
      22      0.000      0.000      0.300      0.000 
      23      0.000      0.000      0.300      0.000 
      24      0.000      0.000      0.300      0.000 
      25      0.000      0.000      0.300      0.000 
      26      0.000      0.000      0.468      0.000 
      27      0.000      0.000      0.300      0.000 
      28      0.000      0.000      0.198      0.000 
      29      0.000     -0.650      0.000      0.000 
      30      4.669      5.124      0.000      0.000 
      31      0.000      0.000      0.300      0.000 
      32      0.000      0.000      0.300      0.000 
      33      0.000      0.000      0.468      0.000 
      34      0.000      0.000      0.300      0.000 
      35      0.000      0.000      0.300      0.000 
      36      1.300     -0.200      0.200      0.000 
      37      0.000      0.000      0.300      0.000 
      38      0.000      0.000      0.300      0.000 
      39      0.000      0.000      0.366      0.000 
      40      1.711     -0.500      0.663      0.000 
      41      0.000     -0.650      0.000      0.000 
      42      0.000      0.000      0.300      0.000 
      43      0.000      0.000      0.300      0.000 
      44      0.000      0.000      0.366      0.000 
      45      0.000      0.000      0.300      0.000 
      46      0.000      0.000      0.198      0.000 
      47      0.000      0.000      0.300      0.000 
      48      0.000      0.000      0.300      0.000 
      49      0.000      0.000      0.366      0.000 
      50      0.000      0.000      0.300      0.000 
      51      0.000      0.000      0.300      0.000 
      52      0.000      0.000      0.000      0.000 
      53      0.000      0.000      0.300      0.000 
      54      0.000      0.000      0.300      0.000 
      55      0.000      0.000      0.300      0.000 
      56      0.000      0.000      0.300      0.000 
      57      0.000      0.000      0.300      0.000 
      58      0.000      0.000      0.300      0.000 
      59      0.000      0.000      0.468      0.000 
      60      0.000      0.000      0.198      0.000 
      61      0.000      0.000      0.366      0.000 
      62     -1.220     -0.126      0.422      0.000 
      63      1.300     -0.200      0.200      0.000 
      64      0.000      0.000      0.300      0.000 
      65      0.000      5.124      0.000      0.000 
      66      0.000      0.000      0.468      0.000 
      67      0.000      0.000      0.300      0.000 

Improper Coeffs 

       1     10.500      -1       2 
       2      0.000      -1       2 
       3      0.000      -1       2 
       4      0.000      -1       2 
       5      0.000      -1       2 
       6      0.000      -1       2 
       7      0.000      -1       2 
       8      0.000      -1       2 
       9      0.000      -1       2 
      10      0.000      -1       2 
      11      0.000      -1       2 
      12      0.000      -1       2 
      13      0.000      -1       2 
      14      0.000      -1       2 
      15      0.000      -1       2 
      16      0.000      -1       2 
      17      0.000      -1       2 

Atoms 

     1      1      1 -0.27710000    1.000  1.00000  0.00000
     2      1      2 0.01470000   -0.512  1.00000  0.00000
     3      1      3 -0.32240000   -0.968  1.00000  1.35868
     4      1      4 0.58320000   -1.306  2.20778  1.86299
     5      1      5 -0.48660000   -1.201  3.28583  1.29785
     6      1      6 -0.33920000   -1.928  2.00393  3.05332
     7      1      7 0.09240000   -3.101  2.81917  3.25780
     8      1      8 -0.27830000   -4.239  2.09021  2.52384
     9      1      9 0.07630000   -3.353  3.05260  4.78246
    10      1     10 -0.23340000   -4.610  3.92314  4.97982
    11      1     11 0.17160000   -3.563  1.75593  5.45676
    12      1     12 -0.38080000   -3.730  0.73667  5.98777
    13      1     13 -0.17050000   -2.113  3.76728  5.40364
    14      1     14 -0.24230000   -2.237  4.12179  6.88690
    15      1     15 0.10270000    1.392  0.95315 -1.01841
    16      1     16 0.10270000    1.376  0.14262  0.56783
    17      1     17 0.10270000    1.383  1.90155  0.48845
    18      1     18 0.12160000   -0.889  0.08682 -0.47344
    19      1     19 0.12160000   -0.912  1.84601 -0.57375
    20      1     20 0.13530000   -2.962  3.80139  2.78610
    21      1     21 0.10530000   -4.376  1.07719  2.91762
    22      1     22 0.10530000   -3.989  1.96623  1.46366
    23      1     23 0.10530000   -5.185  2.62874  2.57607
    24      1     24 0.10110000   -5.500  3.46424  4.53606
    25      1     25 0.10110000   -4.479  4.91199  4.52441
    26      1     26 0.10110000   -4.851  4.06095  6.03788
    27      1     27 0.10980000   -1.918  4.69557  4.85229
    28      1     28 0.10980000   -1.220  3.13942  5.28680
    29      1     29 0.08910000   -3.043  4.83869  7.06637
    30      1     30 0.08910000   -1.309  4.58727  7.23719
    31      1     31 0.08910000   -2.416  3.23446  7.50069

Bonds 

     1      1      2      1
     2      2      3      2
     3      3      4      3
     4      4      5      4
     5      5      6      4
     6      6      7      6
     7      7      8      7
     8      8      9      7
     9      9     10      9
    10     10     11      9
    11     11     12     11
    12     12     13      9
    13     13     14     13
    14     14     15      1
    15     15     16      1
    16     16     17      1
    17     17     18      2
    18     18     19      2
    19     19     20      7
    20     20     21      8
    21     21     22      8
    22     22     23      8
    23     23     24     10
    24     24     25     10
    25     25     26     10
    26     26     27     13
    27     27     28     13
    28     28     29     14
    29     29     30     14
    30     30     31     14

Angles 

     1      1      1      2      3
     2      2      2      3      4
     3      3      3      4      5
     4      4      3      4      6
     5      5      4      6      7
     6      6      6      7      8
     7      7      6      7      9
     8      8      7      9     10
     9      9      7      9     11
    10     10      9     11     12
    11     11      7      9     13
    12     12      9     13     14
    13     13      2      1     15
    14     14      2      1     16
    15     15      2      1     17
    16     16      1      2     18
    17     17      1      2     19
    18     18      6      7     20
    19     19      7      8     21
    20     20      7      8     22
    21     21      7      8     23
    22     22      9     10     24
    23     23      9     10     25
    24     24      9     10     26
    25     25      9     13     27
    26     26      9     13     28
    27     27     13     14     29
    28     28     13     14     30
    29     29     13     14     31
    30     30      5      4      6
    31     31     21      8     22
    32     32      3      2     18
    33     33     14     13     27
    34     34     10      9     13
    35     35     25     10     26
    36     36     24     10     25
    37     37     21      8     23
    38     38     22      8     23
    39     39     24     10     26
    40     40      8      7      9
    41     41     18      2     19
    42     42     11      9     13
    43     43      3      2     19
    44     44     15      1     16
    45     45     15      1     17
    46     46     16      1     17
    47     47     10      9     11
    48     48     14     13     28
    49     49     29     14     30
    50     50     27     13     28
    51     51     30     14     31
    52     52      8      7     20
    53     53     29     14     31
    54     54      9      7     20

Dihedrals

     1      1      4      3      2      1 
     2      2      5      4      3      2 
     3      3      7      6      4      3 
     4      4      8      7      6      4 
     5      5     10      9      7      6 
     6      6     12     11      9      7 
     7      7     14     13      9      7 
     8      8     15      1      2      3 
     9      9     21      8      7      6 
    10     10     24     10      9      7 
    11     11     29     14     13      9 
    12     12     24     10      9     13 
    13     13     20      7      9     11 
    14     14     18      2      1     16 
    15     15     25     10      9     13 
    16     16     26     10      9     11 
    17     17     11      9      7      6 
    18     18     31     14     13     28 
    19     19     14     13      9     10 
    20     20     13      9     11     12 
    21     21     23      8      7      9 
    22     22     30     14     13     27 
    23     23     21      8      7      9 
    24     24     31     14     13      9 
    25     25     23      8      7     20 
    26     26     23      8      7      6 
    27     27     19      2      1     16 
    28     28     19      2      3      4 
    29     29     14     13      9     11 
    30     30      6      4      3      2 
    31     31     22      8      7      9 
    32     32     30     14     13     28 
    33     33     22      8      7      6 
    34     34     29     14     13     27 
    35     35     27     13      9      7 
    36     36     13      9      7      8 
    37     37     28     13      9      7 
    38     38     28     13      9     10 
    39     39     27     13      9     11 
    40     40     13      9      7      6 
    41     41     11      9      7      8 
    42     42     20      7      9     13 
    43     43     26     10      9     13 
    44     44     24     10      9     11 
    45     45     21      8      7     20 
    46     46     18      2      3      4 
    47     47     19      2      1     17 
    48     48     18      2      1     15 
    49     49     25     10      9     11 
    50     50     22      8      7     20 
    51     51     20      7      9     10 
    52     52     12     11      9     10 
    53     53     31     14     13     27 
    54     54     25     10      9      7 
    55     55     26     10      9      7 
    56     56     30     14     13      9 
    57     57     18      2      1     17 
    58     58     27     13      9     10 
    59     59     16      1      2      3 
    60     60     20      7      6      4 
    61     61     28     13      9     11 
    62     62      9      7      6      4 
    63     63     10      9      7      8 
    64     64     29     14     13     28 
    65     65      7      6      4      5 
    66     66     17      1      2      3 
    67     67     19      2      1     15 

Impropers

     1      1      4      3      5      6 
     2      2      7      9      6      8 
     3      3      9     10     11      7 
     4      4      9     10     13      7 
     5      5      1      2     15     16 
     6      6      1     17     15      2 
     7      7      2      1     18      3 
     8      8      2      1     19      3 
     9      9      7     20      6      8 
    10     10      8     21     22      7 
    11     11      8     21      7     23 
    12     12     10     25      9     24 
    13     13     10      9     26     24 
    14     14     13      9     27     14 
    15     15     13      9     28     14 
    16     16     14     29     13     30 
    17     17     14     29     13     31 

