LAMMPS data file Created by LigParGen - (Written by Leela S. Dodda)

      61 atoms
      60 bonds
     117 angles
     162 dihedrals
      39 impropers
 
      61 atom types
      60 bond types
     117 angle types
     162 dihedral types
      39 improper types
 
  -10.313910    39.686090 xlo xhi
   -2.828940    47.171060 ylo yhi
   -1.023980    48.976020 zlo zhi

Masses

       1     12.011  
       2     12.011  
       3     12.011  
       4     12.011  
       5     12.011  
       6     12.011  
       7     12.011  
       8     12.011  
       9     12.011  
      10     12.011  
      11     12.011  
      12     12.011  
      13     12.011  
      14     12.011  
      15     12.011  
      16     12.011  
      17     12.011  
      18     14.007  
      19     12.011  
      20     12.011  
      21      1.008  
      22      1.008  
      23      1.008  
      24      1.008  
      25      1.008  
      26      1.008  
      27      1.008  
      28      1.008  
      29      1.008  
      30      1.008  
      31      1.008  
      32      1.008  
      33      1.008  
      34      1.008  
      35      1.008  
      36      1.008  
      37      1.008  
      38      1.008  
      39      1.008  
      40      1.008  
      41      1.008  
      42      1.008  
      43      1.008  
      44      1.008  
      45      1.008  
      46      1.008  
      47      1.008  
      48      1.008  
      49      1.008  
      50      1.008  
      51      1.008  
      52      1.008  
      53      1.008  
      54      1.008  
      55      1.008  
      56      1.008  
      57      1.008  
      58      1.008  
      59      1.008  
      60      1.008  
      61      1.008  

Pair Coeffs 

       1      0.066  3.5000000 
       2      0.066  3.5000000 
       3      0.066  3.5000000 
       4      0.066  3.5000000 
       5      0.066  3.5000000 
       6      0.066  3.5000000 
       7      0.066  3.5000000 
       8      0.066  3.5000000 
       9      0.066  3.5000000 
      10      0.066  3.5000000 
      11      0.066  3.5000000 
      12      0.066  3.5000000 
      13      0.066  3.5000000 
      14      0.066  3.5000000 
      15      0.066  3.5000000 
      16      0.066  3.5000000 
      17      0.066  3.5000000 
      18      0.170  3.3000000 
      19      0.066  3.5000000 
      20      0.066  3.5000000 
      21      0.030  2.5000000 
      22      0.030  2.5000000 
      23      0.030  2.5000000 
      24      0.030  2.5000000 
      25      0.030  2.5000000 
      26      0.030  2.5000000 
      27      0.030  2.5000000 
      28      0.030  2.5000000 
      29      0.030  2.5000000 
      30      0.030  2.5000000 
      31      0.030  2.5000000 
      32      0.030  2.5000000 
      33      0.030  2.5000000 
      34      0.030  2.5000000 
      35      0.030  2.5000000 
      36      0.030  2.5000000 
      37      0.030  2.5000000 
      38      0.030  2.5000000 
      39      0.030  2.5000000 
      40      0.030  2.5000000 
      41      0.030  2.5000000 
      42      0.030  2.5000000 
      43      0.030  2.5000000 
      44      0.030  2.5000000 
      45      0.030  2.5000000 
      46      0.030  2.5000000 
      47      0.030  2.5000000 
      48      0.030  2.5000000 
      49      0.030  2.5000000 
      50      0.030  2.5000000 
      51      0.030  2.5000000 
      52      0.030  2.5000000 
      53      0.030  2.5000000 
      54      0.030  2.5000000 
      55      0.030  2.5000000 
      56      0.030  2.5000000 
      57      0.030  2.5000000 
      58      0.030  2.5000000 
      59      0.030  2.5000000 
      60      0.030  2.5000000 
      61      0.030  2.5000000 

Bond Coeffs 

       1   268.0000     1.5290 
       2   268.0000     1.5290 
       3   268.0000     1.5290 
       4   268.0000     1.5290 
       5   268.0000     1.5290 
       6   268.0000     1.5290 
       7   268.0000     1.5290 
       8   268.0000     1.5290 
       9   268.0000     1.5290 
      10   268.0000     1.5290 
      11   268.0000     1.5290 
      12   268.0000     1.5290 
      13   268.0000     1.5290 
      14   268.0000     1.5290 
      15   268.0000     1.5290 
      16   268.0000     1.5290 
      17   382.0000     1.4480 
      18   382.0000     1.4480 
      19   382.0000     1.4480 
      20   340.0000     1.0900 
      21   340.0000     1.0900 
      22   340.0000     1.0900 
      23   340.0000     1.0900 
      24   340.0000     1.0900 
      25   340.0000     1.0900 
      26   340.0000     1.0900 
      27   340.0000     1.0900 
      28   340.0000     1.0900 
      29   340.0000     1.0900 
      30   340.0000     1.0900 
      31   340.0000     1.0900 
      32   340.0000     1.0900 
      33   340.0000     1.0900 
      34   340.0000     1.0900 
      35   340.0000     1.0900 
      36   340.0000     1.0900 
      37   340.0000     1.0900 
      38   340.0000     1.0900 
      39   340.0000     1.0900 
      40   340.0000     1.0900 
      41   340.0000     1.0900 
      42   340.0000     1.0900 
      43   340.0000     1.0900 
      44   340.0000     1.0900 
      45   340.0000     1.0900 
      46   340.0000     1.0900 
      47   340.0000     1.0900 
      48   340.0000     1.0900 
      49   340.0000     1.0900 
      50   340.0000     1.0900 
      51   340.0000     1.0900 
      52   340.0000     1.0900 
      53   340.0000     1.0900 
      54   340.0000     1.0900 
      55   340.0000     1.0900 
      56   340.0000     1.0900 
      57   340.0000     1.0900 
      58   340.0000     1.0900 
      59   340.0000     1.0900 
      60   340.0000     1.0900 

Angle Coeffs 

       1     58.350    112.700
       2     58.350    112.700
       3     58.350    112.700
       4     58.350    112.700
       5     58.350    112.700
       6     58.350    112.700
       7     58.350    112.700
       8     58.350    112.700
       9     58.350    112.700
      10     58.350    112.700
      11     58.350    112.700
      12     58.350    112.700
      13     58.350    112.700
      14     58.350    112.700
      15     58.350    112.700
      16     56.200    109.470
      17     51.800    107.200
      18     51.800    107.200
      19     37.500    110.700
      20     37.500    110.700
      21     37.500    110.700
      22     37.500    110.700
      23     37.500    110.700
      24     37.500    110.700
      25     37.500    110.700
      26     37.500    110.700
      27     37.500    110.700
      28     37.500    110.700
      29     37.500    110.700
      30     37.500    110.700
      31     37.500    110.700
      32     37.500    110.700
      33     37.500    110.700
      34     37.500    110.700
      35     37.500    110.700
      36     37.500    110.700
      37     37.500    110.700
      38     37.500    110.700
      39     37.500    110.700
      40     37.500    110.700
      41     37.500    110.700
      42     37.500    110.700
      43     37.500    110.700
      44     37.500    110.700
      45     37.500    110.700
      46     37.500    110.700
      47     37.500    110.700
      48     37.500    110.700
      49     37.500    110.700
      50     37.500    110.700
      51     37.500    110.700
      52     37.500    110.700
      53     37.500    110.700
      54     35.000    109.500
      55     35.000    109.500
      56     35.000    109.500
      57     35.000    109.500
      58     35.000    109.500
      59     35.000    109.500
      60     33.000    107.800
      61     37.500    110.700
      62     37.500    110.700
      63     33.000    107.800
      64     33.000    107.800
      65     33.000    107.800
      66     33.000    107.800
      67     33.000    107.800
      68     33.000    107.800
      69     37.500    110.700
      70     33.000    107.800
      71     37.500    110.700
      72     37.500    110.700
      73     33.000    107.800
      74     37.500    110.700
      75     37.500    110.700
      76     58.350    112.700
      77     37.500    110.700
      78     33.000    107.800
      79     37.500    110.700
      80     33.000    107.800
      81     33.000    107.800
      82     37.500    110.700
      83     33.000    107.800
      84     33.000    107.800
      85     37.500    110.700
      86     37.500    110.700
      87     56.200    109.470
      88     37.500    110.700
      89     37.500    110.700
      90     33.000    107.800
      91     33.000    107.800
      92     33.000    107.800
      93     33.000    107.800
      94     33.000    107.800
      95     51.800    107.200
      96     37.500    110.700
      97     37.500    110.700
      98     37.500    110.700
      99     33.000    107.800
     100     37.500    110.700
     101     35.000    109.500
     102     33.000    107.800
     103     33.000    107.800
     104     33.000    107.800
     105     33.000    107.800
     106     37.500    110.700
     107     33.000    107.800
     108     37.500    110.700
     109     33.000    107.800
     110     37.500    110.700
     111     33.000    107.800
     112     58.350    112.700
     113     37.500    110.700
     114     33.000    107.800
     115     37.500    110.700
     116     37.500    110.700
     117     37.500    110.700

Dihedral Coeffs  

       1      1.300     -0.200      0.200      0.000 
       2      1.300     -0.200      0.200      0.000 
       3      1.300     -0.200      0.200      0.000 
       4      1.300     -0.200      0.200      0.000 
       5      1.300     -0.200      0.200      0.000 
       6      1.300     -0.200      0.200      0.000 
       7      1.300     -0.200      0.200      0.000 
       8      1.300     -0.200      0.200      0.000 
       9      1.300     -0.200      0.200      0.000 
      10      1.300     -0.200      0.200      0.000 
      11      1.300     -0.200      0.200      0.000 
      12      1.300     -0.200      0.200      0.000 
      13      0.416     -0.128      0.695      0.000 
      14      0.000      0.000      0.300      0.000 
      15      0.000      0.000      0.300      0.000 
      16      0.000      0.000      0.300      0.000 
      17      0.000      0.000      0.300      0.000 
      18      0.000      0.000      0.560      0.000 
      19      0.000      0.000      0.560      0.000 
      20      0.000      0.000      0.560      0.000 
      21      0.000      0.000      0.300      0.000 
      22      0.000      0.000      0.300      0.000 
      23      0.000      0.000      0.300      0.000 
      24      0.000      0.000      0.300      0.000 
      25      0.000      0.000      0.300      0.000 
      26      0.000      0.000      0.300      0.000 
      27      0.000      0.000      0.300      0.000 
      28      0.000      0.000      0.300      0.000 
      29      0.000      0.000      0.300      0.000 
      30      0.000      0.000      0.300      0.000 
      31      0.000      0.000      0.300      0.000 
      32      0.000      0.000      0.300      0.000 
      33      2.392     -0.674      0.550      0.000 
      34      0.000      0.000      0.300      0.000 
      35      0.000      0.000      0.300      0.000 
      36      0.000      0.000      0.300      0.000 
      37      0.000      0.000      0.300      0.000 
      38      0.000      0.000      0.300      0.000 
      39      0.000      0.000      0.560      0.000 
      40      0.000      0.000      0.300      0.000 
      41      0.000      0.000      0.300      0.000 
      42      0.000      0.000      0.300      0.000 
      43      0.000      0.000      0.300      0.000 
      44      0.000      0.000      0.300      0.000 
      45      0.000      0.000      0.300      0.000 
      46      0.000      0.000      0.300      0.000 
      47      0.000      0.000      0.300      0.000 
      48      0.000      0.000      0.300      0.000 
      49      0.000      0.000      0.300      0.000 
      50      0.000      0.000      0.300      0.000 
      51      0.000      0.000      0.300      0.000 
      52      0.000      0.000      0.300      0.000 
      53      0.000      0.000      0.300      0.000 
      54      0.000      0.000      0.300      0.000 
      55      2.392     -0.674      0.550      0.000 
      56      0.000      0.000      0.300      0.000 
      57      0.000      0.000      0.300      0.000 
      58      0.000      0.000      0.300      0.000 
      59     -1.013     -0.709      0.473      0.000 
      60      0.000      0.000      0.300      0.000 
      61      0.000      0.000      0.300      0.000 
      62      0.000      0.000      0.300      0.000 
      63      0.000      0.000      0.300      0.000 
      64      0.000      0.000      0.300      0.000 
      65      2.392     -0.674      0.550      0.000 
      66      0.000      0.000      0.300      0.000 
      67      0.000      0.000      0.300      0.000 
      68      0.000      0.000      0.300      0.000 
      69      0.000      0.000      0.300      0.000 
      70      0.000      0.000      0.300      0.000 
      71      0.000      0.000      0.560      0.000 
      72      0.000      0.000      0.560      0.000 
      73      0.000      0.000      0.300      0.000 
      74     -1.013     -0.709      0.473      0.000 
      75      0.000      0.000      0.300      0.000 
      76      0.000      0.000      0.300      0.000 
      77      0.000      0.000      0.300      0.000 
      78      0.000      0.000      0.300      0.000 
      79      0.000      0.000      0.300      0.000 
      80      0.000      0.000      0.300      0.000 
      81      0.000      0.000      0.300      0.000 
      82      0.000      0.000      0.560      0.000 
      83      0.000      0.000      0.560      0.000 
      84      0.000      0.000      0.300      0.000 
      85      0.000      0.000      0.300      0.000 
      86      0.000      0.000      0.300      0.000 
      87      0.000      0.000      0.300      0.000 
      88      1.300     -0.200      0.200      0.000 
      89      0.000      0.000      0.300      0.000 
      90      0.000      0.000      0.300      0.000 
      91      0.000      0.000      0.560      0.000 
      92      0.000      0.000      0.300      0.000 
      93      0.000      0.000      0.300      0.000 
      94      0.000      0.000      0.300      0.000 
      95      0.000      0.000      0.300      0.000 
      96      1.300     -0.200      0.200      0.000 
      97      0.000      0.000      0.300      0.000 
      98      0.000      0.000      0.300      0.000 
      99     -1.013     -0.709      0.473      0.000 
     100      0.000      0.000      0.300      0.000 
     101      0.000      0.000      0.300      0.000 
     102      0.000      0.000      0.300      0.000 
     103      0.000      0.000      0.300      0.000 
     104      0.000      0.000      0.560      0.000 
     105      0.000      0.000      0.300      0.000 
     106      0.000      0.000      0.300      0.000 
     107      0.000      0.000      0.300      0.000 
     108      0.000      0.000      0.300      0.000 
     109      0.000      0.000      0.300      0.000 
     110      0.000      0.000      0.300      0.000 
     111      0.000      0.000      0.300      0.000 
     112      0.000      0.000      0.300      0.000 
     113      0.000      0.000      0.300      0.000 
     114      0.000      0.000      0.300      0.000 
     115      0.000      0.000      0.300      0.000 
     116      0.000      0.000      0.300      0.000 
     117      0.000      0.000      0.300      0.000 
     118      0.000      0.000      0.300      0.000 
     119      0.000      0.000      0.560      0.000 
     120      0.000      0.000      0.300      0.000 
     121      0.000      0.000      0.300      0.000 
     122      0.000      0.000      0.300      0.000 
     123      0.000      0.000      0.300      0.000 
     124      0.000      0.000      0.300      0.000 
     125      0.000      0.000      0.300      0.000 
     126      0.416     -0.128      0.695      0.000 
     127      0.000      0.000      0.300      0.000 
     128      0.000      0.000      0.300      0.000 
     129      0.000      0.000      0.300      0.000 
     130      0.000      0.000      0.300      0.000 
     131      0.000      0.000      0.300      0.000 
     132      0.000      0.000      0.300      0.000 
     133      1.300     -0.200      0.200      0.000 
     134      0.000      0.000      0.300      0.000 
     135      0.000      0.000      0.300      0.000 
     136      0.416     -0.128      0.695      0.000 
     137      0.000      0.000      0.300      0.000 
     138      0.000      0.000      0.300      0.000 
     139      1.300     -0.200      0.200      0.000 
     140      0.000      0.000      0.300      0.000 
     141      0.000      0.000      0.300      0.000 
     142      0.000      0.000      0.300      0.000 
     143      0.000      0.000      0.300      0.000 
     144      0.000      0.000      0.300      0.000 
     145      0.000      0.000      0.300      0.000 
     146      0.000      0.000      0.300      0.000 
     147      0.000      0.000      0.560      0.000 
     148      0.000      0.000      0.560      0.000 
     149      0.000      0.000      0.300      0.000 
     150      0.000      0.000      0.300      0.000 
     151      1.300     -0.200      0.200      0.000 
     152      0.000      0.000      0.300      0.000 
     153      0.000      0.000      0.300      0.000 
     154      0.000      0.000      0.300      0.000 
     155      0.000      0.000      0.300      0.000 
     156      0.000      0.000      0.300      0.000 
     157      0.000      0.000      0.300      0.000 
     158      0.416     -0.128      0.695      0.000 
     159      0.000      0.000      0.300      0.000 
     160      0.000      0.000      0.300      0.000 
     161      0.000      0.000      0.300      0.000 
     162      0.000      0.000      0.560      0.000 

Improper Coeffs 

       1      0.000      -1       2 
       2      0.000      -1       2 
       3      0.000      -1       2 
       4      0.000      -1       2 
       5      0.000      -1       2 
       6      0.000      -1       2 
       7      0.000      -1       2 
       8      0.000      -1       2 
       9      0.000      -1       2 
      10      0.000      -1       2 
      11      0.000      -1       2 
      12      0.000      -1       2 
      13      0.000      -1       2 
      14      0.000      -1       2 
      15      0.000      -1       2 
      16      0.000      -1       2 
      17      0.000      -1       2 
      18      0.000      -1       2 
      19      0.000      -1       2 
      20      0.000      -1       2 
      21      0.000      -1       2 
      22      0.000      -1       2 
      23      0.000      -1       2 
      24      0.000      -1       2 
      25      0.000      -1       2 
      26      0.000      -1       2 
      27      0.000      -1       2 
      28      0.000      -1       2 
      29      0.000      -1       2 
      30      0.000      -1       2 
      31      0.000      -1       2 
      32      0.000      -1       2 
      33      0.000      -1       2 
      34      0.000      -1       2 
      35      0.000      -1       2 
      36      0.000      -1       2 
      37      0.000      -1       2 
      38      0.000      -1       2 
      39      0.000      -1       2 

Atoms 

     1      1      1 -0.23730000    1.000  1.00000  0.00000
     2      1      2 -0.18250000   -0.518  1.00000  0.00000
     3      1      3 -0.17570000   -1.120  1.00000  1.41238
     4      1      4 -0.17710000   -2.642  0.85305  1.29244
     5      1      5 -0.13220000   -3.461  0.82671  2.59635
     6      1      6 -0.16670000   -3.145  2.03163  3.52891
     7      1      7 -0.23670000   -3.372  3.43590  2.98578
     8      1      8 0.14630000   -5.017  0.56897  2.36690
     9      1      9 -0.16900000   -5.713  1.66075  1.50876
    10      1     10 -0.16630000   -7.244  1.53915  1.36942
    11      1     11 -0.17370000   -8.049  1.65557  2.66992
    12      1     12 -0.18110000   -7.834  2.99983  3.36386
    13      1     13 -0.17460000   -8.715  3.17229  4.60404
    14      1     14 -0.11310000   -8.432  4.49477  5.35775
    15      1     15 -0.23300000   -8.726  5.71799  4.48180
    16      1     16 -0.17450000   -9.242  4.52084  6.66824
    17      1     17 -0.23720000   -8.987  5.75717  7.52215
    18      1     18 -0.71910000   -5.405 -0.78192  1.88292
    19      1     19 0.00830000   -5.227 -1.11001  0.47164
    20      1     20 0.00600000   -5.016 -1.87353  2.76280
    21      1     21 0.08120000    1.371  1.06613 -1.02398
    22      1     22 0.08120000    1.384  0.07328  0.44135
    23      1     23 0.08120000    1.391  1.84646  0.56622
    24      1     24 0.08650000   -0.865  0.11886 -0.55546
    25      1     25 0.08650000   -0.877  1.88182 -0.54434
    26      1     26 0.09100000   -0.848  1.92781  1.92390
    27      1     27 0.09100000   -0.713  0.16220  1.99178
    28      1     28 0.08880000   -2.771 -0.10499  0.79776
    29      1     29 0.08880000   -3.024  1.62545  0.61673
    30      1     30 0.08970000   -3.089 -0.03273  3.17144
    31      1     31 0.08470000   -2.089  1.96116  3.81994
    32      1     32 0.08470000   -3.704  1.92162  4.46681
    33      1     33 0.08140000   -3.288  3.49213  1.89827
    34      1     34 0.08140000   -2.635  4.12756  3.40956
    35      1     35 0.08140000   -4.355  3.81141  3.28562
    36      1     36 0.10600000   -5.461  0.65484  3.36919
    37      1     37 0.09070000   -5.283  1.67186  0.50102
    38      1     38 0.09070000   -5.508  2.64754  1.91968
    39      1     39 0.08810000   -7.511  0.59508  0.88321
    40      1     40 0.08810000   -7.577  2.32969  0.68336
    41      1     41 0.09100000   -7.802  0.83174  3.34719
    42      1     42 0.09100000   -9.112  1.54848  2.41829
    43      1     43 0.08820000   -8.050  3.79219  2.63917
    44      1     44 0.08820000   -6.787  3.10262  3.66615
    45      1     45 0.08810000   -8.533  2.32858  5.28202
    46      1     46 0.08810000   -9.773  3.12710  4.31572
    47      1     47 0.09460000   -7.365  4.51486  5.61446
    48      1     48 0.08070000   -9.778  5.74054  4.17815
    49      1     49 0.08070000   -8.109  5.72573  3.57795
    50      1     50 0.08070000   -8.501  6.65054  5.00733
    51      1     51 0.08720000   -8.981  3.63655  7.26434
    52      1     52 0.08720000  -10.314  4.45176  6.44710
    53      1     53 0.08050000   -7.917  5.90520  7.69147
    54      1     54 0.08050000   -9.475  5.64585  8.49583
    55      1     55 0.08050000   -9.394  6.65833  7.05409
    56      1     56 0.07630000   -5.832 -0.45727 -0.16976
    57      1     57 0.07630000   -5.574 -2.12243  0.26116
    58      1     58 0.07630000   -4.203 -1.06092  0.11545
    59      1     59 0.07670000   -5.450 -1.73051  3.75746
    60      1     60 0.07670000   -3.932 -1.98433  2.85928
    61      1     61 0.07670000   -5.413 -2.82894  2.39773

Bonds 

     1      1      2      1
     2      2      3      2
     3      3      4      3
     4      4      5      4
     5      5      6      5
     6      6      7      6
     7      7      8      5
     8      8      9      8
     9      9     10      9
    10     10     11     10
    11     11     12     11
    12     12     13     12
    13     13     14     13
    14     14     15     14
    15     15     16     14
    16     16     17     16
    17     17     18      8
    18     18     19     18
    19     19     20     18
    20     20     21      1
    21     21     22      1
    22     22     23      1
    23     23     24      2
    24     24     25      2
    25     25     26      3
    26     26     27      3
    27     27     28      4
    28     28     29      4
    29     29     30      5
    30     30     31      6
    31     31     32      6
    32     32     33      7
    33     33     34      7
    34     34     35      7
    35     35     36      8
    36     36     37      9
    37     37     38      9
    38     38     39     10
    39     39     40     10
    40     40     41     11
    41     41     42     11
    42     42     43     12
    43     43     44     12
    44     44     45     13
    45     45     46     13
    46     46     47     14
    47     47     48     15
    48     48     49     15
    49     49     50     15
    50     50     51     16
    51     51     52     16
    52     52     53     17
    53     53     54     17
    54     54     55     17
    55     55     56     19
    56     56     57     19
    57     57     58     19
    58     58     59     20
    59     59     60     20
    60     60     61     20

Angles 

     1      1      1      2      3
     2      2      2      3      4
     3      3      3      4      5
     4      4      4      5      6
     5      5      5      6      7
     6      6      4      5      8
     7      7      5      8      9
     8      8      8      9     10
     9      9      9     10     11
    10     10     10     11     12
    11     11     11     12     13
    12     12     12     13     14
    13     13     13     14     15
    14     14     13     14     16
    15     15     14     16     17
    16     16      5      8     18
    17     17      8     18     19
    18     18      8     18     20
    19     19      2      1     21
    20     20      2      1     22
    21     21      2      1     23
    22     22      1      2     24
    23     23      1      2     25
    24     24      2      3     26
    25     25      2      3     27
    26     26      3      4     28
    27     27      3      4     29
    28     28      4      5     30
    29     29      5      6     31
    30     30      5      6     32
    31     31      6      7     33
    32     32      6      7     34
    33     33      6      7     35
    34     34      5      8     36
    35     35      8      9     37
    36     36      8      9     38
    37     37      9     10     39
    38     38      9     10     40
    39     39     10     11     41
    40     40     10     11     42
    41     41     11     12     43
    42     42     11     12     44
    43     43     12     13     45
    44     44     12     13     46
    45     45     13     14     47
    46     46     14     15     48
    47     47     14     15     49
    48     48     14     15     50
    49     49     14     16     51
    50     50     14     16     52
    51     51     16     17     53
    52     52     16     17     54
    53     53     16     17     55
    54     54     18     19     56
    55     55     18     19     57
    56     56     18     19     58
    57     57     18     20     59
    58     58     18     20     60
    59     59     18     20     61
    60     60     59     20     61
    61     61     15     14     47
    62     62     12     11     42
    63     63     33      7     34
    64     64     56     19     57
    65     65     33      7     35
    66     66     51     16     52
    67     67     59     20     60
    68     68     45     13     46
    69     69      7      6     32
    70     70     53     17     55
    71     71      7      6     31
    72     72      6      5     30
    73     73     49     15     50
    74     74      3      2     25
    75     75     14     13     45
    76     76     15     14     16
    77     77      5      4     28
    78     78     41     11     42
    79     79     16     14     47
    80     80     48     15     50
    81     81     56     19     58
    82     82      9      8     36
    83     83     39     10     40
    84     84     48     15     49
    85     85     11     10     40
    86     86     17     16     52
    87     87      9      8     18
    88     88      8      5     30
    89     89      4      3     27
    90     90     43     12     44
    91     91     21      1     23
    92     92     54     17     55
    93     93     24      2     25
    94     94     57     19     58
    95     95     19     18     20
    96     96     14     13     46
    97     97     13     12     43
    98     98      4      3     26
    99     99     34      7     35
   100    100      5      4     29
   101    101     18      8     36
   102    102     60     20     61
   103    103     31      6     32
   104    104     28      4     29
   105    105     26      3     27
   106    106     11     10     39
   107    107     53     17     54
   108    108     10      9     38
   109    109     22      1     23
   110    110     10      9     37
   111    111     37      9     38
   112    112      6      5      8
   113    113     13     12     44
   114    114     21      1     22
   115    115      3      2     24
   116    116     17     16     51
   117    117     12     11     41

Dihedrals

     1      1      4      3      2      1 
     2      2      5      4      3      2 
     3      3      6      5      4      3 
     4      4      7      6      5      4 
     5      5      9      8      5      4 
     6      6     10      9      8      5 
     7      7     11     10      9      8 
     8      8     12     11     10      9 
     9      9     13     12     11     10 
    10     10     14     13     12     11 
    11     11     15     14     13     12 
    12     12     17     16     14     13 
    13     13     19     18      8      5 
    14     14     21      1      2      3 
    15     15     33      7      6      5 
    16     16     48     15     14     13 
    17     17     53     17     16     14 
    18     18     56     19     18      8 
    19     19     59     20     18      8 
    20     20     61     20     18     19 
    21     21     27      3      4      5 
    22     22     45     13     14     16 
    23     23     28      4      3      2 
    24     24     42     11     12     13 
    25     25     55     17     16     52 
    26     26     52     16     14     47 
    27     27     48     15     14     47 
    28     28     29      4      3     26 
    29     29     28      4      3     27 
    30     30     42     11     10     39 
    31     31     41     11     10     40 
    32     32     23      1      2      3 
    33     33     18      8      5      6 
    34     34     45     13     14     15 
    35     35     54     17     16     51 
    36     36     53     17     16     52 
    37     37     45     13     12     44 
    38     38     39     10     11     12 
    39     39     58     19     18      8 
    40     40     38      9     10     11 
    41     41     26      3      2      1 
    42     42     33      7      6     31 
    43     43     35      7      6      5 
    44     44     47     14     13     45 
    45     45     46     13     12     44 
    46     46     32      6      5     30 
    47     47     40     10      9     38 
    48     48     40     10      9     37 
    49     49     40     10      9      8 
    50     50     37      9     10     11 
    51     51     45     13     12     11 
    52     52     24      2      1     22 
    53     53     38      9      8      5 
    54     54     51     16     14     47 
    55     55     18      8      9     10 
    56     56     25      2      1     23 
    57     57     49     15     14     16 
    58     58     36      8      9     10 
    59     59     30      5      8     18 
    60     60     30      5      4      3 
    61     61     26      3      2     25 
    62     62     27      3      2     24 
    63     63     52     16     14     15 
    64     64     54     17     16     14 
    65     65     18      8      5      4 
    66     66     53     17     16     51 
    67     67     43     12     11     10 
    68     68     39     10      9      8 
    69     69     25      2      1     21 
    70     70     42     11     10     40 
    71     71     57     19     18      8 
    72     72     60     20     18     19 
    73     73     29      4      3      2 
    74     74     37      9      8     18 
    75     75     47     14     13     12 
    76     76     26      3      4      5 
    77     77     29      4      5      6 
    78     78     36      8      5     30 
    79     79     31      6      5      8 
    80     80     46     13     12     43 
    81     81     51     16     14     13 
    82     82     36      8     18     20 
    83     83     61     20     18      8 
    84     84     35      7      6     31 
    85     85     45     13     12     43 
    86     86     44     12     11     42 
    87     87     50     15     14     47 
    88     88      9      8      5      6 
    89     89     55     17     16     51 
    90     90     54     17     16     52 
    91     91     57     19     18     20 
    92     92     30      5      4     29 
    93     93     27      3      2      1 
    94     94     36      8      5      4 
    95     95     24      2      3      4 
    96     96     16     14     13     12 
    97     97     28      4      5      6 
    98     98     47     14     16     17 
    99     99     38      9      8     18 
   100    100     30      5      6      7 
   101    101     41     11     10     39 
   102    102     31      6      5     30 
   103    103     24      2      1     21 
   104    104     60     20     18      8 
   105    105     34      7      6     32 
   106    106     32      6      5      4 
   107    107     49     15     14     13 
   108    108     44     12     11     41 
   109    109     43     12     11     42 
   110    110     29      4      5      8 
   111    111     46     13     14     15 
   112    112     43     12     11     41 
   113    113     38      9      8     36 
   114    114     36      8      5      6 
   115    115     39     10      9     38 
   116    116     26      3      2     24 
   117    117     22      1      2      3 
   118    118     51     16     14     15 
   119    119     59     20     18     19 
   120    120     52     16     14     13 
   121    121     37      9      8     36 
   122    122     39     10      9     37 
   123    123     40     10     11     12 
   124    124     24      2      1     23 
   125    125     25      2      1     22 
   126    126     20     18      8      5 
   127    127     49     15     14     47 
   128    128     43     12     13     14 
   129    129     44     12     13     14 
   130    130     35      7      6     32 
   131    131     46     13     12     11 
   132    132     30      5      4     28 
   133    133      8      5      6      7 
   134    134     37      9      8      5 
   135    135     34      7      6      5 
   136    136     19     18      8      9 
   137    137     29      4      3     27 
   138    138     48     15     14     16 
   139    139      8      5      4      3 
   140    140     42     11     10      9 
   141    141     28      4      5      8 
   142    142     25      2      3      4 
   143    143     50     15     14     16 
   144    144     34      7      6     31 
   145    145     33      7      6     32 
   146    146     47     14     13     46 
   147    147     36      8     18     19 
   148    148     58     19     18     20 
   149    149     28      4      3     26 
   150    150     55     17     16     14 
   151    151     17     16     14     15 
   152    152     50     15     14     13 
   153    153     27      3      2     25 
   154    154     31      6      5      4 
   155    155     46     13     14     16 
   156    156     30      5      8      9 
   157    157     32      6      5      8 
   158    158     20     18      8      9 
   159    159     41     11     10      9 
   160    160     44     12     11     10 
   161    161     41     11     12     13 
   162    162     56     19     18     20 

Impropers

     1      1      5      4      6      8 
     2      2     14     13     15     16 
     3      3      8      9     18      5 
     4      4     18     19     20      8 
     5      5      1      2     21     22 
     6      6      1      2     21     23 
     7      7      2      1      3     24 
     8      8      2     25      3      1 
     9      9      3     26      4      2 
    10     10      3      2     27      4 
    11     11      4      3     28      5 
    12     12      4      5      3     29 
    13     13      5      4     30      6 
    14     14      6      7      5     31 
    15     15      6      5      7     32 
    16     16      7     33     34      6 
    17     17      7     33     35      6 
    18     18      8      9     36      5 
    19     19      9     10     37      8 
    20     20      9     10     38      8 
    21     21     10      9     11     39 
    22     22     10      9     11     40 
    23     23     11     41     10     12 
    24     24     11     42     12     10 
    25     25     12     43     13     11 
    26     26     12     11     44     13 
    27     27     13     12     45     14 
    28     28     13     12     46     14 
    29     29     14     15     13     47 
    30     30     15     49     14     48 
    31     31     15     50     14     48 
    32     32     16     17     51     14 
    33     33     16     17     52     14 
    34     34     17     53     54     16 
    35     35     17     53     55     16 
    36     36     19     57     18     56 
    37     37     19     58     56     18 
    38     38     20     18     59     60 
    39     39     20     18     59     61 

