LAMMPS data file Created by LigParGen - (Written by Leela S. Dodda)

      39 atoms
      38 bonds
      70 angles
      89 dihedrals
      23 impropers
 
      39 atom types
      38 bond types
      70 angle types
      89 dihedral types
      23 improper types
 
  -11.402290    38.597710 xlo xhi
   -4.274320    45.725680 ylo yhi
   -1.027690    48.972310 zlo zhi

Masses

       1     12.011  
       2     12.011  
       3     12.011  
       4     12.011  
       5     12.011  
       6     12.011  
       7     15.999  
       8     12.011  
       9     12.011  
      10     12.011  
      11     15.999  
      12     12.011  
      13     12.011  
      14     15.999  
      15     12.011  
      16     12.011  
      17     15.999  
      18      1.008  
      19      1.008  
      20      1.008  
      21      1.008  
      22      1.008  
      23      1.008  
      24      1.008  
      25      1.008  
      26      1.008  
      27      1.008  
      28      1.008  
      29      1.008  
      30      1.008  
      31      1.008  
      32      1.008  
      33      1.008  
      34      1.008  
      35      1.008  
      36      1.008  
      37      1.008  
      38      1.008  
      39      1.008  

Pair Coeffs 

       1      0.066  3.5000000 
       2      0.066  3.5000000 
       3      0.066  3.5000000 
       4      0.066  3.5000000 
       5      0.066  3.5000000 
       6      0.070  3.5500000 
       7      0.210  2.9600000 
       8      0.066  3.5000000 
       9      0.066  3.5000000 
      10      0.070  3.5500000 
      11      0.210  2.9600000 
      12      0.066  3.5000000 
      13      0.066  3.5000000 
      14      0.140  2.9000000 
      15      0.070  3.5500000 
      16      0.066  3.5000000 
      17      0.210  2.9600000 
      18      0.030  2.5000000 
      19      0.030  2.5000000 
      20      0.030  2.5000000 
      21      0.030  2.5000000 
      22      0.030  2.5000000 
      23      0.030  2.5000000 
      24      0.030  2.5000000 
      25      0.030  2.5000000 
      26      0.030  2.5000000 
      27      0.030  2.5000000 
      28      0.030  2.5000000 
      29      0.030  2.5000000 
      30      0.030  2.5000000 
      31      0.030  2.5000000 
      32      0.030  2.5000000 
      33      0.030  2.5000000 
      34      0.030  2.5000000 
      35      0.030  2.5000000 
      36      0.030  2.5000000 
      37      0.030  2.5000000 
      38      0.030  2.5000000 
      39      0.030  2.5000000 

Bond Coeffs 

       1   268.0000     1.5290 
       2   268.0000     1.5290 
       3   268.0000     1.5290 
       4   268.0000     1.5290 
       5   317.0000     1.5220 
       6   570.0000     1.2290 
       7   317.0000     1.5220 
       8   268.0000     1.5290 
       9   317.0000     1.5220 
      10   570.0000     1.2290 
      11   317.0000     1.5220 
      12   268.0000     1.5290 
      13   320.0000     1.4100 
      14   214.0000     1.3270 
      15   317.0000     1.5220 
      16   570.0000     1.2290 
      17   340.0000     1.0900 
      18   340.0000     1.0900 
      19   340.0000     1.0900 
      20   340.0000     1.0900 
      21   340.0000     1.0900 
      22   340.0000     1.0900 
      23   340.0000     1.0900 
      24   340.0000     1.0900 
      25   340.0000     1.0900 
      26   340.0000     1.0900 
      27   340.0000     1.0900 
      28   340.0000     1.0900 
      29   340.0000     1.0900 
      30   340.0000     1.0900 
      31   340.0000     1.0900 
      32   340.0000     1.0900 
      33   340.0000     1.0900 
      34   340.0000     1.0900 
      35   340.0000     1.0900 
      36   340.0000     1.0900 
      37   340.0000     1.0900 
      38   340.0000     1.0900 

Angle Coeffs 

       1     58.350    112.700
       2     58.350    112.700
       3     58.350    112.700
       4     63.000    111.100
       5     80.000    120.400
       6     70.000    116.000
       7     63.000    111.100
       8     63.000    111.100
       9     80.000    120.400
      10     70.000    116.000
      11     63.000    111.100
      12     50.000    109.500
      13     83.000    116.900
      14     81.000    111.400
      15     83.000    123.400
      16     37.500    110.700
      17     37.500    110.700
      18     37.500    110.700
      19     37.500    110.700
      20     37.500    110.700
      21     37.500    110.700
      22     37.500    110.700
      23     37.500    110.700
      24     37.500    110.700
      25     37.500    110.700
      26     37.500    110.700
      27     35.000    109.500
      28     35.000    109.500
      29     37.500    110.700
      30     37.500    110.700
      31     35.000    109.500
      32     35.000    109.500
      33     37.500    110.700
      34     37.500    110.700
      35     35.000    109.500
      36     35.000    109.500
      37     35.000    109.500
      38     37.500    110.700
      39     35.000    109.500
      40     37.500    110.700
      41     37.500    110.700
      42     37.500    110.700
      43     37.500    110.700
      44     35.000    109.500
      45     35.000    109.500
      46     33.000    107.800
      47     33.000    107.800
      48     33.000    107.800
      49     37.500    110.700
      50     37.500    110.700
      51     33.000    107.800
      52     35.000    109.500
      53     33.000    107.800
      54     33.000    107.800
      55     37.500    110.700
      56     37.500    110.700
      57     33.000    107.800
      58     80.000    120.400
      59     33.000    107.800
      60     33.000    107.800
      61     80.000    120.400
      62     33.000    107.800
      63     35.000    109.500
      64     37.500    110.700
      65     33.000    107.800
      66     80.000    120.400
      67     35.000    109.500
      68     33.000    107.800
      69     33.000    107.800
      70     33.000    107.800

Dihedral Coeffs  

       1      1.300     -0.200      0.200      0.000 
       2      1.300     -0.200      0.200      0.000 
       3     -2.060     -0.313      0.315      0.000 
       4      0.000      0.000      0.000      0.000 
       5      1.454     -0.144     -0.775      0.000 
       6     -0.550      0.000      1.000      0.000 
       7      0.000      0.000      0.000      0.000 
       8      1.454     -0.144     -0.775      0.000 
       9     -6.180      0.000      0.000      0.000 
      10     -1.220     -0.126      0.422      0.000 
      11      4.669      5.124      0.000      0.000 
      12      0.000      0.000      0.300      0.000 
      13      0.000      0.000      0.132      0.000 
      14      0.000      0.000     -0.100      0.000 
      15      0.000      0.000      0.300      0.000 
      16      0.000      0.000      0.300      0.000 
      17      0.000      0.000      0.000      0.000 
      18      0.000      0.000      0.000      0.000 
      19      0.000      0.000      0.275      0.000 
      20      0.000      0.000      0.132      0.000 
      21      1.454     -0.144     -0.775      0.000 
      22      0.000      0.000      0.300      0.000 
      23      0.000      0.000      0.000      0.000 
      24      0.000      0.000     -0.100      0.000 
      25      0.000      0.000     -0.100      0.000 
      26      0.000      0.000      0.300      0.000 
      27      0.000      0.000      0.300      0.000 
      28      0.000      0.000      0.300      0.000 
      29      0.000      0.000      0.468      0.000 
      30      0.000      5.124      0.000      0.000 
      31      0.000      0.000      0.000      0.000 
      32      0.000      0.000      0.300      0.000 
      33      0.000      0.000      0.300      0.000 
      34      0.000      0.000      0.000      0.000 
      35      0.000      0.000      0.300      0.000 
      36      0.000      0.000      0.300      0.000 
      37      0.000      0.000      0.300      0.000 
      38      0.000      0.000      0.000      0.000 
      39      0.000      0.000      0.275      0.000 
      40      0.000      0.000      0.132      0.000 
      41      0.000      0.000      0.000      0.000 
      42      0.000      0.000      0.300      0.000 
      43      0.000      0.000      0.300      0.000 
      44      0.000      0.000      0.275      0.000 
      45      0.000      0.000      0.300      0.000 
      46      0.000      0.000     -0.100      0.000 
      47      0.000      0.000      0.300      0.000 
      48      0.000      0.000      0.468      0.000 
      49      0.000      0.000      0.000      0.000 
      50      0.000      0.000      0.300      0.000 
      51      0.000      0.000      0.275      0.000 
      52      0.000      0.000      0.300      0.000 
      53      0.000      0.000      0.300      0.000 
      54      0.000      0.000      0.300      0.000 
      55      0.000      0.000      0.300      0.000 
      56      0.000      0.000      0.000      0.000 
      57      0.000      0.000     -0.100      0.000 
      58      0.000      0.000      0.275      0.000 
      59      0.000      0.000      0.275      0.000 
      60      0.000      0.000      0.300      0.000 
      61      0.000      0.000      0.198      0.000 
      62      0.000      0.000      0.000      0.000 
      63      0.000      0.000      0.300      0.000 
      64      0.000      0.000      0.300      0.000 
      65      0.000      0.000      0.300      0.000 
      66      0.000      0.000      0.300      0.000 
      67      0.000      0.000      0.300      0.000 
      68      0.000      0.000     -0.100      0.000 
      69      0.000      0.000      0.300      0.000 
      70      0.000      0.000      0.000      0.000 
      71      0.000      0.000      0.300      0.000 
      72      0.000      0.000      0.300      0.000 
      73      0.000      0.000      0.300      0.000 
      74      0.000      0.000      0.198      0.000 
      75      0.000      0.000      0.275      0.000 
      76      0.000      0.000     -0.100      0.000 
      77      1.454     -0.144     -0.775      0.000 
      78      0.000      0.000      0.000      0.000 
      79      0.000      0.000      0.300      0.000 
      80      0.000      0.000     -0.100      0.000 
      81      0.000      0.000      0.300      0.000 
      82      0.000      0.000      0.300      0.000 
      83      0.000      0.000      0.300      0.000 
      84      0.000      0.000      0.300      0.000 
      85      0.000      0.000      0.300      0.000 
      86      0.000      0.000      0.300      0.000 
      87      0.000      0.000      0.275      0.000 
      88      0.000      0.000      0.000      0.000 
      89      0.000      0.000      0.300      0.000 

Improper Coeffs 

       1     10.500      -1       2 
       2     10.500      -1       2 
       3     10.500      -1       2 
       4      0.000      -1       2 
       5      0.000      -1       2 
       6      0.000      -1       2 
       7      0.000      -1       2 
       8      0.000      -1       2 
       9      0.000      -1       2 
      10      0.000      -1       2 
      11      0.000      -1       2 
      12      0.000      -1       2 
      13      0.000      -1       2 
      14      0.000      -1       2 
      15      0.000      -1       2 
      16      0.000      -1       2 
      17      0.000      -1       2 
      18      0.000      -1       2 
      19      0.000      -1       2 
      20      0.000      -1       2 
      21      0.000      -1       2 
      22      0.000      -1       2 
      23      0.000      -1       2 

Atoms 

     1      1      1 -0.23890000    1.000  1.00000  0.00000
     2      1      2 -0.17940000   -0.520  1.00000  0.00000
     3      1      3 -0.17620000   -1.085  1.00000  1.42070
     4      1      4 -0.16740000   -2.614  0.99820  1.40428
     5      1      5 -0.23270000   -3.187  0.99997  2.81599
     6      1      6 0.36410000   -4.700  0.99635  2.77218
     7      1      7 -0.44190000   -5.344  2.04583  2.78323
     8      1      8 -0.22700000   -5.396 -0.34402  2.71594
     9      1      9 -0.22060000   -5.705 -0.82221  4.12411
    10      1     10 0.37340000   -6.403 -2.16275  4.08384
    11      1     11 -0.44770000   -5.856 -3.14202  3.57218
    12      1     12 -0.26600000   -7.782 -2.26626  4.68728
    13      1     13 0.01600000   -7.785 -3.27837  5.82136
    14      1     14 -0.35520000   -9.098 -3.37895  6.40066
    15      1     15 0.43790000   -9.403 -2.43103  7.32705
    16      1     16 -0.25990000  -10.788 -2.63107  7.86404
    17      1     17 -0.45470000   -8.656 -1.52958  7.68219
    18      1     18 0.08240000    1.377  1.00130 -1.02769
    19      1     19 0.08240000    1.392  0.11090  0.50403
    20      1     20 0.08240000    1.392  1.88720  0.50728
    21      1     21 0.09020000   -0.878  0.11691 -0.54226
    22      1     22 0.09020000   -0.878  1.88309 -0.54226
    23      1     23 0.09270000   -0.722  1.88313  1.96055
    24      1     24 0.09270000   -0.721  0.11661  1.95968
    25      1     25 0.09830000   -2.975  0.11876  0.85700
    26      1     26 0.09830000   -2.979  1.87776  0.85930
    27      1     27 0.11820000   -2.863  1.89092  3.36655
    28      1     28 0.11820000   -2.845  0.12915  3.38566
    29      1     29 0.12840000   -4.767 -1.05697  2.17208
    30      1     30 0.12840000   -6.316 -0.23064  2.12991
    31      1     31 0.12940000   -6.325 -0.08749  4.64778
    32      1     32 0.12940000   -4.789 -0.93872  4.71464
    33      1     33 0.13480000   -8.487 -2.55969  3.90118
    34      1     34 0.13480000   -8.116 -1.28595  5.04058
    35      1     35 0.12820000   -7.040 -3.03331  6.58910
    36      1     36 0.12820000   -7.526 -4.27432  5.44452
    37      1     37 0.12960000  -11.250 -3.52387  7.43339
    38      1     38 0.12960000  -11.402 -1.76477  7.60653
    39      1     39 0.12960000  -10.737 -2.75880  8.94809

Bonds 

     1      1      2      1
     2      2      3      2
     3      3      4      3
     4      4      5      4
     5      5      6      5
     6      6      7      6
     7      7      8      6
     8      8      9      8
     9      9     10      9
    10     10     11     10
    11     11     12     10
    12     12     13     12
    13     13     14     13
    14     14     15     14
    15     15     16     15
    16     16     17     15
    17     17     18      1
    18     18     19      1
    19     19     20      1
    20     20     21      2
    21     21     22      2
    22     22     23      3
    23     23     24      3
    24     24     25      4
    25     25     26      4
    26     26     27      5
    27     27     28      5
    28     28     29      8
    29     29     30      8
    30     30     31      9
    31     31     32      9
    32     32     33     12
    33     33     34     12
    34     34     35     13
    35     35     36     13
    36     36     37     16
    37     37     38     16
    38     38     39     16

Angles 

     1      1      1      2      3
     2      2      2      3      4
     3      3      3      4      5
     4      4      4      5      6
     5      5      5      6      7
     6      6      5      6      8
     7      7      6      8      9
     8      8      8      9     10
     9      9      9     10     11
    10     10      9     10     12
    11     11     10     12     13
    12     12     12     13     14
    13     13     13     14     15
    14     14     14     15     16
    15     15     14     15     17
    16     16      2      1     18
    17     17      2      1     19
    18     18      2      1     20
    19     19      1      2     21
    20     20      1      2     22
    21     21      2      3     23
    22     22      2      3     24
    23     23      3      4     25
    24     24      3      4     26
    25     25      4      5     27
    26     26      4      5     28
    27     27      6      8     29
    28     28      6      8     30
    29     29      8      9     31
    30     30      8      9     32
    31     31     10     12     33
    32     32     10     12     34
    33     33     12     13     35
    34     34     12     13     36
    35     35     15     16     37
    36     36     15     16     38
    37     37     15     16     39
    38     38      9      8     30
    39     39     10      9     32
    40     40     13     12     33
    41     41      3      2     21
    42     42      9      8     29
    43     43      5      4     26
    44     44     14     13     35
    45     45     10      9     31
    46     46     37     16     38
    47     47     35     13     36
    48     48     18      1     20
    49     49      4      3     23
    50     50      3      2     22
    51     51     23      3     24
    52     52      6      5     27
    53     53     18      1     19
    54     54     33     12     34
    55     55      5      4     25
    56     56      4      3     24
    57     57     29      8     30
    58     58     16     15     17
    59     59     37     16     39
    60     60     25      4     26
    61     61      7      6      8
    62     62     31      9     32
    63     63     14     13     36
    64     64     13     12     34
    65     65     19      1     20
    66     66     11     10     12
    67     67      6      5     28
    68     68     27      5     28
    69     69     21      2     22
    70     70     38     16     39

Dihedrals

     1      1      4      3      2      1 
     2      2      5      4      3      2 
     3      3      6      5      4      3 
     4      4      7      6      5      4 
     5      5      9      8      6      5 
     6      6     10      9      8      6 
     7      7     11     10      9      8 
     8      8     13     12     10      9 
     9      9     14     13     12     10 
    10     10     15     14     13     12 
    11     11     16     15     14     13 
    12     12     18      1      2      3 
    13     13     37     16     15     14 
    14     14     35     13     12     10 
    15     15     26      4      3     23 
    16     16     25      4      3     24 
    17     17     32      9     10     11 
    18     18     30      8      6      7 
    19     19     31      9     10     12 
    20     20     38     16     15     14 
    21     21      8      6      5      4 
    22     22     19      1      2      3 
    23     23     13     12     10     11 
    24     24     25      4      5      6 
    25     25     30      8      9     10 
    26     26     28      5      4      3 
    27     27     23      3      4      5 
    28     28     24      3      2     22 
    29     29     33     12     13     14 
    30     30     17     15     14     13 
    31     31     34     12     10     11 
    32     32     35     13     12     34 
    33     33     36     13     12     33 
    34     34      9      8      6      7 
    35     35     24      3      2     21 
    36     36     23      3      2     22 
    37     37     26      4      3      2 
    38     38     28      5      6      7 
    39     39     27      5      6      8 
    40     40     39     16     15     14 
    41     41     38     16     15     17 
    42     42     22      2      1     20 
    43     43     21      2      1     18 
    44     44     30      8      6      5 
    45     45     36     13     12     34 
    46     46     31      9      8      6 
    47     47     27      5      4     25 
    48     48     34     12     13     14 
    49     49     27      5      6      7 
    50     50     32      9      8     30 
    51     51     34     12     10      9 
    52     52     24      3      4      5 
    53     53     35     13     12     33 
    54     54     21      2      1     20 
    55     55     22      2      1     19 
    56     56     31      9     10     11 
    57     57     29      8      9     10 
    58     58     28      5      6      8 
    59     59     32      9     10     12 
    60     60     25      4      3     23 
    61     61     36     13     14     15 
    62     62     33     12     10     11 
    63     63     23      3      2      1 
    64     64     31      9      8     29 
    65     65     23      3      2     21 
    66     66     21      2      3      4 
    67     67     24      3      2      1 
    68     68     36     13     12     10 
    69     69     20      1      2      3 
    70     70     29      8      6      7 
    71     71     28      5      4     26 
    72     72     28      5      4     25 
    73     73     27      5      4     26 
    74     74     35     13     14     15 
    75     75     33     12     10      9 
    76     76     26      4      5      6 
    77     77     12     10      9      8 
    78     78     39     16     15     17 
    79     79     27      5      4      3 
    80     80     32      9      8      6 
    81     81     22      2      3      4 
    82     82     22      2      1     18 
    83     83     21      2      1     19 
    84     84     25      4      3      2 
    85     85     31      9      8     30 
    86     86     32      9      8     29 
    87     87     29      8      6      5 
    88     88     37     16     15     17 
    89     89     26      4      3     24 

Impropers

     1      1      6      5      7      8 
     2      2     10      9     11     12 
     3      3     15     17     14     16 
     4      4      1      2     19     18 
     5      5      1      2     20     18 
     6      6      2      1      3     21 
     7      7      2      1      3     22 
     8      8      3      2      4     23 
     9      9      3      2      4     24 
    10     10      4     25      3      5 
    11     11      4     26      3      5 
    12     12      5     27      4      6 
    13     13      5      4     28      6 
    14     14      8      9     29      6 
    15     15      8      9      6     30 
    16     16      9     10     31      8 
    17     17      9     10      8     32 
    18     18     12     33     10     13 
    19     19     12     34     13     10 
    20     20     13     35     12     14 
    21     21     13     12     36     14 
    22     22     16     37     38     15 
    23     23     16     37     15     39 

