LAMMPS data file Created by LigParGen - (Written by Leela S. Dodda)

      24 atoms
      23 bonds
      41 angles
      44 dihedrals
      13 impropers
 
      24 atom types
      23 bond types
      41 angle types
      44 dihedral types
      13 improper types
 
   -5.093880    44.906120 xlo xhi
   -2.219190    47.780810 ylo yhi
   -2.639500    47.360500 zlo zhi

Masses

       1     12.011  
       2     12.011  
       3     12.011  
       4     12.011  
       5     15.999  
       6     12.011  
       7     15.999  
       8     12.011  
       9     32.060  
      10     12.011  
      11      1.008  
      12      1.008  
      13      1.008  
      14      1.008  
      15      1.008  
      16      1.008  
      17      1.008  
      18      1.008  
      19      1.008  
      20      1.008  
      21      1.008  
      22      1.008  
      23      1.008  
      24      1.008  

Pair Coeffs 

       1      0.066  3.5000000 
       2      0.066  3.5000000 
       3      0.066  3.5000000 
       4      0.066  3.5000000 
       5      0.140  2.9000000 
       6      0.070  3.5500000 
       7      0.210  2.9600000 
       8      0.066  3.5000000 
       9      0.355  3.6000000 
      10      0.066  3.5000000 
      11      0.030  2.5000000 
      12      0.030  2.5000000 
      13      0.030  2.5000000 
      14      0.030  2.5000000 
      15      0.030  2.5000000 
      16      0.030  2.5000000 
      17      0.030  2.5000000 
      18      0.030  2.5000000 
      19      0.030  2.5000000 
      20      0.030  2.5000000 
      21      0.030  2.5000000 
      22      0.030  2.5000000 
      23      0.030  2.5000000 
      24      0.030  2.5000000 

Bond Coeffs 

       1   268.0000     1.5290 
       2   268.0000     1.5290 
       3   268.0000     1.5290 
       4   320.0000     1.4100 
       5   214.0000     1.3270 
       6   570.0000     1.2290 
       7   317.0000     1.5220 
       8   222.0000     1.8100 
       9   222.0000     1.8100 
      10   340.0000     1.0900 
      11   340.0000     1.0900 
      12   340.0000     1.0900 
      13   340.0000     1.0900 
      14   340.0000     1.0900 
      15   340.0000     1.0900 
      16   340.0000     1.0900 
      17   340.0000     1.0900 
      18   340.0000     1.0900 
      19   340.0000     1.0900 
      20   340.0000     1.0900 
      21   340.0000     1.0900 
      22   340.0000     1.0900 
      23   340.0000     1.0900 

Angle Coeffs 

       1     58.350    112.700
       2     58.350    112.700
       3     50.000    109.500
       4     83.000    116.900
       5     83.000    123.400
       6     81.000    111.400
       7     51.650    110.580
       8     62.000     98.900
       9     37.500    110.700
      10     37.500    110.700
      11     37.500    110.700
      12     37.500    110.700
      13     37.500    110.700
      14     37.500    110.700
      15     37.500    110.700
      16     37.500    110.700
      17     37.500    110.700
      18     35.000    109.500
      19     35.000    109.500
      20     35.000    109.500
      21     35.000    109.500
      22     35.000    109.500
      23     35.000    109.500
      24     37.500    110.700
      25     33.000    107.800
      26     33.000    107.800
      27     37.500    110.700
      28     35.000    109.500
      29     33.000    107.800
      30     33.000    107.800
      31     50.000    109.500
      32     33.000    107.800
      33     33.000    107.800
      34     33.000    107.800
      35     33.000    107.800
      36     80.000    120.400
      37     33.000    107.800
      38     37.500    110.700
      39     33.000    107.800
      40     35.000    109.500
      41     33.000    107.800

Dihedral Coeffs  

       1      1.300     -0.200      0.200      0.000 
       2     -1.220     -0.126      0.422      0.000 
       3      0.000      5.124      0.000      0.000 
       4      0.000      0.000      0.000      0.000 
       5      0.925     -0.576      0.677      0.000 
       6      0.000      0.000      0.300      0.000 
       7      0.000      0.000      0.300      0.000 
       8      0.000      0.000      0.647      0.000 
       9      0.000      0.000      0.300      0.000 
      10      0.000      0.000      0.468      0.000 
      11      0.000      0.000      0.468      0.000 
      12      0.000      0.000      0.300      0.000 
      13      0.000      0.000      0.300      0.000 
      14      0.000      0.000      0.300      0.000 
      15      0.000      0.000      0.300      0.000 
      16      0.000      0.000      0.647      0.000 
      17      1.711     -0.500      0.663      0.000 
      18      0.000      0.000      0.468      0.000 
      19      0.000      0.000      0.468      0.000 
      20      0.000      0.000      0.300      0.000 
      21     -1.220     -0.126      0.422      0.000 
      22      0.000      0.000      0.132      0.000 
      23      0.000      0.000      0.300      0.000 
      24      0.000      0.000      0.198      0.000 
      25      0.000      0.000      0.300      0.000 
      26      0.000      0.000      0.000      0.000 
      27      0.000      0.000      0.132      0.000 
      28      0.000      0.000      0.300      0.000 
      29      0.000      0.000      0.300      0.000 
      30      0.000      0.000      0.468      0.000 
      31      0.000      0.000      0.300      0.000 
      32      0.000      0.000      0.647      0.000 
      33      0.000      0.000      0.300      0.000 
      34      0.000      0.000      0.300      0.000 
      35      4.669      5.124      0.000      0.000 
      36      0.000      0.000      0.647      0.000 
      37      0.000      0.000      0.000      0.000 
      38      0.000      0.000      0.000      0.000 
      39      0.000      0.000      0.300      0.000 
      40      0.000      0.000      0.300      0.000 
      41      0.000      0.000      0.300      0.000 
      42      0.000      0.000      0.300      0.000 
      43      0.000      0.000      0.647      0.000 
      44      0.000      0.000      0.300      0.000 

Improper Coeffs 

       1      0.000      -1       2 
       2     10.500      -1       2 
       3      0.000      -1       2 
       4      0.000      -1       2 
       5      0.000      -1       2 
       6      0.000      -1       2 
       7      0.000      -1       2 
       8      0.000      -1       2 
       9      0.000      -1       2 
      10      0.000      -1       2 
      11      0.000      -1       2 
      12      0.000      -1       2 
      13      0.000      -1       2 

Atoms 

     1      1      1 -0.23340000    1.000  1.00000  0.00000
     2      1      2 -0.20410000   -0.520  1.00000  0.00000
     3      1      3 0.06890000   -1.134  1.00000  1.40688
     4      1      4 -0.24510000   -0.788  2.26000  2.19430
     5      1      5 -0.35070000   -2.572  0.96788  1.28333
     6      1      6 0.44660000   -3.130 -0.26207  1.09514
     7      1      7 -0.45330000   -2.512 -1.31993  1.06999
     8      1      8 -0.11110000   -4.625 -0.15488  0.91750
     9      1      9 -0.32330000   -5.076  0.17319 -0.81545
    10      1     10 -0.16010000   -4.406 -1.32378 -1.58787
    11      1     11 0.08540000    1.375  0.89601 -1.02335
    12      1     12 0.08540000    1.392  0.16597  0.59035
    13      1     13 0.08540000    1.401  1.93388  0.40460
    14      1     14 0.10370000   -0.869  0.11786 -0.55029
    15      1     15 0.10370000   -0.890  1.86315 -0.56736
    16      1     16 0.12230000   -0.786  0.13181  1.98057
    17      1     17 0.09830000   -1.088  3.15997  1.64618
    18      1     18 0.09830000    0.282  2.31991  2.41079
    19      1     19 0.09830000   -1.332  2.27530  3.14552
    20      1     20 0.15860000   -5.009  0.64967  1.55321
    21      1     21 0.15860000   -5.094 -1.08169  1.26321
    22      1     22 0.12250000   -4.705 -1.34301 -2.63950
    23      1     23 0.12250000   -4.801 -2.21919 -1.10075
    24      1     24 0.12250000   -3.314 -1.32437 -1.54879

Bonds 

     1      1      2      1
     2      2      3      2
     3      3      4      3
     4      4      5      3
     5      5      6      5
     6      6      7      6
     7      7      8      6
     8      8      9      8
     9      9     10      9
    10     10     11      1
    11     11     12      1
    12     12     13      1
    13     13     14      2
    14     14     15      2
    15     15     16      3
    16     16     17      4
    17     17     18      4
    18     18     19      4
    19     19     20      8
    20     20     21      8
    21     21     22     10
    22     22     23     10
    23     23     24     10

Angles 

     1      1      1      2      3
     2      2      2      3      4
     3      3      2      3      5
     4      4      3      5      6
     5      5      5      6      7
     6      6      5      6      8
     7      7      6      8      9
     8      8      8      9     10
     9      9      2      1     11
    10     10      2      1     12
    11     11      2      1     13
    12     12      1      2     14
    13     13      1      2     15
    14     14      2      3     16
    15     15      3      4     17
    16     16      3      4     18
    17     17      3      4     19
    18     18      6      8     20
    19     19      6      8     21
    20     20      9     10     22
    21     21      9     10     23
    22     22      9     10     24
    23     23      9      8     21
    24     24      3      2     14
    25     25     17      4     19
    26     26     11      1     13
    27     27      3      2     15
    28     28      9      8     20
    29     29     22     10     23
    30     30     17      4     18
    31     31      4      3      5
    32     32     22     10     24
    33     33     11      1     12
    34     34     12      1     13
    35     35     14      2     15
    36     36      7      6      8
    37     37     20      8     21
    38     38      4      3     16
    39     39     23     10     24
    40     40      5      3     16
    41     41     18      4     19

Dihedrals

     1      1      4      3      2      1 
     2      2      6      5      3      2 
     3      3      7      6      5      3 
     4      4      9      8      6      5 
     5      5     10      9      8      6 
     6      6     11      1      2      3 
     7      7     17      4      3      2 
     8      8     22     10      9      8 
     9      9     18      4      3     16 
    10     10     15      2      3      5 
    11     11     14      2      3      5 
    12     12     15      2      3      4 
    13     13     12      1      2      3 
    14     14     14      2      1     13 
    15     15     18      4      3      2 
    16     16     20      8      9     10 
    17     17      5      3      2      1 
    18     18     19      4      3      5 
    19     19     18      4      3      5 
    20     20     15      2      1     12 
    21     21      6      5      3      4 
    22     22     21      8      6      5 
    23     23     19      4      3      2 
    24     24     16      3      5      6 
    25     25     17      4      3     16 
    26     26     20      8      6      7 
    27     27     20      8      6      5 
    28     28     16      3      2      1 
    29     29     14      2      3      4 
    30     30     17      4      3      5 
    31     31     16      3      2     14 
    32     32     24     10      9      8 
    33     33     13      1      2      3 
    34     34     19      4      3     16 
    35     35      8      6      5      3 
    36     36     21      8      9     10 
    37     37      9      8      6      7 
    38     38     21      8      6      7 
    39     39     16      3      2     15 
    40     40     15      2      1     11 
    41     41     14      2      1     12 
    42     42     14      2      1     11 
    43     43     23     10      9      8 
    44     44     15      2      1     13 

Impropers

     1      1      3      2      4      5 
     2      2      6      5      7      8 
     3      3      1      2     11     12 
     4      4      1      2     11     13 
     5      5      2      1      3     14 
     6      6      2      1      3     15 
     7      7      3      2      4     16 
     8      8      4     17     18      3 
     9      9      4     17     19      3 
    10     10      8      9     20      6 
    11     11      8      9     21      6 
    12     12     10      9     22     23 
    13     13     10      9     22     24 

