LAMMPS data file Created by LigParGen - (Written by Leela S. Dodda)

      38 atoms
      37 bonds
      70 angles
      90 dihedrals
      23 impropers
 
      38 atom types
      37 bond types
      70 angle types
      90 dihedral types
      23 improper types
 
   -9.791410    40.208590 xlo xhi
   -2.598130    47.401870 ylo yhi
   -1.030570    48.969430 zlo zhi

Masses

       1     12.011  
       2     12.011  
       3     15.999  
       4     12.011  
       5     12.011  
       6     12.011  
       7     12.011  
       8     32.060  
       9     15.999  
      10     15.999  
      11     12.011  
      12     12.011  
      13     12.011  
      14     12.011  
      15     12.011  
      16     15.999  
      17      1.008  
      18      1.008  
      19      1.008  
      20      1.008  
      21      1.008  
      22      1.008  
      23      1.008  
      24      1.008  
      25      1.008  
      26      1.008  
      27      1.008  
      28      1.008  
      29      1.008  
      30      1.008  
      31      1.008  
      32      1.008  
      33      1.008  
      34      1.008  
      35      1.008  
      36      1.008  
      37      1.008  
      38      1.008  

Pair Coeffs 

       1      0.066  3.5000000 
       2      0.066  3.5000000 
       3      0.140  2.9000000 
       4      0.066  3.5000000 
       5      0.066  3.5000000 
       6      0.066  3.5000000 
       7      0.066  3.5000000 
       8      0.250  3.5500000 
       9      0.170  2.9600000 
      10      0.170  2.9600000 
      11      0.066  3.5000000 
      12      0.066  3.5000000 
      13      0.066  3.5000000 
      14      0.070  3.5500000 
      15      0.066  3.5000000 
      16      0.210  2.9600000 
      17      0.030  2.5000000 
      18      0.030  2.5000000 
      19      0.030  2.5000000 
      20      0.030  2.5000000 
      21      0.030  2.5000000 
      22      0.030  2.5000000 
      23      0.030  2.5000000 
      24      0.030  2.5000000 
      25      0.030  2.5000000 
      26      0.030  2.5000000 
      27      0.030  2.5000000 
      28      0.030  2.5000000 
      29      0.030  2.5000000 
      30      0.030  2.5000000 
      31      0.030  2.5000000 
      32      0.030  2.5000000 
      33      0.030  2.5000000 
      34      0.030  2.5000000 
      35      0.030  2.5000000 
      36      0.030  2.5000000 
      37      0.030  2.5000000 
      38      0.030  2.5000000 

Bond Coeffs 

       1   268.0000     1.5290 
       2   320.0000     1.4100 
       3   320.0000     1.4100 
       4   268.0000     1.5290 
       5   268.0000     1.5290 
       6   268.0000     1.5290 
       7   340.0000     1.7700 
       8   700.0000     1.4400 
       9   700.0000     1.4400 
      10   340.0000     1.7700 
      11   268.0000     1.5290 
      12   268.0000     1.5290 
      13   317.0000     1.5220 
      14   317.0000     1.5220 
      15   570.0000     1.2290 
      16   340.0000     1.0900 
      17   340.0000     1.0900 
      18   340.0000     1.0900 
      19   340.0000     1.0900 
      20   340.0000     1.0900 
      21   340.0000     1.0900 
      22   340.0000     1.0900 
      23   340.0000     1.0900 
      24   340.0000     1.0900 
      25   340.0000     1.0900 
      26   340.0000     1.0900 
      27   340.0000     1.0900 
      28   340.0000     1.0900 
      29   340.0000     1.0900 
      30   340.0000     1.0900 
      31   340.0000     1.0900 
      32   340.0000     1.0900 
      33   340.0000     1.0900 
      34   340.0000     1.0900 
      35   340.0000     1.0900 
      36   340.0000     1.0900 
      37   340.0000     1.0900 

Angle Coeffs 

       1     50.000    109.500
       2     60.000    109.500
       3     50.000    109.500
       4     50.000    109.500
       5     50.000    109.500
       6     50.000    108.600
       7     74.000    108.900
       8     74.000    108.900
       9     62.000    102.000
      10     50.000    108.600
      11     58.350    112.700
      12     63.000    111.100
      13     70.000    116.000
      14     80.000    120.400
      15     37.500    110.700
      16     37.500    110.700
      17     37.500    110.700
      18     37.500    110.700
      19     37.500    110.700
      20     37.500    110.700
      21     37.500    110.700
      22     37.500    110.700
      23     37.500    110.700
      24     37.500    110.700
      25     37.500    110.700
      26     37.500    110.700
      27     37.500    110.700
      28     35.000    109.500
      29     35.000    109.500
      30     37.500    110.700
      31     37.500    110.700
      32     37.500    110.700
      33     37.500    110.700
      34     35.000    109.500
      35     35.000    109.500
      36     35.000    109.500
      37     58.350    112.700
      38     35.000    109.500
      39     74.000    108.900
      40     33.000    107.800
      41     37.500    110.700
      42     33.000    107.800
      43     35.000    109.500
      44     80.000    120.400
      45     58.350    112.700
      46     35.000    109.500
      47     37.500    110.700
      48     33.000    107.800
      49    104.000    119.000
      50     58.350    112.700
      51     33.000    107.800
      52     37.500    110.700
      53     35.000    109.500
      54     33.000    107.800
      55     35.000    109.500
      56     33.000    107.800
      57     33.000    107.800
      58     33.000    107.800
      59     33.000    107.800
      60     74.000    108.900
      61     33.000    107.800
      62     33.000    107.800
      63     33.000    107.800
      64     33.000    107.800
      65     37.500    110.700
      66     33.000    107.800
      67     33.000    107.800
      68     33.000    107.800
      69     35.000    109.500
      70     33.000    107.800

Dihedral Coeffs  

       1      0.650     -0.250      0.670      0.000 
       2      0.650     -0.250      0.670      0.000 
       3      0.000      0.000      0.468      0.000 
       4      0.000      0.000      0.000      0.000 
       5      0.000      0.000      0.000      0.000 
       6      1.262     -0.198      0.465      0.000 
       7     -2.060     -0.313      0.315      0.000 
       8      1.454     -0.144     -0.775      0.000 
       9      0.000      0.000      0.468      0.000 
      10      0.000      0.000      0.468      0.000 
      11      0.000      0.000      0.468      0.000 
      12      0.000      0.000      0.275      0.000 
      13      0.000      0.000      0.000      0.000 
      14      0.000      0.000      0.350      0.000 
      15      0.000      0.000      0.300      0.000 
      16      0.000      0.000      0.300      0.000 
      17      0.000      0.000      0.300      0.000 
      18      0.000      0.000      0.300      0.000 
      19      0.000      0.000      0.000      0.000 
      20      0.000      0.000      0.468      0.000 
      21      0.000      0.000      0.275      0.000 
      22      0.000      0.000      0.000      0.000 
      23      0.000      0.000      0.300      0.000 
      24      0.000      0.000      0.300      0.000 
      25      0.000      0.000      0.000      0.000 
      26      0.000      0.000     -0.100      0.000 
      27      0.000      0.000      0.468      0.000 
      28      0.000      0.000      0.000      0.000 
      29      0.000      0.000      0.468      0.000 
      30      0.000      0.000      0.000      0.000 
      31      0.000      0.000      0.350      0.000 
      32      0.000      0.000      0.300      0.000 
      33      0.650     -0.250      0.670      0.000 
      34      0.000      0.000      0.300      0.000 
      35      0.000      0.000      0.350      0.000 
      36      0.000      0.000      0.350      0.000 
      37      0.000      0.000      0.760      0.000 
      38      0.000      0.000      0.300      0.000 
      39      0.000      0.000      0.300      0.000 
      40      0.000      0.000      0.300      0.000 
      41      0.000      0.000      0.000      0.000 
      42      0.000      0.000      0.350      0.000 
      43      0.000      0.000      0.350      0.000 
      44      0.000      0.000      0.300      0.000 
      45      0.000      0.000      0.300      0.000 
      46      0.000      0.000      0.300      0.000 
      47      0.000      0.000      0.468      0.000 
      48      0.650     -0.250      0.670      0.000 
      49      0.000      0.000      0.350      0.000 
      50      0.000      0.000      0.350      0.000 
      51      0.000      0.000      0.468      0.000 
      52      0.000      0.000      0.300      0.000 
      53      0.000      0.000      0.000      0.000 
      54      0.000      0.000      0.300      0.000 
      55      0.000      0.000      0.300      0.000 
      56      1.262     -0.198      0.465      0.000 
      57      0.000      0.000      0.300      0.000 
      58      0.000      0.000      0.350      0.000 
      59      0.000      0.000      0.468      0.000 
      60      0.000      0.000      0.000      0.000 
      61      1.262     -0.198      0.465      0.000 
      62      0.000      0.000      0.300      0.000 
      63      0.000      0.000      0.300      0.000 
      64      0.000      0.000      0.300      0.000 
      65      0.000      0.000      0.452      0.000 
      66      0.000      0.000      0.760      0.000 
      67      0.000      0.000      0.300      0.000 
      68      0.000      0.000      0.275      0.000 
      69      0.000      0.000      0.300      0.000 
      70      0.000      0.000      0.350      0.000 
      71      0.000      0.000     -0.100      0.000 
      72      0.000      0.000      0.300      0.000 
      73      0.000      0.000      0.275      0.000 
      74      0.000      0.000      0.300      0.000 
      75      0.000      0.000      0.275      0.000 
      76      0.000      0.000      0.350      0.000 
      77      0.000      0.000      0.300      0.000 
      78      0.000      0.000      0.468      0.000 
      79      0.000      0.000      0.468      0.000 
      80      0.000      0.000      0.300      0.000 
      81      0.000      0.000      0.300      0.000 
      82      0.000      0.000      0.350      0.000 
      83      0.000      0.000      0.300      0.000 
      84      0.000      0.000      0.452      0.000 
      85      0.000      0.000      0.000      0.000 
      86      0.000      0.000      0.300      0.000 
      87      0.000      0.000      0.300      0.000 
      88      0.000      0.000      0.300      0.000 
      89      0.000      0.000      0.300      0.000 
      90      0.000      0.000      0.300      0.000 

Improper Coeffs 

       1      0.000      -1       2 
       2      0.000      -1       2 
       3      0.000      -1       2 
       4      0.000      -1       2 
       5     10.500      -1       2 
       6      0.000      -1       2 
       7      0.000      -1       2 
       8      0.000      -1       2 
       9      0.000      -1       2 
      10      0.000      -1       2 
      11      0.000      -1       2 
      12      0.000      -1       2 
      13      0.000      -1       2 
      14      0.000      -1       2 
      15      0.000      -1       2 
      16      0.000      -1       2 
      17      0.000      -1       2 
      18      0.000      -1       2 
      19      0.000      -1       2 
      20      0.000      -1       2 
      21      0.000      -1       2 
      22      0.000      -1       2 
      23      0.000      -1       2 

Atoms 

     1      1      1 -0.24480000    1.000  1.00000  0.00000
     2      1      2 0.01310000   -0.516  1.00000  0.00000
     3      1      3 -0.39340000   -1.016  1.00000  1.34138
     4      1      4 0.19620000   -2.467  1.00164  1.50856
     5      1      5 -0.28660000   -3.059  2.25589  0.85234
     6      1      6 -0.28900000   -3.039 -0.26858  0.87150
     7      1      7 -0.48940000   -2.674  1.00830  3.04350
     8      1      8 1.29040000   -4.331  1.08361  3.72262
     9      1      9 -0.56370000   -4.176  1.16385  5.16756
    10      1     10 -0.56370000   -5.083  2.11003  3.03689
    11      1     11 -0.50780000   -5.134 -0.48915  3.41040
    12      1     12 -0.13490000   -6.600 -0.44708  3.83630
    13      1     13 -0.22850000   -7.312 -1.75581  3.51734
    14      1     14 0.36630000   -8.790 -1.69191  3.85451
    15      1     15 -0.30320000   -9.175 -1.44795  5.29076
    16      1     16 -0.44280000   -9.643 -1.88220  2.99252
    17      1     17 0.09560000    1.372  0.99870 -1.03057
    18      1     18 0.09560000    1.390  0.11562  0.51245
    19      1     19 0.09560000    1.391  1.88386  0.51190
    20      1     20 0.07600000   -0.839  0.10181 -0.53011
    21      1     21 0.07600000   -0.855  1.88605 -0.54122
    22      1     22 0.11010000   -2.847  2.29670 -0.22004
    23      1     23 0.11010000   -2.635  3.16425  1.29535
    24      1     24 0.11010000   -4.146  2.29274  0.92894
    25      1     25 0.09870000   -2.697 -0.42588 -0.15288
    26      1     26 0.09870000   -4.123 -0.22259  0.79205
    27      1     27 0.09870000   -2.736 -1.15637  1.43883
    28      1     28 0.17920000   -2.164  1.88737  3.46132
    29      1     29 0.17920000   -2.184  0.14327  3.50644
    30      1     30 0.15970000   -4.579 -1.26136  3.95166
    31      1     31 0.15970000   -5.108 -0.70416  2.35111
    32      1     32 0.11820000   -7.113  0.37228  3.31907
    33      1     33 0.11820000   -6.662 -0.22139  4.90699
    34      1     34 0.12220000   -6.871 -2.59813  4.05966
    35      1     35 0.12220000   -7.227 -1.97533  2.44444
    36      1     36 0.11930000   -8.292 -1.39074  5.92901
    37      1     37 0.11930000   -9.791 -2.28112  5.64171
    38      1     38 0.11930000   -9.727 -0.50783  5.36179

Bonds 

     1      1      2      1
     2      2      3      2
     3      3      4      3
     4      4      5      4
     5      5      6      4
     6      6      7      4
     7      7      8      7
     8      8      9      8
     9      9     10      8
    10     10     11      8
    11     11     12     11
    12     12     13     12
    13     13     14     13
    14     14     15     14
    15     15     16     14
    16     16     17      1
    17     17     18      1
    18     18     19      1
    19     19     20      2
    20     20     21      2
    21     21     22      5
    22     22     23      5
    23     23     24      5
    24     24     25      6
    25     25     26      6
    26     26     27      6
    27     27     28      7
    28     28     29      7
    29     29     30     11
    30     30     31     11
    31     31     32     12
    32     32     33     12
    33     33     34     13
    34     34     35     13
    35     35     36     15
    36     36     37     15
    37     37     38     15

Angles 

     1      1      1      2      3
     2      2      2      3      4
     3      3      3      4      5
     4      4      3      4      6
     5      5      3      4      7
     6      6      4      7      8
     7      7      7      8      9
     8      8      7      8     10
     9      9      7      8     11
    10     10      8     11     12
    11     11     11     12     13
    12     12     12     13     14
    13     13     13     14     15
    14     14     13     14     16
    15     15      2      1     17
    16     16      2      1     18
    17     17      2      1     19
    18     18      1      2     20
    19     19      1      2     21
    20     20      4      5     22
    21     21      4      5     23
    22     22      4      5     24
    23     23      4      6     25
    24     24      4      6     26
    25     25      4      6     27
    26     26      4      7     28
    27     27      4      7     29
    28     28      8     11     30
    29     29      8     11     31
    30     30     11     12     32
    31     31     11     12     33
    32     32     12     13     34
    33     33     12     13     35
    34     34     14     15     36
    35     35     14     15     37
    36     36     14     15     38
    37     37      5      4      6
    38     38      3      2     20
    39     39     10      8     11
    40     40     30     11     31
    41     41     13     12     33
    42     42     25      6     26
    43     43      3      2     21
    44     44     15     14     16
    45     45      6      4      7
    46     46     14     13     35
    47     47     12     11     31
    48     48     23      5     24
    49     49      9      8     10
    50     50      5      4      7
    51     51     32     12     33
    52     52     12     11     30
    53     53      8      7     29
    54     54     18      1     19
    55     55     14     13     34
    56     56     36     15     38
    57     57     17      1     19
    58     58     26      6     27
    59     59     20      2     21
    60     60      9      8     11
    61     61     17      1     18
    62     62     22      5     24
    63     63     22      5     23
    64     64     28      7     29
    65     65     13     12     32
    66     66     37     15     38
    67     67     34     13     35
    68     68     36     15     37
    69     69      8      7     28
    70     70     25      6     27

Dihedrals

     1      1      4      3      2      1 
     2      2      5      4      3      2 
     3      3      8      7      4      3 
     4      4      9      8      7      4 
     5      5     12     11      8      7 
     6      6     13     12     11      8 
     7      7     14     13     12     11 
     8      8     15     14     13     12 
     9      9     17      1      2      3 
    10     10     22      5      4      3 
    11     11     25      6      4      3 
    12     12     36     15     14     13 
    13     13     11      8      7      4 
    14     14     31     11      8      7 
    15     15     26      6      4      7 
    16     16     21      2      1     17 
    17     17     20      2      1     18 
    18     18     29      7      4      6 
    19     19     12     11      8     10 
    20     20     19      1      2      3 
    21     21     37     15     14     13 
    22     22     36     15     14     16 
    23     23     24      5      4      7 
    24     24     35     13     12     32 
    25     25     38     15     14     16 
    26     26     33     12     13     14 
    27     27     29      7      4      3 
    28     28     37     15     14     16 
    29     29     26      6      4      3 
    30     30     10      8      7      4 
    31     31     28      7      8      9 
    32     32     23      5      4      6 
    33     33      6      4      3      2 
    34     34     22      5      4      7 
    35     35     30     11      8     10 
    36     36     31     11      8      9 
    37     37     20      2      3      4 
    38     38     35     13     12     33 
    39     39     30     11     12     13 
    40     40     20      2      1     19 
    41     41     12     11      8      9 
    42     42     29      7      8     10 
    43     43     28      7      8     11 
    44     44     21      2      1     18 
    45     45     28      7      4      5 
    46     46     25      6      4      5 
    47     47     27      6      4      3 
    48     48      7      4      3      2 
    49     49     29      7      8      9 
    50     50     30     11      8      7 
    51     51     23      5      4      3 
    52     52     31     11     12     13 
    53     53     16     14     13     12 
    54     54     20      2      1     17 
    55     55     27      6      4      5 
    56     56      8      7      4      6 
    57     57     25      6      4      7 
    58     58     28      7      8     10 
    59     59     24      5      4      3 
    60     60     35     13     14     16 
    61     61      8      7      4      5 
    62     62     27      6      4      7 
    63     63     23      5      4      7 
    64     64     24      5      4      6 
    65     65     32     12     11      8 
    66     66     21      2      3      4 
    67     67     34     13     12     32 
    68     68     38     15     14     13 
    69     69     26      6      4      5 
    70     70     30     11      8      9 
    71     71     32     12     13     14 
    72     72     35     13     12     11 
    73     73     35     13     14     15 
    74     74     33     12     11     31 
    75     75     34     13     14     15 
    76     76     31     11      8     10 
    77     77     34     13     12     33 
    78     78     28      7      4      3 
    79     79     18      1      2      3 
    80     80     32     12     11     30 
    81     81     21      2      1     19 
    82     82     29      7      8     11 
    83     83     22      5      4      6 
    84     84     33     12     11      8 
    85     85     34     13     14     16 
    86     86     33     12     11     30 
    87     87     32     12     11     31 
    88     88     34     13     12     11 
    89     89     29      7      4      5 
    90     90     28      7      4      6 

Impropers

     1      1      4      3      5      6 
     2      2      4      3      5      7 
     3      3      8      9     10      7 
     4      4      8      9     11      7 
     5      5     14     13     15     16 
     6      6      1     18     17      2 
     7      7      1      2     19     17 
     8      8      2      1      3     20 
     9      9      2      1      3     21 
    10     10      5      4     22     23 
    11     11      5      4     22     24 
    12     12      6     25     26      4 
    13     13      6     25     27      4 
    14     14      7      4     28      8 
    15     15      7      4     29      8 
    16     16     11     12     30      8 
    17     17     11     12     31      8 
    18     18     12     11     13     32 
    19     19     12     33     11     13 
    20     20     13     34     12     14 
    21     21     13     35     12     14 
    22     22     15     36     37     14 
    23     23     15     36     38     14 

