LAMMPS data file Created by LigParGen - (Written by Leela S. Dodda)

      41 atoms
      41 bonds
      81 angles
     119 dihedrals
      24 impropers
 
      41 atom types
      41 bond types
      81 angle types
     119 dihedral types
      24 improper types
 
   -6.011980    43.988020 xlo xhi
   -2.998520    47.001480 ylo yhi
   -2.392750    47.607250 zlo zhi

Masses

       1     12.011  
       2     12.011  
       3     12.011  
       4     12.011  
       5     12.011  
       6     12.011  
       7     12.011  
       8     12.011  
       9     12.011  
      10     12.011  
      11     12.011  
      12     12.011  
      13     15.999  
      14     32.060  
      15     12.011  
      16     15.999  
      17     15.999  
      18      1.008  
      19      1.008  
      20      1.008  
      21      1.008  
      22      1.008  
      23      1.008  
      24      1.008  
      25      1.008  
      26      1.008  
      27      1.008  
      28      1.008  
      29      1.008  
      30      1.008  
      31      1.008  
      32      1.008  
      33      1.008  
      34      1.008  
      35      1.008  
      36      1.008  
      37      1.008  
      38      1.008  
      39      1.008  
      40      1.008  
      41      1.008  

Pair Coeffs 

       1      0.066  3.5000000 
       2      0.066  3.5000000 
       3      0.066  3.5000000 
       4      0.066  3.5000000 
       5      0.066  3.5000000 
       6      0.066  3.5000000 
       7      0.066  3.5000000 
       8      0.066  3.5000000 
       9      0.083  3.4500000 
      10      0.083  3.4500000 
      11      0.083  3.4500000 
      12      0.070  3.5500000 
      13      0.210  2.9600000 
      14      0.250  3.5500000 
      15      0.066  3.5000000 
      16      0.170  2.9600000 
      17      0.170  2.9600000 
      18      0.030  2.5000000 
      19      0.030  2.5000000 
      20      0.030  2.5000000 
      21      0.030  2.5000000 
      22      0.030  2.5000000 
      23      0.030  2.5000000 
      24      0.030  2.5000000 
      25      0.030  2.5000000 
      26      0.030  2.5000000 
      27      0.030  2.5000000 
      28      0.030  2.5000000 
      29      0.030  2.5000000 
      30      0.030  2.5000000 
      31      0.030  2.5000000 
      32      0.030  2.5000000 
      33      0.030  2.5000000 
      34      0.030  2.5000000 
      35      0.030  2.5000000 
      36      0.030  2.5000000 
      37      0.030  2.5000000 
      38      0.030  2.5000000 
      39      0.030  2.5000000 
      40      0.030  2.5000000 
      41      0.030  2.5000000 

Bond Coeffs 

       1   268.0000     1.5290 
       2   268.0000     1.5290 
       3   268.0000     1.5290 
       4   268.0000     1.5290 
       5   268.0000     1.5290 
       6   268.0000     1.5290 
       7   268.0000     1.5290 
       8   280.0000     1.5100 
       9   260.0000     1.5200 
      10   260.0000     1.5200 
      11   317.0000     1.5220 
      12   570.0000     1.2290 
      13   340.0000     1.7700 
      14   340.0000     1.7700 
      15   700.0000     1.4400 
      16   700.0000     1.4400 
      17   340.0000     1.0900 
      18   340.0000     1.0900 
      19   340.0000     1.0900 
      20   340.0000     1.0900 
      21   340.0000     1.0900 
      22   340.0000     1.0900 
      23   340.0000     1.0900 
      24   340.0000     1.0900 
      25   340.0000     1.0900 
      26   340.0000     1.0900 
      27   340.0000     1.0900 
      28   340.0000     1.0900 
      29   340.0000     1.0900 
      30   340.0000     1.0900 
      31   340.0000     1.0900 
      32   340.0000     1.0900 
      33   340.0000     1.0880 
      34   340.0000     1.0880 
      35   340.0000     1.0880 
      36   340.0000     1.0880 
      37   340.0000     1.0900 
      38   340.0000     1.0900 
      39   340.0000     1.0900 
      40   340.0000     1.0900 
      41   260.0000     1.5200 

Angle Coeffs 

       1     58.350    112.700
       2     58.350    112.700
       3     58.350    112.700
       4     58.350    112.700
       5     58.350    112.700
       6     58.350    112.700
       7     58.350    112.700
       8     37.500    117.200
       9     37.500    117.200
      10     63.000    111.100
      11     80.000    120.400
      12     50.000    108.600
      13     62.000    102.000
      14     74.000    108.900
      15     74.000    108.900
      16     37.500    110.700
      17     37.500    110.700
      18     37.500    110.700
      19     37.500    110.700
      20     37.500    110.700
      21     37.500    110.700
      22     37.500    110.700
      23     37.500    110.700
      24     37.500    110.700
      25     37.500    110.700
      26     37.500    110.700
      27     37.500    110.700
      28     37.500    110.700
      29     37.500    110.700
      30     37.500    110.700
      31     37.500    110.700
      32     35.000    114.300
      33     37.500    117.200
      34     37.500    117.200
      35     37.500    117.200
      36     35.000    115.000
      37     35.000    109.500
      38     35.000    109.500
      39     35.000    109.500
      40     30.000     83.000
      41     33.000    107.800
      42     37.500    110.700
      43    104.000    119.000
      44     37.500    110.700
      45     33.000    107.800
      46     74.000    108.900
      47     50.000    108.600
      48     35.000    123.000
      49     33.000    107.800
      50     33.000    107.800
      51     37.500    110.700
      52     37.500    110.700
      53     37.500    117.200
      54     37.500    110.700
      55     37.500    110.700
      56     37.500    117.200
      57     58.350    112.700
      58     33.000    107.800
      59     37.500    110.700
      60     33.000    107.800
      61     37.500    117.200
      62     37.500    110.700
      63     63.000    111.100
      64     33.000    107.800
      65     37.500    110.700
      66     35.000    109.500
      67     33.000    107.800
      68     74.000    108.900
      69     33.000    107.800
      70     33.000    107.800
      71     30.000     83.000
      72     33.000    107.800
      73     33.000    107.800
      74     37.500    117.200
      75     35.000    114.300
      76     30.000     83.000
      77     35.000    109.500
      78     37.500    117.200
      79     33.000    107.800
      80     37.500    110.700
      81     37.500    110.700

Dihedral Coeffs  

       1      1.300     -0.200      0.200      0.000 
       2      1.300     -0.200      0.200      0.000 
       3      1.300     -0.200      0.200      0.000 
       4      1.300     -0.200      0.200      0.000 
       5      1.300     -0.200      0.200      0.000 
       6      0.000      0.000      0.000      0.000 
       7      0.000      0.000      0.000      0.000 
       8      0.000      0.000      0.000      0.000 
       9      0.000      0.000      0.000      0.000 
      10      0.000      0.000      0.000      0.000 
      11      0.000      0.000      0.300      0.000 
      12      0.000      0.000      0.300      0.000 
      13      0.000      0.000      0.000      0.000 
      14      0.000      0.000      0.000      0.000 
      15      0.000      0.000      0.000      0.000 
      16      0.000      0.000      0.350      0.000 
      17      0.000      0.000      0.000      0.000 
      18      0.000      0.000      0.300      0.000 
      19      0.000      0.000      0.300      0.000 
      20      0.000      0.000      0.000      0.000 
      21      0.000      0.000      0.300      0.000 
      22      0.000      0.000      0.350      0.000 
      23      1.262     -0.198      0.465      0.000 
      24      0.000      0.000      0.300      0.000 
      25      0.000      0.000      0.300      0.000 
      26      0.000      0.000      0.000      0.000 
      27      0.000      0.000      0.000      0.000 
      28      0.000      0.000      0.300      0.000 
      29      0.000      0.000      0.350      0.000 
      30      0.000      0.000      0.300      0.000 
      31      0.000      0.000      0.000      0.000 
      32      0.000      0.000      0.300      0.000 
      33      0.000      0.000      0.000      0.000 
      34      1.262     -0.198      0.465      0.000 
      35      0.000      0.000      0.300      0.000 
      36      0.000      0.000      0.300      0.000 
      37      0.000      0.000      0.000      0.000 
      38      0.000      0.000      0.452      0.000 
      39      0.000      0.000      0.300      0.000 
      40      0.000      0.000      0.000      0.000 
      41      0.000      0.000      0.300      0.000 
      42      0.000      0.000      0.300      0.000 
      43      0.000      0.000      0.300      0.000 
      44      0.000      0.000      0.300      0.000 
      45      0.000      0.000      0.000      0.000 
      46      0.000      0.000      0.300      0.000 
      47      0.000      0.000      0.000      0.000 
      48      0.000      0.000      0.300      0.000 
      49      0.000      0.000      0.300      0.000 
      50      0.000      0.000      0.300      0.000 
      51      0.000      0.000      0.000      0.000 
      52      1.300     -0.200      0.200      0.000 
      53      0.000      0.000      0.300      0.000 
      54      0.000      0.000      0.300      0.000 
      55      0.000      0.000      0.000      0.000 
      56      0.000      0.000      0.300      0.000 
      57      0.000      0.000      0.300      0.000 
      58      0.000      0.000      0.000      0.000 
      59      0.000      0.000      0.350      0.000 
      60      0.000      0.000      0.000      0.000 
      61      0.000      0.000      0.452      0.000 
      62      0.000      0.000      0.300      0.000 
      63      0.000      0.000      0.300      0.000 
      64      0.000      0.000      0.350      0.000 
      65      0.000      0.000      0.000      0.000 
      66      0.000      0.000      0.350      0.000 
      67      0.000      0.000      0.300      0.000 
      68      0.000      0.000      0.000      0.000 
      69      0.000      0.000      0.350      0.000 
      70      0.000      0.000      0.350      0.000 
      71      0.000      0.000      0.300      0.000 
      72      0.000      0.000      0.300      0.000 
      73      0.000      0.000      0.300      0.000 
      74      0.000      0.000      0.300      0.000 
      75      0.000      0.000      0.300      0.000 
      76      0.000      0.000      0.000      0.000 
      77      0.000      0.000      0.300      0.000 
      78      0.000      0.000      0.300      0.000 
      79      0.000      0.000      0.000      0.000 
      80      0.000      0.000      0.300      0.000 
      81      0.000      0.000      0.300      0.000 
      82      0.000      0.000      0.000      0.000 
      83      1.262     -0.198      0.465      0.000 
      84      0.000      0.000      0.300      0.000 
      85      0.000      0.000      0.300      0.000 
      86      0.000      0.000      0.000      0.000 
      87      0.000      0.000      0.300      0.000 
      88      0.000      0.000      0.300      0.000 
      89      0.000      0.000      0.300      0.000 
      90      0.000      0.000      0.000      0.000 
      91      0.000      0.000      0.000      0.000 
      92      0.000      0.000      0.300      0.000 
      93      0.000      0.000      0.000      0.000 
      94      0.000      0.000      0.452      0.000 
      95      0.000      0.000      0.000      0.000 
      96      0.000      0.000      0.300      0.000 
      97      0.000      0.000      0.300      0.000 
      98      0.000      0.000      0.300      0.000 
      99      1.300     -0.200      0.200      0.000 
     100      0.000      0.000      0.300      0.000 
     101      0.000      0.000      0.350      0.000 
     102      0.000      0.000      0.300      0.000 
     103      0.000      0.000      0.350      0.000 
     104      0.000      0.000      0.300      0.000 
     105      0.000      0.000      0.300      0.000 
     106      0.000      0.000      0.300      0.000 
     107      0.000      0.000      0.000      0.000 
     108      0.000      0.000      0.300      0.000 
     109      0.000      0.000      0.000      0.000 
     110      0.000      0.000      0.350      0.000 
     111      0.000      0.000      0.300      0.000 
     112      0.000      0.000      0.300      0.000 
     113      0.000      0.000      0.300      0.000 
     114      0.000      0.000      0.300      0.000 
     115      0.000      0.000      0.000      0.000 
     116      0.000      0.000      0.000      0.000 
     117      0.000      0.000      0.300      0.000 
     118      0.000      0.000      0.300      0.000 
     119      0.000      0.000      0.350      0.000 

Improper Coeffs 

       1      0.000      -1       2 
       2      0.000      -1       2 
       3      0.000      -1       2 
       4      0.000      -1       2 
       5      0.000      -1       2 
       6      0.000      -1       2 
       7      0.000      -1       2 
       8      0.000      -1       2 
       9      0.000      -1       2 
      10      0.000      -1       2 
      11      0.000      -1       2 
      12      0.000      -1       2 
      13      0.000      -1       2 
      14      0.000      -1       2 
      15      0.000      -1       2 
      16      0.000      -1       2 
      17      0.000      -1       2 
      18      0.000      -1       2 
      19      0.000      -1       2 
      20     10.500      -1       2 
      21      0.000      -1       2 
      22      0.000      -1       2 
      23      0.000      -1       2 
      24      0.000      -1       2 

Atoms 

     1      1      1 -0.23780000    1.000  1.00000  0.00000
     2      1      2 -0.19330000   -0.523  1.00000  0.00000
     3      1      3 -0.06480000   -1.189  1.00000  1.39146
     4      1      4 -0.23400000   -0.808  2.27337  2.16946
     5      1      5 -0.38390000   -2.744  0.80284  1.41137
     6      1      6 -0.14420000   -3.622  1.91908  0.78314
     7      1      7 -0.18750000   -3.561  2.06034 -0.74270
     8      1      8 -0.15060000   -4.390  3.21012 -1.31331
     9      1      9 -0.15200000   -4.019  4.53181 -0.70911
    10      1     10 -0.20230000   -4.675  5.80232 -1.17549
    11      1     11 -0.29080000   -5.023  5.23491  0.17830
    12      1     12 0.35080000   -4.578  5.90195  1.42582
    13      1     13 -0.44990000   -3.403  6.17123  1.63924
    14      1     14 1.27610000   -3.325 -0.83370  0.87215
    15      1     15 -0.58220000   -2.497 -2.00244  1.92148
    16      1     16 -0.57430000   -4.736 -0.92533  1.20023
    17      1     17 -0.57430000   -2.881 -1.09280 -0.48713
    18      1     18 0.08340000    1.358  0.87634 -1.02893
    19      1     19 0.08340000    1.407  0.18631  0.60445
    20      1     20 0.08340000    1.397  1.95358  0.35996
    21      1     21 0.10990000   -0.845  0.12719 -0.57072
    22      1     22 0.10990000   -0.801  1.89307 -0.55564
    23      1     23 0.08410000   -0.748  0.16623  1.95131
    24      1     24 0.08990000   -1.212  3.17398  1.69724
    25      1     25 0.08990000    0.277  2.39657  2.23473
    26      1     26 0.08990000   -1.184  2.22577  3.19724
    27      1     27 0.14040000   -3.021  0.79832  2.47852
    28      1     28 0.11460000   -3.367  2.86938  1.26305
    29      1     29 0.11460000   -4.669  1.73267  1.05683
    30      1     30 0.10630000   -3.890  1.13400 -1.22108
    31      1     31 0.10630000   -2.543  2.24357 -1.06886
    32      1     32 0.10000000   -5.457  2.99620 -1.18880
    33      1     33 0.10000000   -4.199  3.25763 -2.39275
    34      1     34 0.15670000   -2.957  4.61035 -0.48817
    35      1     35 0.13480000   -5.412  5.73546 -1.96740
    36      1     36 0.13480000   -4.059  6.69469 -1.21674
    37      1     37 0.14970000   -6.012  4.79452  0.26012
    38      1     38 0.11610000   -5.371  6.14114  2.15353
    39      1     39 0.16570000   -2.754 -1.78951  2.96029
    40      1     40 0.16570000   -1.422 -1.94571  1.75633
    41      1     41 0.16570000   -2.855 -2.99852  1.64843

Bonds 

     1      1      2      1
     2      2      3      2
     3      3      4      3
     4      4      5      3
     5      5      6      5
     6      6      7      6
     7      7      8      7
     8      8      9      8
     9      9     10      9
    10     10     11      9
    11     11     12     11
    12     12     13     12
    13     13     14      5
    14     14     15     14
    15     15     16     14
    16     16     17     14
    17     17     18      1
    18     18     19      1
    19     19     20      1
    20     20     21      2
    21     21     22      2
    22     22     23      3
    23     23     24      4
    24     24     25      4
    25     25     26      4
    26     26     27      5
    27     27     28      6
    28     28     29      6
    29     29     30      7
    30     30     31      7
    31     31     32      8
    32     32     33      8
    33     33     34      9
    34     34     35     10
    35     35     36     10
    36     36     37     11
    37     37     38     12
    38     38     39     15
    39     39     40     15
    40     40     41     15
    41     41     11     10

Angles 

     1      1      1      2      3
     2      2      2      3      4
     3      3      2      3      5
     4      4      3      5      6
     5      5      5      6      7
     6      6      6      7      8
     7      7      7      8      9
     8      8      8      9     10
     9      9      8      9     11
    10     10      9     11     12
    11     11     11     12     13
    12     12      3      5     14
    13     13      5     14     15
    14     14      5     14     16
    15     15      5     14     17
    16     16      2      1     18
    17     17      2      1     19
    18     18      2      1     20
    19     19      1      2     21
    20     20      1      2     22
    21     21      2      3     23
    22     22      3      4     24
    23     23      3      4     25
    24     24      3      4     26
    25     25      3      5     27
    26     26      5      6     28
    27     27      5      6     29
    28     28      6      7     30
    29     29      6      7     31
    30     30      7      8     32
    31     31      7      8     33
    32     32      8      9     34
    33     33      9     10     35
    34     34      9     10     36
    35     35      9     11     37
    36     36     11     12     38
    37     37     14     15     39
    38     38     14     15     40
    39     39     14     15     41
    40     40     10      9     11
    41     41     28      6     29
    42     42      9      8     32
    43     43     16     14     17
    44     44      9      8     33
    45     45     18      1     20
    46     46     15     14     16
    47     47      6      5     14
    48     48     13     12     38
    49     49     24      4     26
    50     50     24      4     25
    51     51      5      3     23
    52     52      7      6     28
    53     53     10      9     34
    54     54      4      3     23
    55     55      3      2     22
    56     56     11     10     36
    57     57      4      3      5
    58     58     32      8     33
    59     59      6      5     27
    60     60     18      1     19
    61     61     11     10     35
    62     62      7      6     29
    63     63     10     11     12
    64     64     39     15     41
    65     65      8      7     31
    66     66     14      5     27
    67     67     19      1     20
    68     68     15     14     17
    69     69     21      2     22
    70     70     30      7     31
    71     71      9     11     10
    72     72     40     15     41
    73     73     25      4     26
    74     74     11      9     34
    75     75     35     10     36
    76     76      9     10     11
    77     77     12     11     37
    78     78     10     11     37
    79     79     39     15     40
    80     80      8      7     30
    81     81      3      2     21

Dihedrals

     1      1      4      3      2      1 
     2      2      6      5      3      2 
     3      3      7      6      5      3 
     4      4      8      7      6      5 
     5      5      9      8      7      6 
     6      6     10      9      8      7 
     7      7     11      9      8     10 
     8      8     12     11      9     10 
     9      9     13     12     11      9 
    10     10     15     14      5      3 
    11     11     18      1      2      3 
    12     12     24      4      3      2 
    13     13     35     10      9     11 
    14     14     36     10      9     11 
    15     15     37     11      9     10 
    16     16     39     15     14      5 
    17     17     35     10     11     12 
    18     18     31      7      6      5 
    19     19     31      7      8      9 
    20     20     35     10      9      8 
    21     21     28      6      7      8 
    22     22     39     15     14     16 
    23     23     14      5      3      4 
    24     24     25      4      3      5 
    25     25     26      4      3     23 
    26     26     37     11     10     35 
    27     27     37     11      9      8 
    28     28     24      4      3     23 
    29     29     40     15     14      5 
    30     30     19      1      2      3 
    31     31     12     11      9      8 
    32     32     27      5      3     23 
    33     33     37     11     10      9 
    34     34     14      5      6      7 
    35     35     30      7      6      5 
    36     36     22      2      3      5 
    37     37     11      9      8      7 
    38     38     29      6      5     14 
    39     39     32      8      7     30 
    40     40     15     14      5      6 
    41     41     23      3      5      6 
    42     42     32      8      7     31 
    43     43     33      8      7     30 
    44     44     27      5      3      4 
    45     45     35     10     11      9 
    46     46     29      6      5     27 
    47     47     38     12     11      9 
    48     48     23      3      2     22 
    49     49     34      9      8     32 
    50     50     26      4      3      2 
    51     51     34      9     11     12 
    52     52      6      5      3      4 
    53     53     30      7      6     29 
    54     54     31      7      6     28 
    55     55     34      9     10     11 
    56     56     34      9      8     33 
    57     57     22      2      1     20 
    58     58     37     11     12     13 
    59     59     27      5     14     16 
    60     60     17     14      5      6 
    61     61     23      3      5     14 
    62     62     32      8      9     10 
    63     63     26      4      3      5 
    64     64     27      5     14     17 
    65     65     16     14      5      6 
    66     66     41     15     14      5 
    67     67     27      5      6      7 
    68     68     36     10     11     12 
    69     69     39     15     14     17 
    70     70     40     15     14     16 
    71     71     30      7      8      9 
    72     72     33      8      7      6 
    73     73     28      6      5      3 
    74     74     32      8      7      6 
    75     75     24      4      3      5 
    76     76     12     11     10      9 
    77     77     21      2      1     20 
    78     78     22      2      1     19 
    79     79     35     10      9     34 
    80     80     38     12     11     37 
    81     81     33      8      7     31 
    82     82     37     11     10     36 
    83     83     14      5      3      2 
    84     84     29      6      7      8 
    85     85     34      9      8      7 
    86     86     36     10      9      8 
    87     87     31      7      6     29 
    88     88     27      5      3      2 
    89     89     25      4      3     23 
    90     90     36     10      9     34 
    91     91     34      9     11     10 
    92     92     33      8      9     11 
    93     93     16     14      5      3 
    94     94     28      6      5     14 
    95     95     13     12     11     10 
    96     96     23      3      2      1 
    97     97     23      3      2     21 
    98     98     21      2      3      4 
    99     99      5      3      2      1 
   100    100     20      1      2      3 
   101    101     41     15     14     16 
   102    102     29      6      5      3 
   103    103     40     15     14     17 
   104    104     21      2      3      5 
   105    105     22      2      3      4 
   106    106     22      2      1     18 
   107    107     36     10     11      9 
   108    108     21      2      1     19 
   109    109     38     12     11     10 
   110    110     27      5     14     15 
   111    111     28      6      5     27 
   112    112     25      4      3      2 
   113    113     33      8      9     10 
   114    114     32      8      9     11 
   115    115     17     14      5      3 
   116    116     37     11      9     34 
   117    117     21      2      1     18 
   118    118     30      7      6     28 
   119    119     41     15     14     17 

Impropers

     1      1      3      2      4      5 
     2      2      5      3     14      6 
     3      3     14      5     15     16 
     4      4     14     17      5     15 
     5      5      1      2     19     18 
     6      6      1      2     20     18 
     7      7      2      1      3     21 
     8      8      2      1      3     22 
     9      9      3      2      4     23 
    10     10      4     25      3     24 
    11     11      4     26      3     24 
    12     12      5     27      3      6 
    13     13      6     28      5      7 
    14     14      6      5     29      7 
    15     15      7      8     30      6 
    16     16      7      8     31      6 
    17     17      8      9      7     32 
    18     18      8     33      9      7 
    19     19      9     34     10      8 
    20     20     12     11     13     38 
    21     21     15     39     14     40 
    22     22     15     41     39     14 
    23     23      9     10     11      8 
    24     24      9     10     11      8 

