LAMMPS data file Created by LigParGen - (Written by Leela S. Dodda)

      37 atoms
      38 bonds
      76 angles
     119 dihedrals
      25 impropers
 
      37 atom types
      38 bond types
      76 angle types
     119 dihedral types
      25 improper types
 
   -5.378150    44.621850 xlo xhi
   -2.339960    47.660040 ylo yhi
   -3.579890    46.420110 zlo zhi

Masses

       1     12.011  
       2     12.011  
       3     12.011  
       4     12.011  
       5     12.011  
       6     12.011  
       7     12.011  
       8     12.011  
       9     15.999  
      10     12.011  
      11     12.011  
      12     12.011  
      13     12.011  
      14     12.011  
      15     12.011  
      16     14.007  
      17      1.008  
      18      1.008  
      19      1.008  
      20      1.008  
      21      1.008  
      22      1.008  
      23      1.008  
      24      1.008  
      25      1.008  
      26      1.008  
      27      1.008  
      28      1.008  
      29      1.008  
      30      1.008  
      31      1.008  
      32      1.008  
      33      1.008  
      34      1.008  
      35      1.008  
      36      1.008  
      37      1.008  

Pair Coeffs 

       1      0.066  3.5000000 
       2      0.066  3.5000000 
       3      0.066  3.5000000 
       4      0.066  3.5000000 
       5      0.066  3.5000000 
       6      0.066  3.5000000 
       7      0.066  3.5000000 
       8      0.070  3.5500000 
       9      0.210  2.9600000 
      10      0.066  3.5000000 
      11      0.066  3.5000000 
      12      0.083  3.4500000 
      13      0.083  3.4500000 
      14      0.083  3.4500000 
      15      0.066  3.3000000 
      16      0.170  3.2000000 
      17      0.030  2.5000000 
      18      0.030  2.5000000 
      19      0.030  2.5000000 
      20      0.030  2.5000000 
      21      0.030  2.5000000 
      22      0.030  2.5000000 
      23      0.030  2.5000000 
      24      0.030  2.5000000 
      25      0.030  2.5000000 
      26      0.030  2.5000000 
      27      0.030  2.5000000 
      28      0.030  2.5000000 
      29      0.030  2.5000000 
      30      0.030  2.5000000 
      31      0.030  2.5000000 
      32      0.030  2.5000000 
      33      0.030  2.5000000 
      34      0.030  2.5000000 
      35      0.030  2.5000000 
      36      0.030  2.5000000 
      37      0.030  2.5000000 

Bond Coeffs 

       1   268.0000     1.5290 
       2   268.0000     1.5290 
       3   268.0000     1.5290 
       4   268.0000     1.5290 
       5   268.0000     1.5290 
       6   268.0000     1.5290 
       7   317.0000     1.5220 
       8   570.0000     1.2290 
       9   268.0000     1.5290 
      10   268.0000     1.5290 
      11   280.0000     1.5100 
      12   260.0000     1.5200 
      13   260.0000     1.5200 
      14   400.0000     1.4510 
      15   650.0000     1.1570 
      16   340.0000     1.0900 
      17   340.0000     1.0900 
      18   340.0000     1.0900 
      19   340.0000     1.0900 
      20   340.0000     1.0900 
      21   340.0000     1.0900 
      22   340.0000     1.0900 
      23   340.0000     1.0900 
      24   340.0000     1.0900 
      25   340.0000     1.0900 
      26   340.0000     1.0900 
      27   340.0000     1.0900 
      28   340.0000     1.0900 
      29   340.0000     1.0900 
      30   340.0000     1.0900 
      31   340.0000     1.0900 
      32   340.0000     1.0900 
      33   340.0000     1.0900 
      34   340.0000     1.0880 
      35   340.0000     1.0880 
      36   340.0000     1.0880 
      37   280.0000     1.5100 
      38   260.0000     1.5200 

Angle Coeffs 

       1     58.350    112.700
       2     58.350    112.700
       3     58.350    112.700
       4     58.350    112.700
       5     58.350    112.700
       6     63.000    111.100
       7     80.000    120.400
       8     58.350    112.700
       9     58.350    112.700
      10     58.350    112.700
      11     37.500    117.200
      12     37.500    117.200
      13     42.830    109.430
      14    150.000    180.000
      15     37.500    110.700
      16     37.500    110.700
      17     37.500    110.700
      18     37.500    110.700
      19     37.500    110.700
      20     37.500    110.700
      21     37.500    110.700
      22     37.500    110.700
      23     37.500    110.700
      24     37.500    110.700
      25     37.500    110.700
      26     37.500    110.700
      27     37.500    110.700
      28     35.000    115.000
      29     37.500    110.700
      30     37.500    110.700
      31     37.500    110.700
      32     37.500    110.700
      33     37.500    117.200
      34     37.500    117.200
      35     37.500    117.200
      36     35.000    123.000
      37     37.500    110.700
      38     37.500    117.200
      39     33.000    107.800
      40     37.500    117.200
      41     33.000    107.800
      42     42.830    109.430
      43     37.500    110.700
      44     37.500    117.200
      45     33.000    107.800
      46     30.000     83.000
      47     37.500    110.700
      48     33.000    107.800
      49     33.000    107.800
      50     58.350    112.700
      51     35.000    108.500
      52     35.000    109.500
      53     35.000    109.500
      54     33.000    107.800
      55     33.000    107.800
      56     37.500    110.700
      57     35.000    114.300
      58     58.350    112.700
      59     33.000    107.800
      60     30.000     83.000
      61     58.350    112.700
      62     33.000    107.800
      63     37.500    110.700
      64     33.000    107.800
      65     33.000    107.800
      66     35.000    114.300
      67     37.500    117.200
      68     37.500    110.700
      69     58.350    112.700
      70     58.350    112.700
      71     37.500    117.200
      72     37.500    110.700
      73     33.000    107.800
      74     58.350    112.700
      75     30.000     83.000
      76     37.500    110.700

Dihedral Coeffs  

       1      1.300     -0.200      0.200      0.000 
       2      1.300     -0.200      0.200      0.000 
       3     -2.060     -0.313      0.315      0.000 
       4      0.000      0.000      0.000      0.000 
       5      1.300     -0.200      0.200      0.000 
       6      0.000      0.000      0.000      0.000 
       7      0.000      0.000      0.000      0.000 
       8      0.000      0.000      0.300      0.000 
       9      0.000      0.000      0.300      0.000 
      10      0.000      0.000      0.300      0.000 
      11      0.000      0.000      0.000      0.000 
      12      0.000      0.000      0.000      0.000 
      13      0.000      0.000      0.000      0.000 
      14      0.000      0.000      0.300      0.000 
      15      0.000      0.000      0.300      0.000 
      16      0.000      0.000      0.000      0.000 
      17      1.300     -0.200      0.200      0.000 
      18      0.000      0.000      0.000      0.000 
      19      1.300     -0.200      0.200      0.000 
      20      1.300     -0.200      0.200      0.000 
      21      0.000      0.000      0.300      0.000 
      22      0.000      0.000      0.300      0.000 
      23      0.000      0.000      0.300      0.000 
      24      0.000      0.000      0.300      0.000 
      25      0.000      0.000      0.300      0.000 
      26      1.300     -0.200      0.200      0.000 
      27      0.000      0.000      0.000      0.000 
      28      0.000      0.000      0.300      0.000 
      29      1.300     -0.200      0.200      0.000 
      30      0.000      0.000      0.300      0.000 
      31      0.000      0.000      0.000      0.000 
      32      0.000      0.000      0.300      0.000 
      33      0.000      0.000      0.300      0.000 
      34      0.000      0.000      0.000      0.000 
      35      0.000      0.000      0.000      0.000 
      36     -2.060     -0.313      0.315      0.000 
      37      0.000      0.000      0.360      0.000 
      38      0.000      0.000      0.000      0.000 
      39      0.000      0.000      0.000      0.000 
      40      0.000      0.000      0.300      0.000 
      41      0.000      0.000      0.300      0.000 
      42      0.000      0.000      0.300      0.000 
      43      0.000      0.000      0.000      0.000 
      44      0.000      0.000      0.300      0.000 
      45      0.000      0.000      0.300      0.000 
      46      1.300     -0.200      0.200      0.000 
      47      0.000      0.000      0.300      0.000 
      48      0.000      0.000      0.300      0.000 
      49      0.000      0.000      0.300      0.000 
      50      0.000      0.000      0.000      0.000 
      51      0.000      0.000      0.000      0.000 
      52      0.000      0.000      0.000      0.000 
      53      0.000      0.000      0.300      0.000 
      54      0.000      0.000      0.300      0.000 
      55      0.000      0.000      0.300      0.000 
      56      0.000      0.000      0.300      0.000 
      57      0.000      0.000      0.300      0.000 
      58      0.000      0.000      0.300      0.000 
      59      0.000      0.000      0.300      0.000 
      60      0.000      0.000      0.300      0.000 
      61      0.000      0.000      0.300      0.000 
      62      0.000      0.000      0.300      0.000 
      63      0.000      0.000      0.300      0.000 
      64      0.000      0.000      0.300      0.000 
      65      0.000      0.000      0.300      0.000 
      66      0.000      0.000      0.000      0.000 
      67      0.000      0.000      0.300      0.000 
      68      0.000      0.000      0.300      0.000 
      69      0.000      0.000      0.000      0.000 
      70      1.300     -0.200      0.200      0.000 
      71      0.000      0.000      0.000      0.000 
      72      1.300     -0.200      0.200      0.000 
      73      0.000      0.000      0.300      0.000 
      74      0.000      0.000      0.300      0.000 
      75      0.000      0.000      0.300      0.000 
      76      0.000      0.000      0.300      0.000 
      77      0.000      0.000      0.300      0.000 
      78      0.000      0.000      0.000      0.000 
      79      1.300     -0.200      0.200      0.000 
      80      0.000      0.000      0.300      0.000 
      81      1.300     -0.200      0.200      0.000 
      82      0.000      0.000      0.000      0.000 
      83      0.000      0.000      0.000      0.000 
      84      0.000      0.000      0.000      0.000 
      85      0.000      0.000     -0.100      0.000 
      86      0.000      0.000      0.300      0.000 
      87      0.000      0.000      0.000      0.000 
      88      0.000      0.000      0.300      0.000 
      89      0.000      0.000      0.000      0.000 
      90      0.000      0.000      0.300      0.000 
      91      0.000      0.000      0.360      0.000 
      92      1.300     -0.200      0.200      0.000 
      93      1.300     -0.200      0.200      0.000 
      94      0.000      0.000      0.300      0.000 
      95      0.000      0.000      0.300      0.000 
      96      0.000      0.000      0.000      0.000 
      97      0.000      0.000      0.000      0.000 
      98      0.000      0.000      0.300      0.000 
      99      0.000      0.000      0.300      0.000 
     100      0.000      0.000      0.300      0.000 
     101      0.000      0.000      0.000      0.000 
     102      0.000      0.000      0.300      0.000 
     103      0.000      0.000      0.300      0.000 
     104      1.300     -0.200      0.200      0.000 
     105      0.000      0.000      0.300      0.000 
     106      0.000      0.000      0.300      0.000 
     107      0.000      0.000      0.000      0.000 
     108      0.000      0.000      0.300      0.000 
     109      0.000      0.000      0.300      0.000 
     110      0.000      0.000      0.300      0.000 
     111      1.300     -0.200      0.200      0.000 
     112      0.000      0.000      0.300      0.000 
     113      0.000      0.000      0.300      0.000 
     114      1.300     -0.200      0.200      0.000 
     115      0.000      0.000      0.300      0.000 
     116      0.000      0.000      0.000      0.000 
     117      0.000      0.000      0.000      0.000 
     118      0.000      0.000      0.300      0.000 
     119      0.000      0.000      0.300      0.000 

Improper Coeffs 

       1      0.000      -1       2 
       2      0.000      -1       2 
       3      0.000      -1       2 
       4      0.000      -1       2 
       5      0.000      -1       2 
       6      0.000      -1       2 
       7      0.000      -1       2 
       8      0.000      -1       2 
       9      0.000      -1       2 
      10      0.000      -1       2 
      11      0.000      -1       2 
      12      0.000      -1       2 
      13      0.000      -1       2 
      14      0.000      -1       2 
      15      0.000      -1       2 
      16      0.000      -1       2 
      17     10.500      -1       2 
      18      0.000      -1       2 
      19      0.000      -1       2 
      20      0.000      -1       2 
      21      0.000      -1       2 
      22      0.000      -1       2 
      23      0.000      -1       2 
      24      0.000      -1       2 
      25      0.000      -1       2 

Atoms 

     1      1      1 -0.24330000    1.000  1.00000  0.00000
     2      1      2 -0.05690000   -0.539  1.00000  0.00000
     3      1      3 -0.03270000   -1.106  1.00000  1.47989
     4      1      4 -0.23560000   -0.543  2.18822  2.30115
     5      1      5 -0.23140000   -0.662 -0.28407  2.23392
     6      1      6 -0.08810000   -2.676  1.09316  1.45743
     7      1      7 -0.25710000   -3.208  2.43199  0.88787
     8      1      8 0.31280000   -4.716  2.48602  0.88346
     9      1      9 -0.44240000   -5.378  2.62559 -0.14120
    10      1     10 -0.17470000   -3.249 -0.10619  0.68785
    11      1     11 -0.14720000   -2.739 -0.15028 -0.74164
    12      1     12 -0.06610000   -1.219 -0.11119 -0.86054
    13      1     13 -0.20620000   -0.493 -1.41749 -1.12684
    14      1     14 -0.11210000   -0.758 -0.47731 -2.27709
    15      1     15 0.17460000    0.328  0.14848 -2.97242
    16      1     16 -0.36190000    1.187  0.63383 -3.57989
    17      1     17 0.08990000    1.401  1.81556  0.60897
    18      1     18 0.08990000    1.411  1.17484 -0.99284
    19      1     19 0.08990000    1.421  0.06546  0.37825
    20      1     20 0.10460000   -0.826  1.95205 -0.46552
    21      1     21 0.08510000    0.509  2.03873  2.56920
    22      1     22 0.08510000   -1.088  2.30217  3.24614
    23      1     23 0.08510000   -0.609  3.13148  1.75050
    24      1     24 0.08480000    0.420 -0.29856  2.40400
    25      1     25 0.08480000   -0.905 -1.20079  1.69026
    26      1     26 0.08480000   -1.141 -0.34297  3.21794
    27      1     27 0.09830000   -3.040  1.01783  2.49220
    28      1     28 0.12380000   -2.864  2.61231 -0.13500
    29      1     29 0.12380000   -2.875  3.27734  1.49792
    30      1     30 0.10470000   -5.204  2.39298  1.86878
    31      1     31 0.09610000   -4.345 -0.07469  0.68388
    32      1     32 0.09610000   -2.995 -1.04012  1.20160
    33      1     33 0.10210000   -3.158  0.68373 -1.31721
    34      1     34 0.10210000   -3.134 -1.06343 -1.20665
    35      1     35 0.13570000   -1.065 -2.33996 -1.08864
    36      1     36 0.13570000    0.529 -1.55343 -0.79486
    37      1     37 0.16590000   -1.540 -0.79260 -2.96508

Bonds 

     1      1      2      1
     2      2      3      2
     3      3      4      3
     4      4      5      3
     5      5      6      3
     6      6      7      6
     7      7      8      7
     8      8      9      8
     9      9     10      6
    10     10     11     10
    11     11     12      2
    12     12     13     12
    13     13     14     12
    14     14     15     14
    15     15     16     15
    16     16     17      1
    17     17     18      1
    18     18     19      1
    19     19     20      2
    20     20     21      4
    21     21     22      4
    22     22     23      4
    23     23     24      5
    24     24     25      5
    25     25     26      5
    26     26     27      6
    27     27     28      7
    28     28     29      7
    29     29     30      8
    30     30     31     10
    31     31     32     10
    32     32     33     11
    33     33     34     11
    34     34     35     13
    35     35     36     13
    36     36     37     14
    37     37     12     11
    38     38     14     13

Angles 

     1      1      1      2      3
     2      2      2      3      4
     3      3      2      3      5
     4      4      2      3      6
     5      5      3      6      7
     6      6      6      7      8
     7      7      7      8      9
     8      8      3      6     10
     9      9      6     10     11
    10     10      1      2     12
    11     11      2     12     13
    12     12      2     12     14
    13     13     12     14     15
    14     14     14     15     16
    15     15      2      1     17
    16     16      2      1     18
    17     17      2      1     19
    18     18      1      2     20
    19     19      3      4     21
    20     20      3      4     22
    21     21      3      4     23
    22     22      3      5     24
    23     23      3      5     25
    24     24      3      5     26
    25     25      3      6     27
    26     26      6      7     28
    27     27      6      7     29
    28     28      7      8     30
    29     29      6     10     31
    30     30      6     10     32
    31     31     10     11     33
    32     32     10     11     34
    33     33     12     13     35
    34     34     12     13     36
    35     35     12     14     37
    36     36      9      8     30
    37     37      3      2     20
    38     38     11     12     14
    39     39     33     11     34
    40     40     13     14     37
    41     41     24      5     26
    42     42     13     14     15
    43     43     12     11     34
    44     44     14     13     35
    45     45     22      4     23
    46     46     12     13     14
    47     47     11     10     32
    48     48     31     10     32
    49     49     21      4     22
    50     50      4      3      5
    51     51     15     14     37
    52     52      8      7     29
    53     53      8      7     28
    54     54     18      1     19
    55     55     17      1     19
    56     56      7      6     27
    57     57      2     12     11
    58     58     10     11     12
    59     59     25      5     26
    60     60     13     12     14
    61     61      3      2     12
    62     62     21      4     23
    63     63     11     10     31
    64     64     24      5     25
    65     65     17      1     18
    66     66     35     13     36
    67     67     14     13     36
    68     68     12      2     20
    69     69      4      3      6
    70     70      5      3      6
    71     71     11     12     13
    72     72     12     11     33
    73     73     28      7     29
    74     74      7      6     10
    75     75     12     14     13
    76     76     10      6     27

Dihedrals

     1      1      4      3      2      1 
     2      2      7      6      3      2 
     3      3      8      7      6      3 
     4      4      9      8      7      6 
     5      5     11     10      6      3 
     6      6     15     14     12     13 
     7      7     16     15     14     12 
     8      8     17      1      2      3 
     9      9     21      4      3      2 
    10     10     24      5      3      2 
    11     11     35     13     12     14 
    12     12     36     13     12     14 
    13     13     37     14     12     13 
    14     14     31     10      6      7 
    15     15     31     10     11     12 
    16     16     14     12     11     10 
    17     17      7      6      3      5 
    18     18     28      7      8      9 
    19     19     10      6      3      4 
    20     20     10      6      3      2 
    21     21     32     10      6      3 
    22     22     21      4      3      6 
    23     23     27      6      3      5 
    24     24     20      2      1     18 
    25     25     19      1      2      3 
    26     26     11     10      6      7 
    27     27     37     14     12     11 
    28     28     33     11     10      6 
    29     29     12      2      3      5 
    30     30     27      6     10     11 
    31     31     29      7      8      9 
    32     32     22      4      3      6 
    33     33     23      4      3      5 
    34     34     15     14     12      2 
    35     35     36     13     12     11 
    36     36     10      6      7      8 
    37     37     30      8      7     28 
    38     38     37     14     15     16 
    39     39     15     14     12     11 
    40     40     28      7      6     27 
    41     41     34     11     10     32 
    42     42     32     10     11     12 
    43     43     30      8      7      6 
    44     44     25      5      3      6 
    45     45     20      2     12     14 
    46     46      7      6      3      4 
    47     47     34     11     12     13 
    48     48     33     11     12     14 
    49     49     33     11     12      2 
    50     50     13     12      2      3 
    51     51     36     13     14     12 
    52     52     37     14     13     36 
    53     53     20      2      1     19 
    54     54     24      5      3      6 
    55     55     26      5      3      6 
    56     56     32     10      6     27 
    57     57     29      7      6      3 
    58     58     27      6      3      2 
    59     59     18      1      2     12 
    60     60     24      5      3      4 
    61     61     28      7      6     10 
    62     62     26      5      3      4 
    63     63     31     10      6      3 
    64     64     31     10      6     27 
    65     65     29      7      6     10 
    66     66     37     14     12      2 
    67     67     23      4      3      2 
    68     68     23      4      3      6 
    69     69     14     12      2      3 
    70     70     10     11     12      2 
    71     71     35     13     12      2 
    72     72     12      2      3      4 
    73     73     21      4      3      5 
    74     74     20      2     12     11 
    75     75     25      5      3      4 
    76     76     34     11     10      6 
    77     77     20      2      1     17 
    78     78     36     13     14     15 
    79     79     11     12      2      3 
    80     80     27      6      3      4 
    81     81      5      3      2      1 
    82     82     15     14     13     12 
    83     83     13     12     11     10 
    84     84     13     12      2      1 
    85     85     27      6      7      8 
    86     86     20      2      3      4 
    87     87     35     13     14     12 
    88     88     25      5      3      2 
    89     89     37     14     13     35 
    90     90     20      2      3      5 
    91     91     30      8      7     29 
    92     92     10      6      3      5 
    93     93     12     11     10      6 
    94     94     34     11     12      2 
    95     95     32     10      6      7 
    96     96     35     13     12     11 
    97     97     35     13     14     15 
    98     98     22      4      3      2 
    99     99     20      2     12     13 
   100    100     26      5      3      2 
   101    101     16     15     14     13 
   102    102     17      1      2     12 
   103    103     18      1      2      3 
   104    104     12      2      3      6 
   105    105     20      2      3      6 
   106    106     28      7      6      3 
   107    107     36     13     12      2 
   108    108     34     11     12     14 
   109    109     34     11     10     31 
   110    110     33     11     10     32 
   111    111      6      3      2      1 
   112    112     33     11     10     31 
   113    113     22      4      3      5 
   114    114     11     12      2      1 
   115    115     33     11     12     13 
   116    116     37     14     13     12 
   117    117     14     12      2      1 
   118    118     19      1      2     12 
   119    119     29      7      6     27 

Impropers

     1      1      3      2      4      5 
     2      2      3      2      4      6 
     3      3      6     10      3      7 
     4      4      2      1      3     12 
     5      5     12      2     11     13 
     6      6     12      2     11     14 
     7      7      1     18     17      2 
     8      8      1      2     19     17 
     9      9      2      1      3     20 
    10     10      4      3     21     22 
    11     11      4      3     21     23 
    12     12      5     25      3     24 
    13     13      5     26      3     24 
    14     14      6     27      3      7 
    15     15      7     28      6      8 
    16     16      7     29      6      8 
    17     17      8      9     30      7 
    18     18     10     11      6     31 
    19     19     10     11      6     32 
    20     20     11     33     10     12 
    21     21     11     34     12     10 
    22     22     12     13     14     11 
    23     23     12     13     14      2 
    24     24     12     13     14     11 
    25     25     12     13     14      2 

