LAMMPS data file Created by LigParGen - (Written by Leela S. Dodda)

      30 atoms
      29 bonds
      55 angles
      75 dihedrals
      18 impropers
 
      30 atom types
      29 bond types
      55 angle types
      75 dihedral types
      18 improper types
 
   -6.876940    43.123060 xlo xhi
   -2.296260    47.703740 ylo yhi
   -1.026360    48.973640 zlo zhi

Masses

       1     12.011  
       2     12.011  
       3     12.011  
       4     12.011  
       5     12.011  
       6     12.011  
       7     12.011  
       8     14.007  
       9     12.011  
      10     12.011  
      11     12.011  
      12     18.998  
      13      1.008  
      14      1.008  
      15      1.008  
      16      1.008  
      17      1.008  
      18      1.008  
      19      1.008  
      20      1.008  
      21      1.008  
      22      1.008  
      23      1.008  
      24      1.008  
      25      1.008  
      26      1.008  
      27      1.008  
      28      1.008  
      29      1.008  
      30      1.008  

Pair Coeffs 

       1      0.066  3.5000000 
       2      0.066  3.5000000 
       3      0.066  3.5000000 
       4      0.066  3.5000000 
       5      0.066  3.5000000 
       6      0.066  3.5000000 
       7      0.066  3.3000000 
       8      0.170  3.2000000 
       9      0.066  3.5000000 
      10      0.066  3.5000000 
      11      0.066  3.5000000 
      12      0.060  2.9000000 
      13      0.030  2.5000000 
      14      0.030  2.5000000 
      15      0.030  2.5000000 
      16      0.030  2.5000000 
      17      0.030  2.5000000 
      18      0.030  2.5000000 
      19      0.030  2.5000000 
      20      0.030  2.5000000 
      21      0.030  2.5000000 
      22      0.030  2.5000000 
      23      0.030  2.5000000 
      24      0.030  2.5000000 
      25      0.030  2.5000000 
      26      0.030  2.5000000 
      27      0.030  2.5000000 
      28      0.030  2.5000000 
      29      0.030  2.5000000 
      30      0.030  2.5000000 

Bond Coeffs 

       1   268.0000     1.5290 
       2   268.0000     1.5290 
       3   268.0000     1.5290 
       4   268.0000     1.5290 
       5   268.0000     1.5290 
       6   390.0000     1.4700 
       7   650.0000     1.1570 
       8   268.0000     1.5290 
       9   268.0000     1.5290 
      10   268.0000     1.5290 
      11   367.0000     1.3600 
      12   340.0000     1.0900 
      13   340.0000     1.0900 
      14   340.0000     1.0900 
      15   340.0000     1.0900 
      16   340.0000     1.0900 
      17   340.0000     1.0900 
      18   340.0000     1.0900 
      19   340.0000     1.0900 
      20   340.0000     1.0900 
      21   340.0000     1.0900 
      22   340.0000     1.0900 
      23   340.0000     1.0900 
      24   340.0000     1.0900 
      25   340.0000     1.0900 
      26   340.0000     1.0900 
      27   340.0000     1.0900 
      28   340.0000     1.0900 
      29   340.0000     1.0900 

Angle Coeffs 

       1     58.350    112.700
       2     58.350    112.700
       3     58.350    112.700
       4     58.350    112.700
       5     58.350    112.700
       6    150.000    180.000
       7     58.350    112.700
       8     58.350    112.700
       9     58.350    112.700
      10     50.000    109.500
      11     37.500    110.700
      12     37.500    110.700
      13     37.500    110.700
      14     37.500    110.700
      15     37.500    110.700
      16     37.500    110.700
      17     37.500    110.700
      18     37.500    110.700
      19     37.500    110.700
      20     37.500    110.700
      21     37.500    110.700
      22     37.500    110.700
      23     37.500    110.700
      24     37.500    110.700
      25     37.500    110.700
      26     37.500    110.700
      27     37.500    110.700
      28     37.500    110.700
      29     58.350    112.700
      30     35.000    108.500
      31     33.000    107.800
      32     37.500    110.700
      33     33.000    107.800
      34     37.500    110.700
      35     50.000    109.500
      36     37.500    110.700
      37     50.000    109.500
      38     33.000    107.800
      39     37.500    110.700
      40     35.000    108.500
      41     33.000    107.800
      42     37.500    110.700
      43     33.000    107.800
      44     37.500    110.700
      45     33.000    107.800
      46     33.000    107.800
      47     33.000    107.800
      48     33.000    107.800
      49     33.000    107.800
      50     37.500    110.700
      51     58.350    112.700
      52     37.500    110.700
      53     33.000    107.800
      54     33.000    107.800
      55     33.000    107.800

Dihedral Coeffs  

       1      1.300     -0.200      0.200      0.000 
       2      1.300     -0.200      0.200      0.000 
       3      1.300     -0.200      0.200      0.000 
       4      0.000     -0.650      0.000      0.000 
       5      0.000      0.000      0.000      0.000 
       6      1.300     -0.200      0.200      0.000 
       7      0.000      0.000      0.300      0.000 
       8      0.000      0.000      0.300      0.000 
       9      0.000      0.000      0.300      0.000 
      10      0.000      0.000      0.300      0.000 
      11      0.000      0.000      0.300      0.000 
      12      0.000      0.000      0.300      0.000 
      13      0.000      0.000      0.000      0.000 
      14      0.000      0.000      0.300      0.000 
      15      0.000      0.000      0.300      0.000 
      16      0.000      0.000      0.400      0.000 
      17      0.000      0.000      0.300      0.000 
      18      0.000      0.000      0.300      0.000 
      19      1.300     -0.200      0.200      0.000 
      20      0.000      0.000      0.300      0.000 
      21      0.300     -0.400      0.400      0.000 
      22      0.000      0.000      0.300      0.000 
      23      0.000      0.000      0.300      0.000 
      24      0.000      0.000      0.300      0.000 
      25      0.000      0.000      0.300      0.000 
      26      0.000      0.000      0.300      0.000 
      27      0.000      0.000      0.300      0.000 
      28      0.000      0.000      0.300      0.000 
      29      0.000      0.000      0.300      0.000 
      30      0.000      0.000      0.300      0.000 
      31      1.300     -0.200      0.200      0.000 
      32      0.000      0.000      0.300      0.000 
      33      0.000      0.000      0.300      0.000 
      34      0.000      0.000      0.300      0.000 
      35      0.000      0.000      0.300      0.000 
      36      1.300     -0.200      0.200      0.000 
      37      0.000      0.000      0.300      0.000 
      38      0.000     -0.650      0.000      0.000 
      39      0.000      0.000      0.300      0.000 
      40      0.000      0.000      0.400      0.000 
      41      0.000      0.000      0.300      0.000 
      42      0.000      0.000      0.366      0.000 
      43      0.000      0.000      0.300      0.000 
      44      0.000      0.000      0.400      0.000 
      45      0.000      0.000      0.300      0.000 
      46      0.000      0.000      0.300      0.000 
      47      0.000      0.000      0.300      0.000 
      48      1.300     -0.200      0.200      0.000 
      49      0.000      0.000      0.300      0.000 
      50      0.000      0.000      0.300      0.000 
      51      0.000      0.000      0.400      0.000 
      52      0.000      0.000      0.000      0.000 
      53      0.000      0.000      0.300      0.000 
      54      0.000      0.000      0.300      0.000 
      55      0.000      0.000      0.300      0.000 
      56      0.000      0.000      0.300      0.000 
      57      0.000      0.000      0.400      0.000 
      58      0.000      0.000      0.300      0.000 
      59      0.000      0.000      0.400      0.000 
      60      0.000      0.000      0.300      0.000 
      61      0.300     -0.400      0.400      0.000 
      62      0.000      0.000      0.300      0.000 
      63      0.000      0.000      0.300      0.000 
      64      0.000      0.000      0.300      0.000 
      65      0.000      0.000      0.300      0.000 
      66      0.000      0.000      0.300      0.000 
      67      0.000      0.000      0.300      0.000 
      68      0.000      0.000      0.300      0.000 
      69      0.000      0.000      0.300      0.000 
      70      0.000      0.000      0.400      0.000 
      71      0.000      0.000      0.300      0.000 
      72      0.000      0.000      0.300      0.000 
      73      0.000      0.000      0.300      0.000 
      74      0.000      0.000      0.300      0.000 
      75      0.000      0.000      0.300      0.000 

Improper Coeffs 

       1      0.000      -1       2 
       2      0.000      -1       2 
       3      0.000      -1       2 
       4      0.000      -1       2 
       5      0.000      -1       2 
       6      0.000      -1       2 
       7      0.000      -1       2 
       8      0.000      -1       2 
       9      0.000      -1       2 
      10      0.000      -1       2 
      11      0.000      -1       2 
      12      0.000      -1       2 
      13      0.000      -1       2 
      14      0.000      -1       2 
      15      0.000      -1       2 
      16      0.000      -1       2 
      17      0.000      -1       2 
      18      0.000      -1       2 

Atoms 

     1      1      1 -0.24040000    1.000  1.00000  0.00000
     2      1      2 -0.18030000   -0.522  1.00000  0.00000
     3      1      3 -0.17860000   -1.074  1.00000  1.42523
     4      1      4 -0.17970000   -2.605  1.09080  1.48431
     5      1      5 -0.12860000   -3.415 -0.10478  0.89641
     6      1      6 -0.03340000   -2.999 -1.46040  1.53040
     7      1      7 0.13340000   -3.276 -1.47389  3.02489
     8      1      8 -0.38710000   -3.506 -1.48348  4.26465
     9      1      9 0.12640000   -4.954  0.16510  1.01647
    10      1     10 -0.27410000   -5.399  1.42571  0.26969
    11      1     11 -0.27730000   -5.812 -1.01322  0.54726
    12      1     12 -0.16820000   -5.250  0.37065  2.33398
    13      1     13 0.08280000    1.380  1.00130 -1.02636
    14      1     14 0.08280000    1.390  0.11150  0.50640
    15      1     15 0.08280000    1.395  1.88690  0.50711
    16      1     16 0.08650000   -0.876  0.11997 -0.54610
    17      1     17 0.08650000   -0.879  1.88734 -0.53632
    18      1     18 0.09490000   -0.670  1.87466  1.95224
    19      1     19 0.09490000   -0.714  0.12360  1.97369
    20      1     20 0.10440000   -2.885  2.01287  0.96284
    21      1     21 0.10440000   -2.890  1.23912  2.53360
    22      1     22 0.11310000   -3.180 -0.17306 -0.17400
    23      1     23 0.12830000   -1.931 -1.64378  1.36977
    24      1     24 0.12830000   -3.520 -2.29626  1.05379
    25      1     25 0.09950000   -5.117  1.38814 -0.78686
    26      1     26 0.09950000   -4.980  2.32990  0.72125
    27      1     27 0.09950000   -6.486  1.54436  0.33424
    28      1     28 0.09990000   -5.596 -1.27930 -0.49332
    29      1     29 0.09990000   -6.877 -0.76776  0.63186
    30      1     30 0.09990000   -5.667 -1.89313  1.18042

Bonds 

     1      1      2      1
     2      2      3      2
     3      3      4      3
     4      4      5      4
     5      5      6      5
     6      6      7      6
     7      7      8      7
     8      8      9      5
     9      9     10      9
    10     10     11      9
    11     11     12      9
    12     12     13      1
    13     13     14      1
    14     14     15      1
    15     15     16      2
    16     16     17      2
    17     17     18      3
    18     18     19      3
    19     19     20      4
    20     20     21      4
    21     21     22      5
    22     22     23      6
    23     23     24      6
    24     24     25     10
    25     25     26     10
    26     26     27     10
    27     27     28     11
    28     28     29     11
    29     29     30     11

Angles 

     1      1      1      2      3
     2      2      2      3      4
     3      3      3      4      5
     4      4      4      5      6
     5      5      5      6      7
     6      6      6      7      8
     7      7      4      5      9
     8      8      5      9     10
     9      9      5      9     11
    10     10      5      9     12
    11     11      2      1     13
    12     12      2      1     14
    13     13      2      1     15
    14     14      1      2     16
    15     15      1      2     17
    16     16      2      3     18
    17     17      2      3     19
    18     18      3      4     20
    19     19      3      4     21
    20     20      4      5     22
    21     21      5      6     23
    22     22      5      6     24
    23     23      9     10     25
    24     24      9     10     26
    25     25      9     10     27
    26     26      9     11     28
    27     27      9     11     29
    28     28      9     11     30
    29     29      6      5      9
    30     30      7      6     24
    31     31     13      1     14
    32     32      9      5     22
    33     33     25     10     26
    34     34      6      5     22
    35     35     10      9     12
    36     36      3      2     17
    37     37     11      9     12
    38     38     28     11     29
    39     39      4      3     19
    40     40      7      6     23
    41     41     28     11     30
    42     42      3      2     16
    43     43     18      3     19
    44     44      4      3     18
    45     45     16      2     17
    46     46     26     10     27
    47     47     14      1     15
    48     48     29     11     30
    49     49     23      6     24
    50     50      5      4     20
    51     51     10      9     11
    52     52      5      4     21
    53     53     13      1     15
    54     54     25     10     27
    55     55     20      4     21

Dihedrals

     1      1      4      3      2      1 
     2      2      5      4      3      2 
     3      3      6      5      4      3 
     4      4      7      6      5      4 
     5      5      8      7      6      5 
     6      6     10      9      5      4 
     7      7     13      1      2      3 
     8      8     25     10      9      5 
     9      9     28     11      9      5 
    10     10     16      2      3      4 
    11     11     27     10      9     11 
    12     12     22      5      4      3 
    13     13     23      6      7      8 
    14     14     18      3      2      1 
    15     15     27     10      9      5 
    16     16     26     10      9     12 
    17     17     30     11      9      5 
    18     18     26     10      9     11 
    19     19     11      9      5      4 
    20     20     24      6      5     22 
    21     21     12      9      5      4 
    22     22     19      3      2     16 
    23     23     22      5      4     20 
    24     24     29     11      9      5 
    25     25     19      3      4      5 
    26     26     21      4      3      2 
    27     27     25     10      9     11 
    28     28     18      3      4      5 
    29     29     20      4      5      9 
    30     30     20      4      5      6 
    31     31     11      9      5      6 
    32     32     24      6      5      4 
    33     33     28     11      9     10 
    34     34     16      2      1     13 
    35     35     19      3      2     17 
    36     36      9      5      4      3 
    37     37     21      4      3     18 
    38     38      9      5      6      7 
    39     39     26     10      9      5 
    40     40     30     11      9     12 
    41     41     23      6      5      9 
    42     42     22      5      6      7 
    43     43     23      6      5      4 
    44     44     29     11      9     12 
    45     45     22      5      9     11 
    46     46     20      4      3      2 
    47     47     21      4      3     19 
    48     48     10      9      5      6 
    49     49     22      5      4     21 
    50     50     30     11      9     10 
    51     51     22      5      9     12 
    52     52     24      6      7      8 
    53     53     14      1      2      3 
    54     54     18      3      2     17 
    55     55     21      4      5      9 
    56     56     19      3      2      1 
    57     57     28     11      9     12 
    58     58     20      4      3     18 
    59     59     27     10      9     12 
    60     60     18      3      2     16 
    61     61     12      9      5      6 
    62     62     16      2      1     15 
    63     63     17      2      1     14 
    64     64     17      2      1     13 
    65     65     17      2      1     15 
    66     66     24      6      5      9 
    67     67     16      2      1     14 
    68     68     29     11      9     10 
    69     69     15      1      2      3 
    70     70     25     10      9     12 
    71     71     22      5      9     10 
    72     72     23      6      5     22 
    73     73     21      4      5      6 
    74     74     17      2      3      4 
    75     75     20      4      3     19 

Impropers

     1      1      5      9      4      6 
     2      2      9     10     11      5 
     3      3      9     10     12      5 
     4      4      1      2     13     14 
     5      5      1      2     13     15 
     6      6      2      1      3     16 
     7      7      2     17      3      1 
     8      8      3     18      4      2 
     9      9      3      2     19      4 
    10     10      4      3     20      5 
    11     11      4      5      3     21 
    12     12      5      4     22      6 
    13     13      6      7      5     23 
    14     14      6      5      7     24 
    15     15     10      9     26     25 
    16     16     10      9     27     25 
    17     17     11      9     28     29 
    18     18     11      9     28     30 

