LAMMPS data file Created by LigParGen - (Written by Leela S. Dodda)

      46 atoms
      45 bonds
      87 angles
     120 dihedrals
      29 impropers
 
      46 atom types
      45 bond types
      87 angle types
     120 dihedral types
      29 improper types
 
   -9.832910    40.167090 xlo xhi
   -2.070670    47.929330 ylo yhi
   -3.503690    46.496310 zlo zhi

Masses

       1     12.011  
       2     12.011  
       3     12.011  
       4     12.011  
       5     12.011  
       6     12.011  
       7     12.011  
       8     12.011  
       9     12.011  
      10     12.011  
      11     12.011  
      12     12.011  
      13     12.011  
      14     12.011  
      15     12.011  
      16     15.999  
      17      1.008  
      18      1.008  
      19      1.008  
      20      1.008  
      21      1.008  
      22      1.008  
      23      1.008  
      24      1.008  
      25      1.008  
      26      1.008  
      27      1.008  
      28      1.008  
      29      1.008  
      30      1.008  
      31      1.008  
      32      1.008  
      33      1.008  
      34      1.008  
      35      1.008  
      36      1.008  
      37      1.008  
      38      1.008  
      39      1.008  
      40      1.008  
      41      1.008  
      42      1.008  
      43      1.008  
      44      1.008  
      45      1.008  
      46      1.008  

Pair Coeffs 

       1      0.066  3.5000000 
       2      0.066  3.5000000 
       3      0.066  3.5000000 
       4      0.066  3.5000000 
       5      0.066  3.5000000 
       6      0.066  3.5000000 
       7      0.066  3.5000000 
       8      0.066  3.5000000 
       9      0.066  3.5000000 
      10      0.066  3.5000000 
      11      0.066  3.5000000 
      12      0.066  3.5000000 
      13      0.066  3.5000000 
      14      0.070  3.5500000 
      15      0.066  3.5000000 
      16      0.210  2.9600000 
      17      0.030  2.5000000 
      18      0.030  2.5000000 
      19      0.030  2.5000000 
      20      0.030  2.5000000 
      21      0.030  2.5000000 
      22      0.030  2.5000000 
      23      0.030  2.5000000 
      24      0.030  2.5000000 
      25      0.030  2.5000000 
      26      0.030  2.5000000 
      27      0.030  2.5000000 
      28      0.030  2.5000000 
      29      0.030  2.5000000 
      30      0.030  2.5000000 
      31      0.030  2.5000000 
      32      0.030  2.5000000 
      33      0.030  2.5000000 
      34      0.030  2.5000000 
      35      0.030  2.5000000 
      36      0.030  2.5000000 
      37      0.030  2.5000000 
      38      0.030  2.5000000 
      39      0.030  2.5000000 
      40      0.030  2.5000000 
      41      0.030  2.5000000 
      42      0.030  2.5000000 
      43      0.030  2.5000000 
      44      0.030  2.5000000 
      45      0.030  2.5000000 
      46      0.030  2.5000000 

Bond Coeffs 

       1   268.0000     1.5290 
       2   268.0000     1.5290 
       3   268.0000     1.5290 
       4   268.0000     1.5290 
       5   268.0000     1.5290 
       6   268.0000     1.5290 
       7   268.0000     1.5290 
       8   268.0000     1.5290 
       9   268.0000     1.5290 
      10   268.0000     1.5290 
      11   268.0000     1.5290 
      12   268.0000     1.5290 
      13   317.0000     1.5220 
      14   317.0000     1.5220 
      15   570.0000     1.2290 
      16   340.0000     1.0900 
      17   340.0000     1.0900 
      18   340.0000     1.0900 
      19   340.0000     1.0900 
      20   340.0000     1.0900 
      21   340.0000     1.0900 
      22   340.0000     1.0900 
      23   340.0000     1.0900 
      24   340.0000     1.0900 
      25   340.0000     1.0900 
      26   340.0000     1.0900 
      27   340.0000     1.0900 
      28   340.0000     1.0900 
      29   340.0000     1.0900 
      30   340.0000     1.0900 
      31   340.0000     1.0900 
      32   340.0000     1.0900 
      33   340.0000     1.0900 
      34   340.0000     1.0900 
      35   340.0000     1.0900 
      36   340.0000     1.0900 
      37   340.0000     1.0900 
      38   340.0000     1.0900 
      39   340.0000     1.0900 
      40   340.0000     1.0900 
      41   340.0000     1.0900 
      42   340.0000     1.0900 
      43   340.0000     1.0900 
      44   340.0000     1.0900 
      45   340.0000     1.0900 

Angle Coeffs 

       1     58.350    112.700
       2     58.350    112.700
       3     58.350    112.700
       4     58.350    112.700
       5     58.350    112.700
       6     58.350    112.700
       7     58.350    112.700
       8     58.350    112.700
       9     58.350    112.700
      10     58.350    112.700
      11     58.350    112.700
      12     63.000    111.100
      13     70.000    116.000
      14     80.000    120.400
      15     37.500    110.700
      16     37.500    110.700
      17     37.500    110.700
      18     37.500    110.700
      19     37.500    110.700
      20     37.500    110.700
      21     37.500    110.700
      22     37.500    110.700
      23     37.500    110.700
      24     37.500    110.700
      25     37.500    110.700
      26     37.500    110.700
      27     37.500    110.700
      28     37.500    110.700
      29     37.500    110.700
      30     37.500    110.700
      31     37.500    110.700
      32     37.500    110.700
      33     37.500    110.700
      34     37.500    110.700
      35     37.500    110.700
      36     37.500    110.700
      37     37.500    110.700
      38     37.500    110.700
      39     37.500    110.700
      40     37.500    110.700
      41     37.500    110.700
      42     35.000    109.500
      43     35.000    109.500
      44     35.000    109.500
      45     33.000    107.800
      46     33.000    107.800
      47     33.000    107.800
      48     33.000    107.800
      49     37.500    110.700
      50     33.000    107.800
      51     33.000    107.800
      52     35.000    109.500
      53     37.500    110.700
      54     37.500    110.700
      55     33.000    107.800
      56     80.000    120.400
      57     33.000    107.800
      58     37.500    110.700
      59     33.000    107.800
      60     58.350    112.700
      61     33.000    107.800
      62     33.000    107.800
      63     37.500    110.700
      64     37.500    110.700
      65     33.000    107.800
      66     35.000    109.500
      67     37.500    110.700
      68     33.000    107.800
      69     33.000    107.800
      70     33.000    107.800
      71     58.350    112.700
      72     58.350    112.700
      73     33.000    107.800
      74     33.000    107.800
      75     33.000    107.800
      76     37.500    110.700
      77     37.500    110.700
      78     37.500    110.700
      79     33.000    107.800
      80     58.350    112.700
      81     37.500    110.700
      82     33.000    107.800
      83     33.000    107.800
      84     37.500    110.700
      85     37.500    110.700
      86     33.000    107.800
      87     37.500    110.700

Dihedral Coeffs  

       1      1.300     -0.200      0.200      0.000 
       2      1.300     -0.200      0.200      0.000 
       3      1.300     -0.200      0.200      0.000 
       4      1.300     -0.200      0.200      0.000 
       5      1.300     -0.200      0.200      0.000 
       6      1.300     -0.200      0.200      0.000 
       7      1.300     -0.200      0.200      0.000 
       8     -2.060     -0.313      0.315      0.000 
       9      1.454     -0.144     -0.775      0.000 
      10      0.000      0.000      0.300      0.000 
      11      0.000      0.000      0.300      0.000 
      12      0.000      0.000      0.300      0.000 
      13      0.000      0.000      0.300      0.000 
      14      0.000      0.000      0.275      0.000 
      15      0.000      0.000      0.300      0.000 
      16      0.000      0.000      0.300      0.000 
      17      0.000      0.000      0.300      0.000 
      18      0.000      0.000      0.300      0.000 
      19      0.000      0.000      0.000      0.000 
      20      1.300     -0.200      0.200      0.000 
      21      0.000      0.000      0.300      0.000 
      22      0.000      0.000      0.300      0.000 
      23      0.000      0.000      0.300      0.000 
      24      0.000      0.000      0.300      0.000 
      25      0.000      0.000      0.300      0.000 
      26      0.000      0.000      0.300      0.000 
      27      0.000      0.000      0.300      0.000 
      28      0.000      0.000      0.300      0.000 
      29      0.000      0.000      0.300      0.000 
      30      0.000      0.000      0.300      0.000 
      31      0.000      0.000      0.300      0.000 
      32      0.000      0.000      0.300      0.000 
      33      0.000      0.000      0.300      0.000 
      34      0.000      0.000      0.300      0.000 
      35      0.000      0.000      0.300      0.000 
      36      1.300     -0.200      0.200      0.000 
      37      0.000      0.000      0.300      0.000 
      38      0.000      0.000      0.300      0.000 
      39      0.000      0.000      0.300      0.000 
      40      0.000      0.000      0.300      0.000 
      41      0.000      0.000      0.300      0.000 
      42      0.000      0.000      0.275      0.000 
      43      0.000      0.000      0.300      0.000 
      44      0.000      0.000      0.300      0.000 
      45      1.300     -0.200      0.200      0.000 
      46      0.000      0.000      0.300      0.000 
      47      0.000      0.000      0.300      0.000 
      48      0.000      0.000      0.300      0.000 
      49      0.000      0.000      0.300      0.000 
      50      0.000      0.000      0.300      0.000 
      51      0.000      0.000      0.300      0.000 
      52      0.000      0.000      0.300      0.000 
      53      1.300     -0.200      0.200      0.000 
      54      0.000      0.000      0.000      0.000 
      55      0.000      0.000      0.300      0.000 
      56      0.000      0.000      0.300      0.000 
      57      0.000      0.000      0.300      0.000 
      58      0.000      0.000      0.300      0.000 
      59      0.000      0.000      0.300      0.000 
      60      0.000      0.000      0.300      0.000 
      61      0.000      0.000      0.300      0.000 
      62      0.000      0.000      0.300      0.000 
      63      0.000      0.000      0.300      0.000 
      64      0.000      0.000      0.300      0.000 
      65      0.000      0.000      0.300      0.000 
      66      0.000      0.000      0.300      0.000 
      67      0.000      0.000      0.300      0.000 
      68      0.000      0.000      0.300      0.000 
      69      0.000      0.000      0.300      0.000 
      70      0.000      0.000      0.300      0.000 
      71      0.000      0.000      0.300      0.000 
      72      0.000      0.000      0.300      0.000 
      73      0.000      0.000      0.000      0.000 
      74      0.000      0.000      0.300      0.000 
      75      0.000      0.000      0.000      0.000 
      76      0.000      0.000      0.300      0.000 
      77      0.000      0.000      0.300      0.000 
      78      0.000      0.000      0.300      0.000 
      79      0.000      0.000      0.300      0.000 
      80      0.000      0.000      0.300      0.000 
      81      0.000      0.000      0.300      0.000 
      82      0.000      0.000      0.300      0.000 
      83      0.000      0.000      0.300      0.000 
      84      0.000      0.000      0.300      0.000 
      85      0.000      0.000      0.300      0.000 
      86      0.000      0.000      0.300      0.000 
      87      0.000      0.000      0.300      0.000 
      88      0.000      0.000      0.300      0.000 
      89      0.000      0.000      0.300      0.000 
      90      0.000      0.000      0.300      0.000 
      91      0.000      0.000     -0.100      0.000 
      92      0.000      0.000      0.300      0.000 
      93      0.000      0.000      0.300      0.000 
      94      0.000      0.000      0.300      0.000 
      95      0.000      0.000      0.300      0.000 
      96      0.000      0.000      0.300      0.000 
      97      1.300     -0.200      0.200      0.000 
      98      0.000      0.000      0.300      0.000 
      99      0.000      0.000      0.300      0.000 
     100      0.000      0.000      0.300      0.000 
     101      0.000      0.000      0.300      0.000 
     102      0.000      0.000      0.300      0.000 
     103      1.300     -0.200      0.200      0.000 
     104      0.000      0.000      0.300      0.000 
     105      0.000      0.000      0.300      0.000 
     106      1.300     -0.200      0.200      0.000 
     107      0.000      0.000      0.300      0.000 
     108      0.000      0.000      0.300      0.000 
     109      0.000      0.000      0.300      0.000 
     110      0.000      0.000      0.300      0.000 
     111      0.000      0.000      0.300      0.000 
     112      0.000      0.000      0.275      0.000 
     113      0.000      0.000      0.300      0.000 
     114      0.000      0.000     -0.100      0.000 
     115      0.000      0.000      0.300      0.000 
     116      0.000      0.000      0.000      0.000 
     117      0.000      0.000      0.275      0.000 
     118      0.000      0.000      0.000      0.000 
     119      0.000      0.000      0.275      0.000 
     120      1.300     -0.200      0.200      0.000 

Improper Coeffs 

       1      0.000      -1       2 
       2      0.000      -1       2 
       3      0.000      -1       2 
       4     10.500      -1       2 
       5      0.000      -1       2 
       6      0.000      -1       2 
       7      0.000      -1       2 
       8      0.000      -1       2 
       9      0.000      -1       2 
      10      0.000      -1       2 
      11      0.000      -1       2 
      12      0.000      -1       2 
      13      0.000      -1       2 
      14      0.000      -1       2 
      15      0.000      -1       2 
      16      0.000      -1       2 
      17      0.000      -1       2 
      18      0.000      -1       2 
      19      0.000      -1       2 
      20      0.000      -1       2 
      21      0.000      -1       2 
      22      0.000      -1       2 
      23      0.000      -1       2 
      24      0.000      -1       2 
      25      0.000      -1       2 
      26      0.000      -1       2 
      27      0.000      -1       2 
      28      0.000      -1       2 
      29      0.000      -1       2 

Atoms 

     1      1      1 -0.23420000    1.000  1.00000  0.00000
     2      1      2 -0.16700000   -0.524  1.00000  0.00000
     3      1      3 -0.03130000   -1.280  1.00000  1.37367
     4      1      4 -0.22890000   -0.859 -0.23061  2.20072
     5      1      5 -0.16760000   -1.057  2.30724  2.17669
     6      1      6 -0.23430000    0.354  2.72858  2.55141
     7      1      7 -0.16750000   -2.810  0.85322  1.00308
     8      1      8 -0.10620000   -3.895  0.69157  2.10897
     9      1      9 -0.23690000   -4.058  1.92872  3.00489
    10      1     10 -0.18060000   -5.282  0.42406  1.47297
    11      1     11 -0.18010000   -5.404 -0.89279  0.70066
    12      1     12 -0.17100000   -6.801 -1.09100  0.10169
    13      1     13 -0.23300000   -7.160  0.00054 -0.90508
    14      1     14 0.35850000   -8.501 -0.22326 -1.57676
    15      1     15 -0.30300000   -8.953  0.84497 -2.53875
    16      1     16 -0.45140000   -9.198 -1.21575 -1.36027
    17      1     17 0.08060000    1.366  0.73573 -0.99833
    18      1     18 0.08060000    1.422  0.27853  0.70285
    19      1     19 0.08060000    1.407  1.98847  0.21355
    20      1     20 0.08250000   -0.828  0.10229 -0.55707
    21      1     21 0.08250000   -0.864  1.85410 -0.60070
    22      1     22 0.08150000    0.201 -0.21035  2.46557
    23      1     23 0.08150000   -1.040 -1.15634  1.64140
    24      1     24 0.08150000   -1.418 -0.29306  3.13955
    25      1     25 0.08670000   -1.562  2.20351  3.13627
    26      1     26 0.08670000   -1.535  3.14433  1.65120
    27      1     27 0.07970000    0.970  1.88729  2.87590
    28      1     28 0.07970000    0.306  3.44060  3.38406
    29      1     29 0.07970000    0.845  3.25349  1.73021
    30      1     30 0.08480000   -2.874 -0.03097  0.35905
    31      1     31 0.08480000   -3.094  1.70313  0.36615
    32      1     32 0.10040000   -3.649 -0.16737  2.74342
    33      1     33 0.08160000   -3.892  2.85504  2.44527
    34      1     34 0.08160000   -3.374  1.88984  3.85564
    35      1     35 0.08160000   -5.060  1.98962  3.44381
    36      1     36 0.08790000   -5.522  1.27147  0.82085
    37      1     37 0.08790000   -6.043  0.40904  2.26507
    38      1     38 0.09190000   -5.186 -1.72809  1.37691
    39      1     39 0.09190000   -4.675 -0.93648 -0.11365
    40      1     40 0.10470000   -7.547 -1.12014  0.90520
    41      1     41 0.10470000   -6.829 -2.07067 -0.39105
    42      1     42 0.11980000   -6.398  0.05098 -1.68892
    43      1     43 0.11980000   -7.224  0.97171 -0.40570
    44      1     44 0.11580000   -8.160  1.58504 -2.68260
    45      1     45 0.11580000   -9.833  1.34686 -2.13135
    46      1     46 0.11580000   -9.179  0.38733 -3.50369

Bonds 

     1      1      2      1
     2      2      3      2
     3      3      4      3
     4      4      5      3
     5      5      6      5
     6      6      7      3
     7      7      8      7
     8      8      9      8
     9      9     10      8
    10     10     11     10
    11     11     12     11
    12     12     13     12
    13     13     14     13
    14     14     15     14
    15     15     16     14
    16     16     17      1
    17     17     18      1
    18     18     19      1
    19     19     20      2
    20     20     21      2
    21     21     22      4
    22     22     23      4
    23     23     24      4
    24     24     25      5
    25     25     26      5
    26     26     27      6
    27     27     28      6
    28     28     29      6
    29     29     30      7
    30     30     31      7
    31     31     32      8
    32     32     33      9
    33     33     34      9
    34     34     35      9
    35     35     36     10
    36     36     37     10
    37     37     38     11
    38     38     39     11
    39     39     40     12
    40     40     41     12
    41     41     42     13
    42     42     43     13
    43     43     44     15
    44     44     45     15
    45     45     46     15

Angles 

     1      1      1      2      3
     2      2      2      3      4
     3      3      2      3      5
     4      4      3      5      6
     5      5      2      3      7
     6      6      3      7      8
     7      7      7      8      9
     8      8      7      8     10
     9      9      8     10     11
    10     10     10     11     12
    11     11     11     12     13
    12     12     12     13     14
    13     13     13     14     15
    14     14     13     14     16
    15     15      2      1     17
    16     16      2      1     18
    17     17      2      1     19
    18     18      1      2     20
    19     19      1      2     21
    20     20      3      4     22
    21     21      3      4     23
    22     22      3      4     24
    23     23      3      5     25
    24     24      3      5     26
    25     25      5      6     27
    26     26      5      6     28
    27     27      5      6     29
    28     28      3      7     30
    29     29      3      7     31
    30     30      7      8     32
    31     31      8      9     33
    32     32      8      9     34
    33     33      8      9     35
    34     34      8     10     36
    35     35      8     10     37
    36     36     10     11     38
    37     37     10     11     39
    38     38     11     12     40
    39     39     11     12     41
    40     40     12     13     42
    41     41     12     13     43
    42     42     14     15     44
    43     43     14     15     45
    44     44     14     15     46
    45     45     23      4     24
    46     46     44     15     45
    47     47     40     12     41
    48     48     27      6     29
    49     49     11     10     36
    50     50     25      5     26
    51     51     42     13     43
    52     52     14     13     42
    53     53     12     11     38
    54     54     10      8     32
    55     55     45     15     46
    56     56     15     14     16
    57     57     33      9     35
    58     58      8      7     30
    59     59     22      4     24
    60     60      4      3      5
    61     61     38     11     39
    62     62     18      1     19
    63     63     12     11     39
    64     64      8      7     31
    65     65     20      2     21
    66     66     14     13     43
    67     67      3      2     20
    68     68     28      6     29
    69     69     27      6     28
    70     70     22      4     23
    71     71      9      8     10
    72     72      5      3      7
    73     73     34      9     35
    74     74     17      1     19
    75     75     44     15     46
    76     76     13     12     40
    77     77      9      8     32
    78     78      3      2     21
    79     79     33      9     34
    80     80      4      3      7
    81     81     11     10     37
    82     82     30      7     31
    83     83     17      1     18
    84     84      6      5     25
    85     85     13     12     41
    86     86     36     10     37
    87     87      6      5     26

Dihedrals

     1      1      4      3      2      1 
     2      2      6      5      3      2 
     3      3      8      7      3      2 
     4      4      9      8      7      3 
     5      5     11     10      8      7 
     6      6     12     11     10      8 
     7      7     13     12     11     10 
     8      8     14     13     12     11 
     9      9     15     14     13     12 
    10     10     17      1      2      3 
    11     11     22      4      3      2 
    12     12     27      6      5      3 
    13     13     33      9      8      7 
    14     14     44     15     14     13 
    15     15     30      7      8     10 
    16     16     31      7      8      9 
    17     17     39     11     10      8 
    18     18     43     13     12     41 
    19     19     44     15     14     16 
    20     20      7      3      2      1 
    21     21     35      9      8     10 
    22     22     21      2      1     17 
    23     23     42     13     12     11 
    24     24     19      1      2      3 
    25     25     38     11     10     36 
    26     26     40     12     11     38 
    27     27     30      7      3      4 
    28     28     29      6      5      3 
    29     29     38     11     10      8 
    30     30     28      6      5      3 
    31     31     23      4      3      5 
    32     32     32      8     10     11 
    33     33     39     11     10     36 
    34     34     38     11     10     37 
    35     35     34      9      8     32 
    36     36      7      3      5      6 
    37     37     32      8      7     30 
    38     38     33      9      8     32 
    39     39     26      5      3      7 
    40     40     41     12     11     39 
    41     41     32      8      7     31 
    42     42     46     15     14     13 
    43     43     27      6      5     25 
    44     44     20      2      3      7 
    45     45      6      5      3      4 
    46     46     43     13     12     11 
    47     47     35      9      8     32 
    48     48     20      2      1     19 
    49     49     21      2      1     18 
    50     50     40     12     11     10 
    51     51     25      5      3      7 
    52     52     36     10      8      9 
    53     53     10      8      7      3 
    54     54     43     13     14     16 
    55     55     24      4      3      7 
    56     56     21      2      3      7 
    57     57     35      9      8      7 
    58     58     32      8      7      3 
    59     59     31      7      3      2 
    60     60     41     12     11     38 
    61     61     38     11     12     13 
    62     62     41     12     11     10 
    63     63     26      5      3      2 
    64     64     37     10      8     32 
    65     65     36     10     11     12 
    66     66     31      7      3      5 
    67     67     26      5      3      4 
    68     68     30      7      8      9 
    69     69     23      4      3      2 
    70     70     24      4      3      5 
    71     71     37     10      8      7 
    72     72     20      2      1     18 
    73     73     45     15     14     16 
    74     74     22      4      3      7 
    75     75     16     14     13     12 
    76     76     39     11     12     13 
    77     77     43     13     12     40 
    78     78     42     13     12     41 
    79     79     25      5      3      2 
    80     80     36     10      8      7 
    81     81     24      4      3      2 
    82     82     31      7      3      4 
    83     83     30      7      3      5 
    84     84     42     13     12     40 
    85     85     25      5      3      4 
    86     86     20      2      1     17 
    87     87     31      7      8     10 
    88     88     34      9      8     10 
    89     89     20      2      3      4 
    90     90     40     12     11     39 
    91     91     40     12     13     14 
    92     92     20      2      3      5 
    93     93     29      6      5     25 
    94     94     21      2      3      4 
    95     95     28      6      5     26 
    96     96     30      7      3      2 
    97     97      5      3      2      1 
    98     98     34      9      8      7 
    99     99     28      6      5     25 
   100    100     27      6      5     26 
   101    101     36     10      8     32 
   102    102     39     11     10     37 
   103    103      8      7      3      5 
   104    104     37     10      8      9 
   105    105     18      1      2      3 
   106    106     11     10      8      9 
   107    107     21      2      3      5 
   108    108     37     10     11     12 
   109    109     23      4      3      7 
   110    110     21      2      1     19 
   111    111     29      6      5     26 
   112    112     42     13     14     15 
   113    113     22      4      3      5 
   114    114     41     12     13     14 
   115    115     33      9      8     10 
   116    116     42     13     14     16 
   117    117     43     13     14     15 
   118    118     46     15     14     16 
   119    119     45     15     14     13 
   120    120      8      7      3      4 

Impropers

     1      1      3      2      4      5 
     2      2      3      2      4      7 
     3      3      8      9     10      7 
     4      4     14     13     15     16 
     5      5      1     18     17      2 
     6      6      1      2     19     17 
     7      7      2      1      3     20 
     8      8      2      1      3     21 
     9      9      4      3     22     23 
    10     10      4      3     22     24 
    11     11      5     25      3      6 
    12     12      5     26      3      6 
    13     13      6     27     28      5 
    14     14      6      5     27     29 
    15     15      7      3     30      8 
    16     16      7      3     31      8 
    17     17      8      9      7     32 
    18     18      9     34     33      8 
    19     19      9     33     35      8 
    20     20     10     11     36      8 
    21     21     10     11     37      8 
    22     22     11     10     12     38 
    23     23     11     10     12     39 
    24     24     12     11     13     40 
    25     25     12     41     11     13 
    26     26     13     42     12     14 
    27     27     13     43     12     14 
    28     28     15     44     45     14 
    29     29     15     44     46     14 

