LAMMPS data file Created by LigParGen - (Written by Leela S. Dodda)

      31 atoms
      32 bonds
      66 angles
     100 dihedrals
      23 impropers
 
      31 atom types
      32 bond types
      66 angle types
     100 dihedral types
      23 improper types
 
   -4.730380    45.269620 xlo xhi
   -3.756360    46.243640 ylo yhi
   -1.018640    48.981360 zlo zhi

Masses

       1     12.011  
       2     12.011  
       3     12.011  
       4     12.011  
       5     12.011  
       6     12.011  
       7     12.011  
       8     12.011  
       9     12.011  
      10     12.011  
      11     12.011  
      12      1.008  
      13      1.008  
      14      1.008  
      15      1.008  
      16      1.008  
      17      1.008  
      18      1.008  
      19      1.008  
      20      1.008  
      21      1.008  
      22      1.008  
      23      1.008  
      24      1.008  
      25      1.008  
      26      1.008  
      27      1.008  
      28      1.008  
      29      1.008  
      30      1.008  
      31      1.008  

Pair Coeffs 

       1      0.066  3.5000000 
       2      0.066  3.5000000 
       3      0.083  3.4500000 
       4      0.066  3.5000000 
       5      0.083  3.4500000 
       6      0.066  3.5000000 
       7      0.066  3.5000000 
       8      0.066  3.5000000 
       9      0.066  3.5000000 
      10      0.066  3.5000000 
      11      0.083  3.4500000 
      12      0.030  2.5000000 
      13      0.030  2.5000000 
      14      0.030  2.5000000 
      15      0.030  2.5000000 
      16      0.030  2.5000000 
      17      0.030  2.5000000 
      18      0.030  2.5000000 
      19      0.030  2.5000000 
      20      0.030  2.5000000 
      21      0.030  2.5000000 
      22      0.030  2.5000000 
      23      0.030  2.5000000 
      24      0.030  2.5000000 
      25      0.030  2.5000000 
      26      0.030  2.5000000 
      27      0.030  2.5000000 
      28      0.030  2.5000000 
      29      0.030  2.5000000 
      30      0.030  2.5000000 
      31      0.030  2.5000000 

Bond Coeffs 

       1   268.0000     1.5290 
       2   280.0000     1.5100 
       3   280.0000     1.5100 
       4   260.0000     1.5200 
       5   280.0000     1.5100 
       6   268.0000     1.5290 
       7   268.0000     1.5290 
       8   268.0000     1.5290 
       9   268.0000     1.5290 
      10   260.0000     1.5200 
      11   340.0000     1.0900 
      12   340.0000     1.0900 
      13   340.0000     1.0900 
      14   340.0000     1.0900 
      15   340.0000     1.0900 
      16   340.0000     1.0900 
      17   340.0000     1.0900 
      18   340.0000     1.0900 
      19   340.0000     1.0880 
      20   340.0000     1.0900 
      21   340.0000     1.0900 
      22   340.0000     1.0900 
      23   340.0000     1.0900 
      24   340.0000     1.0900 
      25   340.0000     1.0900 
      26   340.0000     1.0900 
      27   340.0000     1.0900 
      28   340.0000     1.0900 
      29   340.0000     1.0900 
      30   340.0000     1.0880 
      31   260.0000     1.5200 
      32   280.0000     1.5100 

Angle Coeffs 

       1     58.350    112.700
       2     35.000    114.300
       3     37.500    117.200
       4     37.500    117.200
       5     58.350    112.700
       6     58.350    112.700
       7     58.350    112.700
       8     58.350    112.700
       9     37.500    117.200
      10     37.500    110.700
      11     37.500    110.700
      12     37.500    110.700
      13     37.500    110.700
      14     37.500    110.700
      15     37.500    110.700
      16     37.500    110.700
      17     37.500    110.700
      18     37.500    117.200
      19     37.500    110.700
      20     37.500    110.700
      21     37.500    110.700
      22     37.500    110.700
      23     37.500    110.700
      24     37.500    110.700
      25     37.500    110.700
      26     37.500    110.700
      27     37.500    110.700
      28     37.500    110.700
      29     37.500    117.200
      30     37.500    117.200
      31     33.000    107.800
      32     37.500    117.200
      33     33.000    107.800
      34     33.000    107.800
      35     33.000    107.800
      36     37.500    117.200
      37     33.000    107.800
      38     37.500    110.700
      39     30.000     83.000
      40     37.500    110.700
      41     58.350    112.700
      42     58.350    112.700
      43     33.000    107.800
      44     37.500    117.200
      45     37.500    117.200
      46     37.500    110.700
      47     33.000    107.800
      48     37.500    110.700
      49     37.500    110.700
      50     37.500    117.200
      51     33.000    107.800
      52     35.000    114.300
      53     37.500    110.700
      54     33.000    107.800
      55     33.000    107.800
      56     37.500    117.200
      57     58.350    112.700
      58     37.500    110.700
      59     30.000     83.000
      60     35.000    114.300
      61     33.000    107.800
      62     33.000    107.800
      63     33.000    107.800
      64     30.000     83.000
      65     33.000    107.800
      66     37.500    110.700

Dihedral Coeffs  

       1      1.300     -0.200      0.200      0.000 
       2      0.000      0.000      0.000      0.000 
       3      0.000      0.000      0.000      0.000 
       4      1.300     -0.200      0.200      0.000 
       5      1.300     -0.200      0.200      0.000 
       6      0.000      0.000      0.300      0.000 
       7      0.000      0.000      0.300      0.000 
       8      0.000      0.000      0.300      0.000 
       9      0.000      0.000      0.300      0.000 
      10      0.000      0.000      0.000      0.000 
      11      0.000      0.000      0.300      0.000 
      12      0.000      0.000      0.300      0.000 
      13      0.000      0.000      0.300      0.000 
      14      0.000      0.000      0.300      0.000 
      15      1.300     -0.200      0.200      0.000 
      16      0.000      0.000      0.000      0.000 
      17      0.000      0.000      0.300      0.000 
      18      0.000      0.000      0.000      0.000 
      19      0.000      0.000      0.000      0.000 
      20      0.000      0.000      0.300      0.000 
      21      0.000      0.000      0.000      0.000 
      22      0.000      0.000      0.300      0.000 
      23      0.000      0.000      0.300      0.000 
      24      0.000      0.000      0.000      0.000 
      25      0.000      0.000      0.000      0.000 
      26      0.000      0.000      0.300      0.000 
      27      0.000      0.000      0.300      0.000 
      28      0.000      0.000      0.300      0.000 
      29      1.300     -0.200      0.200      0.000 
      30      0.000      0.000      0.300      0.000 
      31      0.000      0.000      0.300      0.000 
      32      0.000      0.000      0.300      0.000 
      33      0.000      0.000      0.300      0.000 
      34      0.000      0.000      0.000      0.000 
      35      0.000      0.000      0.000      0.000 
      36      1.300     -0.200      0.200      0.000 
      37      0.000      0.000      0.000      0.000 
      38      0.000      0.000      0.300      0.000 
      39      0.000      0.000      0.300      0.000 
      40      0.000      0.000      0.300      0.000 
      41      0.000      0.000      0.000      0.000 
      42      0.000      0.000      0.000      0.000 
      43      0.000      0.000      0.300      0.000 
      44      0.000      0.000      0.300      0.000 
      45      0.000      0.000      0.300      0.000 
      46      0.000      0.000      0.000      0.000 
      47      0.000      0.000      0.000      0.000 
      48      0.000      0.000      0.300      0.000 
      49      0.000      0.000      0.300      0.000 
      50      0.000      0.000      0.000      0.000 
      51      0.000      0.000      0.300      0.000 
      52      0.000      0.000      0.000      0.000 
      53      0.000      0.000      0.300      0.000 
      54      0.000      0.000      0.300      0.000 
      55      0.000      0.000      0.300      0.000 
      56      0.000      0.000      0.000      0.000 
      57      0.000      0.000      0.300      0.000 
      58      0.000      0.000      0.300      0.000 
      59      0.000      0.000      0.000      0.000 
      60      0.000      0.000      0.300      0.000 
      61      0.000      0.000      0.300      0.000 
      62      0.000      0.000      0.300      0.000 
      63      0.000      0.000      0.300      0.000 
      64      0.000      0.000      0.300      0.000 
      65      0.000      0.000      0.000      0.000 
      66      0.000      0.000      0.300      0.000 
      67      1.300     -0.200      0.200      0.000 
      68      0.000      0.000      0.300      0.000 
      69      0.000      0.000      0.300      0.000 
      70      0.000      0.000      0.300      0.000 
      71      0.000      0.000      0.300      0.000 
      72      0.000      0.000      0.000      0.000 
      73      0.000      0.000      0.300      0.000 
      74      0.000      0.000      0.300      0.000 
      75      0.000      0.000      0.300      0.000 
      76      0.000      0.000      0.300      0.000 
      77      0.000      0.000      0.300      0.000 
      78      0.000      0.000      0.000      0.000 
      79      0.000      0.000      0.300      0.000 
      80      0.000      0.000      0.300      0.000 
      81      0.000      0.000      0.300      0.000 
      82      0.000      0.000      0.300      0.000 
      83      0.000      0.000      0.300      0.000 
      84      0.000      0.000      0.000      0.000 
      85      0.000      0.000      0.300      0.000 
      86      0.000      0.000      0.300      0.000 
      87      0.000      0.000      0.300      0.000 
      88      0.000      0.000      0.300      0.000 
      89      0.000      0.000      0.000      0.000 
      90      0.000      0.000      0.300      0.000 
      91      0.000      0.000      0.300      0.000 
      92      0.000      0.000      0.300      0.000 
      93      0.000      0.000      0.300      0.000 
      94      0.000      0.000      0.000      0.000 
      95      0.000      0.000      0.300      0.000 
      96      0.000      0.000      0.300      0.000 
      97      0.000      0.000      0.300      0.000 
      98      0.000      0.000      0.300      0.000 
      99      0.000      0.000      0.000      0.000 
     100      0.000      0.000      0.300      0.000 

Improper Coeffs 

       1      0.000      -1       2 
       2      0.000      -1       2 
       3      0.000      -1       2 
       4      0.000      -1       2 
       5      0.000      -1       2 
       6      0.000      -1       2 
       7      0.000      -1       2 
       8      0.000      -1       2 
       9      0.000      -1       2 
      10      0.000      -1       2 
      11      0.000      -1       2 
      12      0.000      -1       2 
      13      0.000      -1       2 
      14      0.000      -1       2 
      15      0.000      -1       2 
      16      0.000      -1       2 
      17      0.000      -1       2 
      18      0.000      -1       2 
      19      0.000      -1       2 
      20      0.000      -1       2 
      21      0.000      -1       2 
      22      0.000      -1       2 
      23      0.000      -1       2 

Atoms 

     1      1      1 -0.23610000    1.000  1.00000  0.00000
     2      1      2 -0.14010000   -0.526  1.00000  0.00000
     3      1      3 -0.05650000   -1.100  1.00000  1.40454
     4      1      4 -0.20410000   -0.721  2.22033  2.22150
     5      1      5 -0.21160000   -2.492  0.46258  1.69319
     6      1      6 -0.14560000   -3.309 -0.47554  0.84463
     7      1      7 -0.11570000   -2.896 -1.87253  1.35450
     8      1      8 -0.22920000   -3.648 -2.22135  2.64797
     9      1      9 -0.08090000   -1.370 -1.68733  1.55008
    10      1     10 -0.22530000   -0.685 -2.76581  2.37216
    11      1     11 -0.19890000   -1.269 -0.30502  2.16255
    12      1     12 0.08170000    1.383  0.88665 -1.01864
    13      1     13 0.08170000    1.399  0.18461  0.61217
    14      1     14 0.08170000    1.397  1.94217  0.39248
    15      1     15 0.09290000   -0.869  0.13957 -0.58201
    16      1     16 0.09290000   -0.882  1.89083 -0.53136
    17      1     17 0.08750000   -1.031  3.13350  1.70427
    18      1     18 0.08750000    0.357  2.25763  2.39508
    19      1     19 0.08750000   -1.206  2.21308  3.20426
    20      1     20 0.12980000   -3.097  0.95387  2.44619
    21      1     21 0.09680000   -3.064 -0.36396 -0.21598
    22      1     22 0.09680000   -4.382 -0.29701  0.96338
    23      1     23 0.10230000   -3.115 -2.64295  0.60676
    24      1     24 0.08150000   -3.438 -1.51019  3.45504
    25      1     25 0.08150000   -3.375 -3.21889  3.00501
    26      1     26 0.08150000   -4.730 -2.21372  2.47870
    27      1     27 0.10120000   -0.898 -1.69378  0.56067
    28      1     28 0.08250000   -1.019 -2.76799  3.41443
    29      1     29 0.08250000    0.398 -2.59925  2.37977
    30      1     30 0.08250000   -0.873 -3.75636  1.94406
    31      1     31 0.13210000   -1.077 -0.32138  3.22971

Bonds 

     1      1      2      1
     2      2      3      2
     3      3      4      3
     4      4      5      3
     5      5      6      5
     6      6      7      6
     7      7      8      7
     8      8      9      7
     9      9     10      9
    10     10     11      3
    11     11     12      1
    12     12     13      1
    13     13     14      1
    14     14     15      2
    15     15     16      2
    16     16     17      4
    17     17     18      4
    18     18     19      4
    19     19     20      5
    20     20     21      6
    21     21     22      6
    22     22     23      7
    23     23     24      8
    24     24     25      8
    25     25     26      8
    26     26     27      9
    27     27     28     10
    28     28     29     10
    29     29     30     10
    30     30     31     11
    31     31     11      5
    32     32     11      9

Angles 

     1      1      1      2      3
     2      2      2      3      4
     3      3      2      3      5
     4      4      3      5      6
     5      5      5      6      7
     6      6      6      7      8
     7      7      6      7      9
     8      8      7      9     10
     9      9      2      3     11
    10     10      2      1     12
    11     11      2      1     13
    12     12      2      1     14
    13     13      1      2     15
    14     14      1      2     16
    15     15      3      4     17
    16     16      3      4     18
    17     17      3      4     19
    18     18      3      5     20
    19     19      5      6     21
    20     20      5      6     22
    21     21      6      7     23
    22     22      7      8     24
    23     23      7      8     25
    24     24      7      8     26
    25     25      7      9     27
    26     26      9     10     28
    27     27      9     10     29
    28     28      9     10     30
    29     29      3     11     31
    30     30      4      3     11
    31     31     24      8     25
    32     32     11      5     20
    33     33     13      1     14
    34     34     15      2     16
    35     35     24      8     26
    36     36      5     11      9
    37     37     12      1     13
    38     38      3      2     15
    39     39      3     11      5
    40     40     11      9     27
    41     41      7      9     11
    42     42      8      7      9
    43     43     17      4     18
    44     44      6      5     11
    45     45      5     11     31
    46     46      3      2     16
    47     47     12      1     14
    48     48      8      7     23
    49     49      9      7     23
    50     50      4      3      5
    51     51     17      4     19
    52     52      6      5     20
    53     53      7      6     21
    54     54     28     10     29
    55     55     25      8     26
    56     56      3     11      9
    57     57     10      9     11
    58     58     10      9     27
    59     59      5      3     11
    60     60      9     11     31
    61     61     28     10     30
    62     62     21      6     22
    63     63     18      4     19
    64     64      3      5     11
    65     65     29     10     30
    66     66      7      6     22

Dihedrals

     1      1      4      3      2      1 
     2      2      6      5      3      2 
     3      3      7      6      5      3 
     4      4      8      7      6      5 
     5      5     10      9      7      6 
     6      6     12      1      2      3 
     7      7     17      4      3      2 
     8      8     24      8      7      6 
     9      9     28     10      9      7 
    10     10     31     11      3      5 
    11     11     22      6      7      9 
    12     12     15      2      3     11 
    13     13     18      4      3      2 
    14     14     15      2      1     12 
    15     15      9      7      6      5 
    16     16      7      9     11      5 
    17     17     19      4      3      2 
    18     18      9     11      3      5 
    19     19      9     11      3      2 
    20     20     13      1      2      3 
    21     21      9     11      5      3 
    22     22     25      8      7      6 
    23     23     29     10      9     27 
    24     24     31     11      3      2 
    25     25     31     11      5     20 
    26     26     23      7      6     21 
    27     27     16      2      3      5 
    28     28     21      6      7      8 
    29     29     10      9      7      8 
    30     30     16      2      3      4 
    31     31     15      2      3      5 
    32     32     28     10      9     27 
    33     33     21      6      5     11 
    34     34     20      5      3      4 
    35     35     20      5     11      9 
    36     36     11      9      7      6 
    37     37     20      5     11      3 
    38     38     23      7      9     11 
    39     39     21      6      5     20 
    40     40     16      2      3     11 
    41     41      6      5      3      4 
    42     42     10      9     11      3 
    43     43     27      9      7      6 
    44     44     20      5      6      7 
    45     45     23      7      9     10 
    46     46      7      9     11      3 
    47     47     31     11      5      6 
    48     48     24      8      7      9 
    49     49     30     10      9      7 
    50     50     31     11      3      4 
    51     51     22      6      7      8 
    52     52      9     11      5      6 
    53     53     21      6      7      9 
    54     54     29     10      9     11 
    55     55     16      2      1     14 
    56     56     10      9     11      5 
    57     57     25      8      7     23 
    58     58     15      2      3      4 
    59     59     11      3      2      1 
    60     60     21      6      5      3 
    61     61     18      4      3     11 
    62     62     27      9     11      5 
    63     63     18      4      3      5 
    64     64     31     11      9     27 
    65     65      6      5     11      3 
    66     66     27      9      7     23 
    67     67     11      9      7      8 
    68     68     30     10      9     11 
    69     69     23      7      6      5 
    70     70     31     11      9     10 
    71     71     17      4      3      5 
    72     72     20      5      3      2 
    73     73     27      9     11      3 
    74     74     24      8      7     23 
    75     75     30     10      9     27 
    76     76     26      8      7      6 
    77     77     23      7      6     22 
    78     78     31     11      5      3 
    79     79     15      2      1     13 
    80     80     16      2      1     12 
    81     81     26      8      7     23 
    82     82     27      9      7      8 
    83     83     22      6      5      3 
    84     84      5      3      2      1 
    85     85     22      6      5     20 
    86     86     26      8      7      9 
    87     87     16      2      1     13 
    88     88     15      2      1     14 
    89     89     20      5      3     11 
    90     90     31     11      9      7 
    91     91     19      4      3      5 
    92     92     19      4      3     11 
    93     93     14      1      2      3 
    94     94     11      5      6      7 
    95     95     29     10      9      7 
    96     96     22      6      5     11 
    97     97     25      8      7      9 
    98     98     28     10      9     11 
    99     99      9     11      3      4 
   100    100     17      4      3     11 

Impropers

     1      1      3      2      4      5 
     2      2      7      9      6      8 
     3      3      3      2     11      4 
     4      4      1      2     12     13 
     5      5      1      2     12     14 
     6      6      2      1      3     15 
     7      7      2      1      3     16 
     8      8      4     17     18      3 
     9      9      4     17     19      3 
    10     10      5      3     20      6 
    11     11      6      5     21      7 
    12     12      6      5     22      7 
    13     13      7      8     23      6 
    14     14      8     25     24      7 
    15     15      8     26     24      7 
    16     16      9     10     27      7 
    17     17     10      9     28     29 
    18     18     10      9     28     30 
    19     19      3     11      5      2 
    20     20      3     11      5      4 
    21     21      3     11      5      4 
    22     22      3     11      5      2 
    23     23      5     11      3      6 

