LAMMPS data file Created by LigParGen - (Written by Leela S. Dodda)

      32 atoms
      31 bonds
      58 angles
      75 dihedrals
      19 impropers
 
      32 atom types
      31 bond types
      58 angle types
      75 dihedral types
      19 improper types
 
   -6.206990    43.793010 xlo xhi
   -5.123770    44.876230 ylo yhi
   -1.563570    48.436430 zlo zhi

Masses

       1     12.011  
       2     15.999  
       3     12.011  
       4     12.011  
       5     12.011  
       6     12.011  
       7     30.974  
       8     12.011  
       9     12.011  
      10     12.011  
      11     12.011  
      12      1.008  
      13      1.008  
      14      1.008  
      15      1.008  
      16      1.008  
      17      1.008  
      18      1.008  
      19      1.008  
      20      1.008  
      21      1.008  
      22      1.008  
      23      1.008  
      24      1.008  
      25      1.008  
      26      1.008  
      27      1.008  
      28      1.008  
      29      1.008  
      30      1.008  
      31      1.008  
      32      1.008  

Pair Coeffs 

       1      0.066  3.5000000 
       2      0.140  2.9000000 
       3      0.066  3.5000000 
       4      0.066  3.5000000 
       5      0.066  3.5000000 
       6      0.066  3.5000000 
       7      0.200  3.7400000 
       8      0.066  3.5000000 
       9      0.066  3.5000000 
      10      0.066  3.5000000 
      11      0.066  3.5000000 
      12      0.030  2.5000000 
      13      0.030  2.5000000 
      14      0.030  2.5000000 
      15      0.030  2.5000000 
      16      0.030  2.5000000 
      17      0.030  2.5000000 
      18      0.030  2.5000000 
      19      0.030  2.5000000 
      20      0.030  2.5000000 
      21      0.030  2.5000000 
      22      0.000  0.0000000 
      23      0.000  0.0000000 
      24      0.030  2.5000000 
      25      0.030  2.5000000 
      26      0.030  2.5000000 
      27      0.030  2.5000000 
      28      0.030  2.5000000 
      29      0.030  2.5000000 
      30      0.030  2.5000000 
      31      0.030  2.5000000 
      32      0.030  2.5000000 

Bond Coeffs 

       1   320.0000     1.4100 
       2   320.0000     1.4100 
       3   268.0000     1.5290 
       4   268.0000     1.5290 
       5   268.0000     1.5290 
       6   212.0000     1.8430 
       7   268.0000     1.5290 
       8   268.0000     1.5290 
       9   268.0000     1.5290 
      10   268.0000     1.5290 
      11   340.0000     1.0900 
      12   340.0000     1.0900 
      13   340.0000     1.0900 
      14   340.0000     1.0900 
      15   340.0000     1.0900 
      16   340.0000     1.0900 
      17   340.0000     1.0900 
      18   340.0000     1.0900 
      19   340.0000     1.0900 
      20   340.0000     1.0900 
      21   256.7000     1.3100 
      22   256.7000     1.3100 
      23   340.0000     1.0900 
      24   340.0000     1.0900 
      25   340.0000     1.0900 
      26   340.0000     1.0900 
      27   340.0000     1.0900 
      28   340.0000     1.0900 
      29   340.0000     1.0900 
      30   340.0000     1.0900 
      31   340.0000     1.0900 

Angle Coeffs 

       1     60.000    109.500
       2     50.000    109.500
       3     58.350    112.700
       4     58.350    112.700
       5     43.000    109.500
       6     58.350    112.700
       7     58.350    112.700
       8     58.350    112.700
       9     58.350    112.700
      10     35.000    109.500
      11     35.000    109.500
      12     35.000    109.500
      13     35.000    109.500
      14     35.000    109.500
      15     37.500    110.700
      16     37.500    110.700
      17     37.500    110.700
      18     37.500    110.700
      19     37.500    110.700
      20     63.570    108.400
      21     63.570    108.400
      22     37.500    110.700
      23     37.500    110.700
      24     37.500    110.700
      25     37.500    110.700
      26     37.500    110.700
      27     37.500    110.700
      28     37.500    110.700
      29     37.500    110.700
      30     37.500    110.700
      31     33.000    107.800
      32     37.500    110.700
      33     33.000    107.800
      34     33.000    107.800
      35     37.500    110.700
      36     37.500    110.700
      37     37.500    110.700
      38     63.570    108.400
      39     37.500    110.700
      40     33.000    107.800
      41     33.000    107.800
      42     33.000    107.800
      43     33.000    107.800
      44     33.000    107.800
      45     33.000    107.800
      46     33.000    107.800
      47     37.500    110.700
      48     43.000    109.500
      49     33.000    107.800
      50     58.350    112.700
      51     37.500    110.700
      52     33.000    107.800
      53     37.500    110.700
      54     33.000    107.800
      55     37.500    110.700
      56     41.000    109.500
      57     37.500    110.700
      58     37.500    110.700

Dihedral Coeffs  

       1      0.650     -0.250      0.670      0.000 
       2      1.711     -0.500      0.663      0.000 
       3      1.300     -0.200      0.200      0.000 
       4      0.845     -0.962      0.713      0.000 
       5      1.300     -0.200      0.200      0.000 
       6      1.300     -0.200      0.200      0.000 
       7      0.000      0.000      0.760      0.000 
       8      0.000      0.000      0.000      0.000 
       9      0.000      0.000      0.300      0.000 
      10      0.000      0.000      0.300      0.000 
      11      0.000      0.000      0.300      0.000 
      12      0.000      0.000      0.000      0.000 
      13      0.000      0.000      0.300      0.000 
      14      0.000      0.000      0.760      0.000 
      15      0.000      0.000      0.468      0.000 
      16      0.000      0.000      0.760      0.000 
      17      0.000      0.000      0.300      0.000 
      18      0.000      0.000      0.300      0.000 
      19      0.000      0.000      0.300      0.000 
      20      0.000      0.000      0.468      0.000 
      21      0.000      0.000      0.300      0.000 
      22      0.000      0.000      0.300      0.000 
      23      0.845     -0.962      0.713      0.000 
      24      0.000      0.000      0.300      0.000 
      25      0.000      0.000      0.300      0.000 
      26      0.000      0.000      0.000      0.000 
      27      0.000      0.000      0.300      0.000 
      28      0.000      0.000      0.300      0.000 
      29      0.000      0.000      0.300      0.000 
      30      0.000      0.000      0.300      0.000 
      31      0.000      0.000      0.300      0.000 
      32      0.000      0.000      0.300      0.000 
      33      0.000      0.000      0.300      0.000 
      34      0.000      0.000      0.300      0.000 
      35      0.000      0.000      0.300      0.000 
      36      0.000      0.000      0.300      0.000 
      37      0.000      0.000      0.300      0.000 
      38      0.000      0.000      0.300      0.000 
      39      0.000      0.000      0.300      0.000 
      40      1.300     -0.200      0.200      0.000 
      41      1.300     -0.200      0.200      0.000 
      42      0.000      0.000      0.300      0.000 
      43      0.000      0.000      0.300      0.000 
      44      0.000      0.000      0.300      0.000 
      45      0.000      0.000      0.300      0.000 
      46      0.000      0.000      0.300      0.000 
      47      0.000      0.000      0.000      0.000 
      48      0.000      0.000      0.760      0.000 
      49      0.000      0.000      0.300      0.000 
      50      0.000      0.000      0.300      0.000 
      51      0.000      0.000      0.300      0.000 
      52      0.000      0.000      0.300      0.000 
      53      0.000      0.000      0.300      0.000 
      54      0.000      0.000      0.300      0.000 
      55      0.000      0.000      0.000      0.000 
      56      0.000      0.000      0.300      0.000 
      57      0.000      0.000      0.300      0.000 
      58      0.000      0.000      0.760      0.000 
      59      0.000      0.000      0.300      0.000 
      60      0.000      0.000      0.300      0.000 
      61      0.000      0.000      0.300      0.000 
      62      0.000      0.000      0.300      0.000 
      63      0.000      0.000      0.300      0.000 
      64      0.000      0.000      0.300      0.000 
      65      0.000      0.000      0.000      0.000 
      66      0.000      0.000      0.300      0.000 
      67      0.000      0.000      0.300      0.000 
      68      0.000      0.000      0.300      0.000 
      69      0.000      0.000      0.300      0.000 
      70      0.000      0.000      0.300      0.000 
      71      0.000      0.000      0.300      0.000 
      72      0.000      0.000      0.300      0.000 
      73      0.000      0.000      0.300      0.000 
      74      0.000      0.000      0.300      0.000 
      75      0.000      0.000      0.300      0.000 

Improper Coeffs 

       1      0.000      -1       2 
       2      0.000      -1       2 
       3      0.000      -1       2 
       4      0.000      -1       2 
       5      0.000      -1       2 
       6      0.000      -1       2 
       7      0.000      -1       2 
       8      0.000      -1       2 
       9      0.000      -1       2 
      10      0.000      -1       2 
      11      0.000      -1       2 
      12      0.000      -1       2 
      13      0.000      -1       2 
      14      0.000      -1       2 
      15      0.000      -1       2 
      16      0.000      -1       2 
      17      0.000      -1       2 
      18      0.000      -1       2 
      19      0.000      -1       2 

Atoms 

     1      1      1 -0.05180000    1.000  1.00000  0.00000
     2      1      2 -0.38440000   -0.420  1.00000  0.00000
     3      1      3 0.00590000   -0.955  1.00000  1.32226
     4      1      4 -0.18350000   -2.481  1.00183  1.23588
     5      1      5 -0.19280000   -3.012 -0.24306  0.50510
     6      1      6 -0.16330000   -4.547 -0.35654  0.42688
     7      1      7 -0.03960000   -5.320  1.05953 -0.55376
     8      1      8 -0.16800000   -4.992 -1.67283 -0.25980
     9      1      9 -0.11640000   -4.575 -2.98598  0.43332
    10      1     10 -0.23500000   -5.125 -3.09047  1.85533
    11      1     11 -0.23680000   -5.062 -4.17570 -0.40151
    12      1     12 0.08220000    1.342  0.95231 -1.03668
    13      1     13 0.08220000    1.383  0.12576  0.53506
    14      1     14 0.08220000    1.380  1.92028  0.45283
    15      1     15 0.07790000   -0.618  1.89854  1.85043
    16      1     16 0.07790000   -0.604  0.11473  1.86572
    17      1     17 0.10020000   -2.779  1.90730  0.69855
    18      1     18 0.10020000   -2.904  1.05093  2.24501
    19      1     19 0.10580000   -2.618 -1.11476  1.03976
    20      1     20 0.10580000   -2.591 -0.28228 -0.50791
    21      1     21 0.11220000   -4.974 -0.29976  1.43388
    22      1     22 0.02520000   -4.330  1.12705 -1.56357
    23      1     23 0.02520000   -4.821  2.13559  0.21380
    24      1     24 0.10000000   -4.599 -1.68877 -1.28650
    25      1     25 0.10000000   -6.087 -1.67346 -0.35527
    26      1     26 0.09510000   -3.482 -3.04832  0.47769
    27      1     27 0.08170000   -6.207 -2.92153  1.87607
    28      1     28 0.08170000   -4.652 -2.35561  2.51482
    29      1     29 0.08170000   -4.930 -4.08217  2.27715
    30      1     30 0.08270000   -6.154 -4.17780 -0.49264
    31      1     31 0.08270000   -4.758 -5.12377  0.05570
    32      1     32 0.08270000   -4.637 -4.14128 -1.41117

Bonds 

     1      1      2      1
     2      2      3      2
     3      3      4      3
     4      4      5      4
     5      5      6      5
     6      6      7      6
     7      7      8      6
     8      8      9      8
     9      9     10      9
    10     10     11      9
    11     11     12      1
    12     12     13      1
    13     13     14      1
    14     14     15      3
    15     15     16      3
    16     16     17      4
    17     17     18      4
    18     18     19      5
    19     19     20      5
    20     20     21      6
    21     21     22      7
    22     22     23      7
    23     23     24      8
    24     24     25      8
    25     25     26      9
    26     26     27     10
    27     27     28     10
    28     28     29     10
    29     29     30     11
    30     30     31     11
    31     31     32     11

Angles 

     1      1      1      2      3
     2      2      2      3      4
     3      3      3      4      5
     4      4      4      5      6
     5      5      5      6      7
     6      6      5      6      8
     7      7      6      8      9
     8      8      8      9     10
     9      9      8      9     11
    10     10      2      1     12
    11     11      2      1     13
    12     12      2      1     14
    13     13      2      3     15
    14     14      2      3     16
    15     15      3      4     17
    16     16      3      4     18
    17     17      4      5     19
    18     18      4      5     20
    19     19      5      6     21
    20     20      6      7     22
    21     21      6      7     23
    22     22      6      8     24
    23     23      6      8     25
    24     24      8      9     26
    25     25      9     10     27
    26     26      9     10     28
    27     27      9     10     29
    28     28      9     11     30
    29     29      9     11     31
    30     30      9     11     32
    31     31     27     10     28
    32     32      9      8     25
    33     33     13      1     14
    34     34     30     11     32
    35     35      8      6     21
    36     36      9      8     24
    37     37      6      5     19
    38     38     22      7     23
    39     39     10      9     26
    40     40     17      4     18
    41     41     31     11     32
    42     42     28     10     29
    43     43     12      1     14
    44     44     15      3     16
    45     45     19      5     20
    46     46     12      1     13
    47     47      6      5     20
    48     48      7      6      8
    49     49     30     11     31
    50     50     10      9     11
    51     51     11      9     26
    52     52     24      8     25
    53     53      4      3     16
    54     54     27     10     29
    55     55      5      4     18
    56     56      7      6     21
    57     57      4      3     15
    58     58      5      4     17

Dihedrals

     1      1      4      3      2      1 
     2      2      5      4      3      2 
     3      3      6      5      4      3 
     4      4      7      6      5      4 
     5      5      9      8      6      5 
     6      6     10      9      8      6 
     7      7     12      1      2      3 
     8      8     22      7      6      5 
     9      9     27     10      9      8 
    10     10     30     11      9      8 
    11     11     25      8      6      7 
    12     12     23      7      6      8 
    13     13     15      3      4      5 
    14     14     13      1      2      3 
    15     15     17      4      3      2 
    16     16     15      3      2      1 
    17     17     25      8      6      5 
    18     18     17      4      3     15 
    19     19     30     11      9     26 
    20     20     18      4      3      2 
    21     21     21      6      5      4 
    22     22     20      5      4     17 
    23     23      9      8      6      7 
    24     24     17      4      3     16 
    25     25     27     10      9     11 
    26     26     22      7      6     21 
    27     27     17      4      5      6 
    28     28     31     11      9     10 
    29     29     21      6      5     20 
    30     30     20      5      4      3 
    31     31     26      9      8      6 
    32     32     29     10      9      8 
    33     33     18      4      5      6 
    34     34     24      8      6      5 
    35     35     28     10      9     26 
    36     36     25      8      6     21 
    37     37     21      6      5     19 
    38     38     20      5      4     18 
    39     39     19      5      4     17 
    40     40     11      9      8      6 
    41     41      8      6      5      4 
    42     42     19      5      6      7 
    43     43     20      5      6      7 
    44     44     19      5      4      3 
    45     45     19      5      6      8 
    46     46     29     10      9     26 
    47     47     23      7      6      5 
    48     48     16      3      2      1 
    49     49     25      8      9     10 
    50     50     24      8      6      7 
    51     51     29     10      9     11 
    52     52     24      8      9     11 
    53     53     21      6      8      9 
    54     54     32     11      9      8 
    55     55     22      7      6      8 
    56     56     30     11      9     10 
    57     57     24      8      9     10 
    58     58     14      1      2      3 
    59     59     26      9      8     24 
    60     60     18      4      3     15 
    61     61     31     11      9     26 
    62     62     32     11      9     10 
    63     63     25      8      9     11 
    64     64     19      5      4     18 
    65     65     23      7      6     21 
    66     66     28     10      9      8 
    67     67     26      9      8     25 
    68     68     28     10      9     11 
    69     69     31     11      9      8 
    70     70     32     11      9     26 
    71     71     20      5      6      8 
    72     72     16      3      4      5 
    73     73     27     10      9     26 
    74     74     18      4      3     16 
    75     75     24      8      6     21 

Impropers

     1      1      6      5      7      8 
     2      2      9     10     11      8 
     3      3      1      2     12     13 
     4      4      1      2     12     14 
     5      5      3      2      4     15 
     6      6      3      2      4     16 
     7      7      4     17      3      5 
     8      8      4     18      3      5 
     9      9      5     19      4      6 
    10     10      5      4     20      6 
    11     11      6      5     21      7 
    12     12      7     22     23      6 
    13     13      8      9      6     24 
    14     14      8     25      9      6 
    15     15      9     26     10      8 
    16     16     10      9     27     28 
    17     17     10      9     27     29 
    18     18     11      9     30     31 
    19     19     11      9     30     32 

