LAMMPS data file Created by LigParGen - (Written by Leela S. Dodda)

      47 atoms
      46 bonds
      86 angles
     105 dihedrals
      28 impropers
 
      47 atom types
      46 bond types
      86 angle types
     105 dihedral types
      28 improper types
 
  -11.067630    38.932370 xlo xhi
   -3.236180    46.763820 ylo yhi
   -1.026700    48.973300 zlo zhi

Masses

       1     12.011  
       2     12.011  
       3     32.060  
       4     12.011  
       5     12.011  
       6     12.011  
       7     12.011  
       8     12.011  
       9     12.011  
      10     12.011  
      11     12.011  
      12     14.007  
      13     12.011  
      14     30.974  
      15     12.011  
      16     15.999  
      17     12.011  
      18      1.008  
      19      1.008  
      20      1.008  
      21      1.008  
      22      1.008  
      23      1.008  
      24      1.008  
      25      1.008  
      26      1.008  
      27      1.008  
      28      1.008  
      29      1.008  
      30      1.008  
      31      1.008  
      32      1.008  
      33      1.008  
      34      1.008  
      35      1.008  
      36      1.008  
      37      1.008  
      38      1.008  
      39      1.008  
      40      1.008  
      41      1.008  
      42      1.008  
      43      1.008  
      44      1.008  
      45      1.008  
      46      1.008  
      47      1.008  

Pair Coeffs 

       1      0.066  3.5000000 
       2      0.066  3.5000000 
       3      0.355  3.6000000 
       4      0.066  3.5000000 
       5      0.066  3.5000000 
       6      0.066  3.5000000 
       7      0.066  3.5000000 
       8      0.066  3.5000000 
       9      0.066  3.5000000 
      10      0.066  3.5000000 
      11      0.066  3.5000000 
      12      0.170  3.3000000 
      13      0.066  3.5000000 
      14      0.200  3.7400000 
      15      0.066  3.5000000 
      16      0.140  2.9000000 
      17      0.066  3.5000000 
      18      0.030  2.5000000 
      19      0.030  2.5000000 
      20      0.030  2.5000000 
      21      0.030  2.5000000 
      22      0.030  2.5000000 
      23      0.030  2.5000000 
      24      0.030  2.5000000 
      25      0.030  2.5000000 
      26      0.030  2.5000000 
      27      0.030  2.5000000 
      28      0.030  2.5000000 
      29      0.030  2.5000000 
      30      0.030  2.5000000 
      31      0.030  2.5000000 
      32      0.030  2.5000000 
      33      0.030  2.5000000 
      34      0.030  2.5000000 
      35      0.030  2.5000000 
      36      0.030  2.5000000 
      37      0.030  2.5000000 
      38      0.030  2.5000000 
      39      0.030  2.5000000 
      40      0.030  2.5000000 
      41      0.030  2.5000000 
      42      0.030  2.5000000 
      43      0.030  2.5000000 
      44      0.030  2.5000000 
      45      0.030  2.5000000 
      46      0.030  2.5000000 
      47      0.030  2.5000000 

Bond Coeffs 

       1   268.0000     1.5290 
       2   222.0000     1.8100 
       3   222.0000     1.8100 
       4   268.0000     1.5290 
       5   268.0000     1.5290 
       6   268.0000     1.5290 
       7   268.0000     1.5290 
       8   268.0000     1.5290 
       9   268.0000     1.5290 
      10   268.0000     1.5290 
      11   382.0000     1.4480 
      12   382.0000     1.4480 
      13   212.0000     1.8430 
      14   212.0000     1.8430 
      15   230.0000     1.6100 
      16   320.0000     1.4100 
      17   340.0000     1.0900 
      18   340.0000     1.0900 
      19   340.0000     1.0900 
      20   340.0000     1.0900 
      21   340.0000     1.0900 
      22   340.0000     1.0900 
      23   340.0000     1.0900 
      24   340.0000     1.0900 
      25   340.0000     1.0900 
      26   340.0000     1.0900 
      27   340.0000     1.0900 
      28   340.0000     1.0900 
      29   340.0000     1.0900 
      30   340.0000     1.0900 
      31   340.0000     1.0900 
      32   340.0000     1.0900 
      33   340.0000     1.0900 
      34   340.0000     1.0900 
      35   340.0000     1.0900 
      36   340.0000     1.0900 
      37   340.0000     1.0900 
      38   340.0000     1.0900 
      39   340.0000     1.0900 
      40   340.0000     1.0900 
      41   340.0000     1.0900 
      42   340.0000     1.0900 
      43   340.0000     1.0900 
      44   340.0000     1.0900 
      45   340.0000     1.0900 
      46   340.0000     1.0900 

Angle Coeffs 

       1     50.000    114.700
       2     62.000     98.900
       3     50.000    114.700
       4     58.350    112.700
       5     58.350    112.700
       6     58.350    112.700
       7     58.350    112.700
       8     58.350    112.700
       9     58.350    112.700
      10     56.200    109.470
      11     51.800    107.200
      12     43.000    109.500
      13     62.000     98.900
      14     45.000    109.500
      15    100.000    120.500
      16     37.500    110.700
      17     37.500    110.700
      18     37.500    110.700
      19     37.500    110.700
      20     37.500    110.700
      21     35.000    109.500
      22     35.000    109.500
      23     37.500    110.700
      24     37.500    110.700
      25     37.500    110.700
      26     37.500    110.700
      27     37.500    110.700
      28     37.500    110.700
      29     37.500    110.700
      30     37.500    110.700
      31     37.500    110.700
      32     37.500    110.700
      33     37.500    110.700
      34     37.500    110.700
      35     37.500    110.700
      36     37.500    110.700
      37     35.000    109.500
      38     35.000    109.500
      39     35.000    109.500
      40     41.000    109.500
      41     41.000    109.500
      42     41.000    109.500
      43     35.000    109.500
      44     35.000    109.500
      45     35.000    109.500
      46     33.000    107.800
      47     43.000    109.500
      48     33.000    107.800
      49     33.000    107.800
      50     37.500    110.700
      51     33.000    107.800
      52     33.000    107.800
      53     33.000    107.800
      54     37.500    110.700
      55     37.500    110.700
      56     33.000    107.800
      57     33.000    107.800
      58     37.500    110.700
      59     33.000    107.800
      60     45.000    109.500
      61     33.000    107.800
      62     37.500    110.700
      63     56.200    109.470
      64     33.000    107.800
      65     37.500    110.700
      66     37.500    110.700
      67     33.000    107.800
      68     33.000    107.800
      69     33.000    107.800
      70     37.500    110.700
      71     35.000    109.500
      72     33.000    107.800
      73     33.000    107.800
      74     37.500    110.700
      75     33.000    107.800
      76     37.500    110.700
      77     33.000    107.800
      78     33.000    107.800
      79     37.500    110.700
      80     33.000    107.800
      81     33.000    107.800
      82     35.000    109.500
      83     35.000    109.500
      84     37.500    110.700
      85     37.500    110.700
      86     33.000    107.800

Dihedral Coeffs  

       1      0.925     -0.576      0.677      0.000 
       2      0.925     -0.576      0.677      0.000 
       3      2.619     -0.620      0.258      0.000 
       4      1.300     -0.200      0.200      0.000 
       5      1.300     -0.200      0.200      0.000 
       6      1.300     -0.200      0.200      0.000 
       7      1.300     -0.200      0.200      0.000 
       8      1.300     -0.200      0.200      0.000 
       9      0.416     -0.128      0.695      0.000 
      10      0.000      4.900      0.000      0.000 
      11      3.500     -3.300      1.500      0.000 
      12      0.000      0.000      0.452      0.000 
      13      0.000      0.000      0.300      0.000 
      14      0.000      0.000      0.560      0.000 
      15      0.000      0.000      0.250      0.000 
      16      0.000      0.000      0.300      0.000 
      17      0.000      0.000      0.300      0.000 
      18      0.000      0.000      0.300      0.000 
      19      0.000      0.000      0.300      0.000 
      20     -1.013     -0.709      0.473      0.000 
      21      0.000      0.000      0.300      0.000 
      22      0.000      0.000      0.452      0.000 
      23      0.000      0.000      0.300      0.000 
      24      0.000      0.000      0.300      0.000 
      25      0.000      0.000      0.300      0.000 
      26      0.000      0.000      0.400      0.000 
      27      0.000      0.000      0.300      0.000 
      28      0.000      0.000      0.452      0.000 
      29      2.250      0.000      0.000      0.000 
      30      0.000      0.000      0.300      0.000 
      31      0.000      0.000      0.300      0.000 
      32      0.000      0.000      0.300      0.000 
      33      0.000      0.000      0.300      0.000 
      34      0.000      0.000      0.300      0.000 
      35      0.000      0.000      0.300      0.000 
      36      0.000      0.000      0.300      0.000 
      37      0.000      0.000      0.300      0.000 
      38      0.000      0.000      0.300      0.000 
      39      0.000      0.000      0.300      0.000 
      40      0.000      0.000      0.300      0.000 
      41      0.000      0.000      0.250      0.000 
      42      0.000      0.000      0.250      0.000 
      43      0.000      0.000      0.300      0.000 
      44      0.000      0.000      0.300      0.000 
      45      0.000      0.000      0.300      0.000 
      46     -1.013     -0.709      0.473      0.000 
      47      0.000      0.000      0.300      0.000 
      48      0.000      0.000      0.300      0.000 
      49     -0.190     -0.417      0.418      0.000 
      50      0.000      0.000      0.300      0.000 
      51      0.000      0.000      0.300      0.000 
      52      0.000      0.000      0.300      0.000 
      53      0.000      0.000      0.300      0.000 
      54      0.000      0.000      0.300      0.000 
      55      2.392     -0.674      0.550      0.000 
      56      0.000      0.000      0.560      0.000 
      57      0.000      0.000      0.452      0.000 
      58      0.000      0.000      0.300      0.000 
      59      0.000      0.000      0.560      0.000 
      60      0.000      0.000      0.300      0.000 
      61      0.000      0.000      0.300      0.000 
      62      0.000      0.000      0.647      0.000 
      63      0.000      0.000      0.300      0.000 
      64     -0.190     -0.417      0.418      0.000 
      65      0.000      0.000      0.300      0.000 
      66      0.000      0.000      0.300      0.000 
      67      0.000      0.000      0.250      0.000 
      68      0.000      0.000      0.300      0.000 
      69      0.000      0.000      0.300      0.000 
      70      0.000      0.000      0.647      0.000 
      71      0.000      0.000      0.250      0.000 
      72      0.000      0.000      0.300      0.000 
      73      0.000      0.000      0.300      0.000 
      74     -1.013     -0.709      0.473      0.000 
      75      0.000      0.000      0.300      0.000 
      76      0.000      0.000      0.300      0.000 
      77      0.000      0.000      0.300      0.000 
      78      0.000      0.000      0.300      0.000 
      79      0.000      0.000      0.400      0.000 
      80      0.000      0.000      0.400      0.000 
      81      0.000      0.000      0.647      0.000 
      82      0.000      0.000      0.300      0.000 
      83      0.000      0.000      0.300      0.000 
      84      0.000      0.000      0.300      0.000 
      85      0.000      0.000      0.300      0.000 
      86      0.000      0.000      0.300      0.000 
      87      0.000      0.000      0.452      0.000 
      88      0.416     -0.128      0.695      0.000 
      89      0.000      0.000      0.300      0.000 
      90      0.000      0.000      0.300      0.000 
      91      0.000      0.000      0.647      0.000 
      92      0.000      0.000      0.300      0.000 
      93      0.000      0.000      0.300      0.000 
      94      0.000      0.000      0.400      0.000 
      95      2.392     -0.674      0.550      0.000 
      96      3.500     -3.300      1.500      0.000 
      97      0.000      0.000      0.300      0.000 
      98      0.000      0.000      0.560      0.000 
      99     -1.013     -0.709      0.473      0.000 
     100      0.000      0.000      0.300      0.000 
     101      0.000      0.000      0.300      0.000 
     102      2.250      0.000      0.000      0.000 
     103      0.000      0.000      0.300      0.000 
     104      0.000      0.000      0.250      0.000 
     105      0.000      4.900      0.000      0.000 

Improper Coeffs 

       1      0.000      -1       2 
       2      0.000      -1       2 
       3      0.000      -1       2 
       4      0.000      -1       2 
       5      0.000      -1       2 
       6      0.000      -1       2 
       7      0.000      -1       2 
       8      0.000      -1       2 
       9      0.000      -1       2 
      10      0.000      -1       2 
      11      0.000      -1       2 
      12      0.000      -1       2 
      13      0.000      -1       2 
      14      0.000      -1       2 
      15      0.000      -1       2 
      16      0.000      -1       2 
      17      0.000      -1       2 
      18      0.000      -1       2 
      19      0.000      -1       2 
      20      0.000      -1       2 
      21      0.000      -1       2 
      22      0.000      -1       2 
      23      0.000      -1       2 
      24      0.000      -1       2 
      25      0.000      -1       2 
      26      0.000      -1       2 
      27      0.000      -1       2 
      28      0.000      -1       2 

Atoms 

     1      1      1 -0.22840000    1.000  1.00000  0.00000
     2      1      2 -0.08990000   -0.518  1.00000  0.00000
     3      1      3 -0.38120000   -1.099  1.00000  1.71379
     4      1      4 -0.08290000   -2.895  0.99773  1.41275
     5      1      5 -0.17530000   -3.571  0.99931  2.77568
     6      1      6 -0.17420000   -5.094  0.99943  2.68308
     7      1      7 -0.16980000   -5.663  0.99923  4.10183
     8      1      8 -0.20350000   -7.178  0.89037  4.16776
     9      1      9 0.25640000   -7.895 -0.33915  3.56442
    10      1     10 -0.17610000   -7.494 -1.71765  4.17345
    11      1     11 -0.23380000   -6.036 -2.14444  4.06543
    12      1     12 -1.24970000   -9.382 -0.15774  3.62815
    13      1     13 0.12680000   -9.970 -0.30405  4.96292
    14      1     14 1.15720000  -10.248  0.86496  2.57138
    15      1     15 -0.57690000  -10.112  2.51083  3.38102
    16      1     16 -0.59070000   -9.196  1.02849  1.35866
    17      1     17 -0.01770000   -9.665  1.74022  0.21950
    18      1     18 0.09520000    1.375  1.00130 -1.02670
    19      1     19 0.09520000    1.399  0.11045  0.50025
    20      1     20 0.09520000    1.397  1.88921  0.50167
    21      1     21 0.10970000   -0.893  0.10888 -0.51761
    22      1     22 0.10970000   -0.893  1.89154 -0.51236
    23      1     23 0.11190000   -3.174  0.10241  0.84639
    24      1     24 0.11190000   -3.172  1.88850  0.83960
    25      1     25 0.10500000   -3.257  1.88827  3.34368
    26      1     26 0.10500000   -3.256  0.11867  3.34556
    27      1     27 0.09530000   -5.428  0.12675  2.11428
    28      1     28 0.09530000   -5.441  1.88907  2.14306
    29      1     29 0.08830000   -5.387  1.95266  4.57269
    30      1     30 0.08830000   -5.190  0.23723  4.72179
    31      1     31 0.08900000   -7.514  1.77552  3.62623
    32      1     32 0.08900000   -7.477  1.01405  5.21495
    33      1     33 0.12120000   -7.610 -0.41186  2.50701
    34      1     34 0.09160000   -8.087 -2.48833  3.66244
    35      1     35 0.09160000   -7.751 -1.76938  5.23523
    36      1     36 0.08150000   -5.571 -1.82265  3.13327
    37      1     37 0.08150000   -5.964 -3.23618  4.10907
    38      1     38 0.08150000   -5.451 -1.77167  4.91204
    39      1     39 0.07830000   -9.709 -1.25365  5.43738
    40      1     40 0.07830000  -11.068 -0.31989  4.92332
    41      1     41 0.07830000   -9.676  0.51248  5.63071
    42      1     42 0.09640000  -10.857  2.60263  4.17653
    43      1     43 0.09640000  -10.313  3.30294  2.65281
    44      1     44 0.09640000   -9.149  2.74536  3.82901
    45      1     45 0.08430000   -9.053  1.45380 -0.63950
    46      1     46 0.08430000   -9.541  2.81620  0.38084
    47      1     47 0.08430000  -10.712  1.51509 -0.02229

Bonds 

     1      1      2      1
     2      2      3      2
     3      3      4      3
     4      4      5      4
     5      5      6      5
     6      6      7      6
     7      7      8      7
     8      8      9      8
     9      9     10      9
    10     10     11     10
    11     11     12      9
    12     12     13     12
    13     13     14     12
    14     14     15     14
    15     15     16     14
    16     16     17     16
    17     17     18      1
    18     18     19      1
    19     19     20      1
    20     20     21      2
    21     21     22      2
    22     22     23      4
    23     23     24      4
    24     24     25      5
    25     25     26      5
    26     26     27      6
    27     27     28      6
    28     28     29      7
    29     29     30      7
    30     30     31      8
    31     31     32      8
    32     32     33      9
    33     33     34     10
    34     34     35     10
    35     35     36     11
    36     36     37     11
    37     37     38     11
    38     38     39     13
    39     39     40     13
    40     40     41     13
    41     41     42     15
    42     42     43     15
    43     43     44     15
    44     44     45     17
    45     45     46     17
    46     46     47     17

Angles 

     1      1      1      2      3
     2      2      2      3      4
     3      3      3      4      5
     4      4      4      5      6
     5      5      5      6      7
     6      6      6      7      8
     7      7      7      8      9
     8      8      8      9     10
     9      9      9     10     11
    10     10      8      9     12
    11     11      9     12     13
    12     12      9     12     14
    13     13     12     14     15
    14     14     12     14     16
    15     15     14     16     17
    16     16      2      1     18
    17     17      2      1     19
    18     18      2      1     20
    19     19      1      2     21
    20     20      1      2     22
    21     21      3      4     23
    22     22      3      4     24
    23     23      4      5     25
    24     24      4      5     26
    25     25      5      6     27
    26     26      5      6     28
    27     27      6      7     29
    28     28      6      7     30
    29     29      7      8     31
    30     30      7      8     32
    31     31      8      9     33
    32     32      9     10     34
    33     33      9     10     35
    34     34     10     11     36
    35     35     10     11     37
    36     36     10     11     38
    37     37     12     13     39
    38     38     12     13     40
    39     39     12     13     41
    40     40     14     15     42
    41     41     14     15     43
    42     42     14     15     44
    43     43     16     17     45
    44     44     16     17     46
    45     45     16     17     47
    46     46     45     17     47
    47     47     13     12     14
    48     48     23      4     24
    49     49     31      8     32
    50     50      9      8     31
    51     51     39     13     41
    52     52     36     11     38
    53     53     25      5     26
    54     54      6      5     26
    55     55     10      9     33
    56     56     34     10     35
    57     57     29      7     30
    58     58      8      7     30
    59     59     43     15     44
    60     60     15     14     16
    61     61     27      6     28
    62     62      5      4     24
    63     63     10      9     12
    64     64     18      1     19
    65     65     11     10     35
    66     66      7      6     27
    67     67     36     11     37
    68     68     40     13     41
    69     69     21      2     22
    70     70     11     10     34
    71     71     12      9     33
    72     72     42     15     44
    73     73     45     17     46
    74     74      7      6     28
    75     75     42     15     43
    76     76      8      7     29
    77     77     18      1     20
    78     78     46     17     47
    79     79      9      8     32
    80     80     39     13     40
    81     81     37     11     38
    82     82      3      2     21
    83     83      3      2     22
    84     84      5      4     23
    85     85      6      5     25
    86     86     19      1     20

Dihedrals

     1      1      4      3      2      1 
     2      2      5      4      3      2 
     3      3      6      5      4      3 
     4      4      7      6      5      4 
     5      5      8      7      6      5 
     6      6      9      8      7      6 
     7      7     10      9      8      7 
     8      8     11     10      9      8 
     9      9     13     12      9      8 
    10     10     15     14     12      9 
    11     11     17     16     14     12 
    12     12     18      1      2      3 
    13     13     36     11     10      9 
    14     14     39     13     12      9 
    15     15     42     15     14     12 
    16     16     45     17     16     14 
    17     17     38     11     10     34 
    18     18     35     10      9      8 
    19     19     28      6      7      8 
    20     20     34     10      9     12 
    21     21     47     17     16     14 
    22     22     25      5      4      3 
    23     23     31      8      7      6 
    24     24     37     11     10     35 
    25     25     38     11     10      9 
    26     26     39     13     12     14 
    27     27     25      5      4     23 
    28     28     19      1      2      3 
    29     29     16     14     12     13 
    30     30     25      5      6      7 
    31     31     28      6      5      4 
    32     32     37     11     10      9 
    33     33     30      7      6      5 
    34     34     29      7      8      9 
    35     35     33      9      8      7 
    36     36     29      7      6     28 
    37     37     30      7      6     27 
    38     38     32      8      7     30 
    39     39     33      9      8     32 
    40     40     22      2      1     20 
    41     41     43     15     14     16 
    42     42     44     15     14     16 
    43     43     23      4      5      6 
    44     44     26      5      4     24 
    45     45     35     10      9     33 
    46     46     35     10      9     12 
    47     47     27      6      5     25 
    48     48     34     10      9      8 
    49     49     14     12      9     10 
    50     50     21      2      1     18 
    51     51     32      8      9     10 
    52     52     26      5      4     23 
    53     53     25      5      4     24 
    54     54     34     10      9     33 
    55     55     12      9     10     11 
    56     56     40     13     12      9 
    57     57     26      5      4      3 
    58     58     31      8      7     29 
    59     59     33      9     12     13 
    60     60     30      7      8      9 
    61     61     27      6      5      4 
    62     62     23      4      3      2 
    63     63     32      8      7      6 
    64     64     14     12      9      8 
    65     65     21      2      1     20 
    66     66     22      2      1     19 
    67     67     44     15     14     12 
    68     68     38     11     10     35 
    69     69     31      8      9     10 
    70     70     24      4      3      2 
    71     71     43     15     14     12 
    72     72     33      9     10     11 
    73     73     46     17     16     14 
    74     74     32      8      9     12 
    75     75     37     11     10     34 
    76     76     36     11     10     35 
    77     77     27      6      7      8 
    78     78     24      4      5      6 
    79     79     33      9     12     14 
    80     80     40     13     12     14 
    81     81     21      2      3      4 
    82     82     28      6      5     26 
    83     83     31      8      7     30 
    84     84     32      8      7     29 
    85     85     28      6      5     25 
    86     86     27      6      5     26 
    87     87     20      1      2      3 
    88     88     13     12      9     10 
    89     89     29      7      6      5 
    90     90     36     11     10     34 
    91     91     22      2      3      4 
    92     92     22      2      1     18 
    93     93     21      2      1     19 
    94     94     41     13     12     14 
    95     95     12      9      8      7 
    96     96     17     16     14     15 
    97     97     33      9      8     31 
    98     98     41     13     12      9 
    99     99     31      8      9     12 
   100    100     26      5      6      7 
   101    101     29      7      6     27 
   102    102     16     14     12      9 
   103    103     30      7      6     28 
   104    104     42     15     14     16 
   105    105     15     14     12     13 

Impropers

     1      1      9     10     12      8 
     2      2     12      9     13     14 
     3      3     14     12     15     16 
     4      4      1      2     19     18 
     5      5      1      2     20     18 
     6      6      2      1      3     21 
     7      7      2      1      3     22 
     8      8      4      3      5     23 
     9      9      4      3      5     24 
    10     10      5     25      4      6 
    11     11      5     26      4      6 
    12     12      6     27      5      7 
    13     13      6     28      5      7 
    14     14      7     29      6      8 
    15     15      7      8     30      6 
    16     16      8      9      7     31 
    17     17      8      9      7     32 
    18     18      9     33     10      8 
    19     19     10      9     34     11 
    20     20     10      9     35     11 
    21     21     11     10     36     37 
    22     22     11     10     36     38 
    23     23     13     12     39     40 
    24     24     13     41     12     39 
    25     25     15     42     43     14 
    26     26     15     42     44     14 
    27     27     17     45     46     16 
    28     28     17     45     47     16 

