LAMMPS data file Created by LigParGen - (Written by Leela S. Dodda)

      36 atoms
      36 bonds
      72 angles
     104 dihedrals
      27 impropers
 
      36 atom types
      36 bond types
      72 angle types
     104 dihedral types
      27 improper types
 
   -6.502320    43.497680 xlo xhi
   -4.064950    45.935050 ylo yhi
   -1.243420    48.756580 zlo zhi

Masses

       1     12.011  
       2     12.011  
       3     12.011  
       4     12.011  
       5     12.011  
       6     12.011  
       7     12.011  
       8     12.011  
       9     12.011  
      10     12.011  
      11     12.011  
      12     12.011  
      13      1.008  
      14      1.008  
      15      1.008  
      16      1.008  
      17      1.008  
      18      1.008  
      19      1.008  
      20      1.008  
      21      1.008  
      22      1.008  
      23      1.008  
      24      1.008  
      25      1.008  
      26      1.008  
      27      1.008  
      28      1.008  
      29      1.008  
      30      1.008  
      31      1.008  
      32      1.008  
      33      1.008  
      34      1.008  
      35      1.008  
      36      1.008  

Pair Coeffs 

       1      0.066  3.5000000 
       2      0.066  3.5000000 
       3      0.066  3.5000000 
       4      0.066  3.5000000 
       5      0.066  3.5000000 
       6      0.083  3.4500000 
       7      0.083  3.4500000 
       8      0.066  3.5000000 
       9      0.083  3.4500000 
      10      0.066  3.5000000 
      11      0.083  3.4500000 
      12      0.066  3.5000000 
      13      0.030  2.5000000 
      14      0.030  2.5000000 
      15      0.030  2.5000000 
      16      0.030  2.5000000 
      17      0.030  2.5000000 
      18      0.030  2.5000000 
      19      0.030  2.5000000 
      20      0.030  2.5000000 
      21      0.030  2.5000000 
      22      0.030  2.5000000 
      23      0.030  2.5000000 
      24      0.030  2.5000000 
      25      0.030  2.5000000 
      26      0.030  2.5000000 
      27      0.030  2.5000000 
      28      0.030  2.5000000 
      29      0.030  2.5000000 
      30      0.030  2.5000000 
      31      0.030  2.5000000 
      32      0.030  2.5000000 
      33      0.030  2.5000000 
      34      0.030  2.5000000 
      35      0.030  2.5000000 
      36      0.030  2.5000000 

Bond Coeffs 

       1   268.0000     1.5290 
       2   268.0000     1.5290 
       3   268.0000     1.5290 
       4   268.0000     1.5290 
       5   280.0000     1.5100 
       6   260.0000     1.5200 
       7   280.0000     1.5100 
       8   260.0000     1.5200 
       9   280.0000     1.5100 
      10   260.0000     1.5200 
      11   280.0000     1.5100 
      12   340.0000     1.0900 
      13   340.0000     1.0900 
      14   340.0000     1.0900 
      15   340.0000     1.0900 
      16   340.0000     1.0900 
      17   340.0000     1.0900 
      18   340.0000     1.0900 
      19   340.0000     1.0900 
      20   340.0000     1.0900 
      21   340.0000     1.0900 
      22   340.0000     1.0900 
      23   340.0000     1.0880 
      24   340.0000     1.0880 
      25   340.0000     1.0900 
      26   340.0000     1.0900 
      27   340.0000     1.0900 
      28   340.0000     1.0880 
      29   340.0000     1.0900 
      30   340.0000     1.0900 
      31   340.0000     1.0900 
      32   340.0000     1.0880 
      33   340.0000     1.0900 
      34   340.0000     1.0900 
      35   340.0000     1.0900 
      36   260.0000     1.5200 

Angle Coeffs 

       1     58.350    112.700
       2     58.350    112.700
       3     58.350    112.700
       4     58.350    112.700
       5     37.500    117.200
       6     37.500    117.200
       7     30.000     83.000
       8     37.500    117.200
       9     37.500    117.200
      10     37.500    117.200
      11     37.500    110.700
      12     37.500    110.700
      13     37.500    110.700
      14     37.500    110.700
      15     37.500    110.700
      16     37.500    110.700
      17     37.500    110.700
      18     37.500    110.700
      19     37.500    110.700
      20     37.500    110.700
      21     37.500    110.700
      22     35.000    114.300
      23     37.500    117.200
      24     37.500    110.700
      25     37.500    110.700
      26     37.500    110.700
      27     37.500    117.200
      28     37.500    110.700
      29     37.500    110.700
      30     37.500    110.700
      31     37.500    117.200
      32     37.500    110.700
      33     37.500    110.700
      34     37.500    110.700
      35     37.500    117.200
      36     33.000    107.800
      37     37.500    117.200
      38     33.000    107.800
      39     33.000    107.800
      40     33.000    107.800
      41     37.500    117.200
      42     37.500    117.200
      43     35.000    114.300
      44     37.500    110.700
      45     33.000    107.800
      46     30.000     83.000
      47     33.000    107.800
      48     37.500    110.700
      49     30.000     83.000
      50     33.000    107.800
      51     33.000    107.800
      52     58.350    112.700
      53     33.000    107.800
      54     30.000     83.000
      55     33.000    107.800
      56     37.500    110.700
      57     35.000    114.300
      58     33.000    107.800
      59     37.500    110.700
      60     33.000    107.800
      61     37.500    117.200
      62     33.000    107.800
      63     37.500    117.200
      64     37.500    110.700
      65     33.000    107.800
      66     33.000    107.800
      67     37.500    110.700
      68     37.500    117.200
      69     35.000    114.300
      70     33.000    107.800
      71     33.000    107.800
      72     37.500    117.200

Dihedral Coeffs  

       1      1.300     -0.200      0.200      0.000 
       2      1.300     -0.200      0.200      0.000 
       3      0.000      0.000      0.000      0.000 
       4      0.000      0.000      0.000      0.000 
       5      0.000      0.000      0.000      0.000 
       6      0.000      0.000      0.300      0.000 
       7      0.000      0.000      0.300      0.000 
       8      0.000      0.000      0.300      0.000 
       9      0.000      0.000      0.300      0.000 
      10      0.000      0.000      0.300      0.000 
      11      0.000      0.000      0.000      0.000 
      12      0.000      0.000      0.300      0.000 
      13      0.000      0.000      0.300      0.000 
      14      0.000      0.000      0.000      0.000 
      15      0.000      0.000      0.300      0.000 
      16      0.000      0.000      0.000      0.000 
      17      0.000      0.000      0.000      0.000 
      18      0.000      0.000      0.300      0.000 
      19      0.000      0.000      0.000      0.000 
      20      0.000      0.000      0.300      0.000 
      21      0.000      0.000      0.300      0.000 
      22      0.000      0.000      0.000      0.000 
      23      0.000      0.000      0.300      0.000 
      24      0.000      0.000      0.300      0.000 
      25      0.000      0.000      0.000      0.000 
      26      0.000      0.000      0.000      0.000 
      27      0.000      0.000      0.300      0.000 
      28      0.000      0.000      0.300      0.000 
      29      0.000      0.000      0.300      0.000 
      30      0.000      0.000      0.000      0.000 
      31      0.000      0.000      0.300      0.000 
      32      0.000      0.000      0.300      0.000 
      33      0.000      0.000      0.300      0.000 
      34      0.000      0.000      0.300      0.000 
      35      0.000      0.000      0.000      0.000 
      36      0.000      0.000      0.300      0.000 
      37      0.000      0.000      0.300      0.000 
      38      0.000      0.000      0.300      0.000 
      39      0.000      0.000      0.300      0.000 
      40      0.000      0.000      0.300      0.000 
      41      0.000      0.000      0.300      0.000 
      42      1.300     -0.200      0.200      0.000 
      43      0.000      0.000      0.300      0.000 
      44      0.000      0.000      0.300      0.000 
      45      0.000      0.000      0.300      0.000 
      46      0.000      0.000      0.300      0.000 
      47      0.000      0.000      0.300      0.000 
      48      0.000      0.000      0.300      0.000 
      49      0.000      0.000      0.300      0.000 
      50      0.000      0.000      0.000      0.000 
      51      0.000      0.000      0.300      0.000 
      52      0.000      0.000      0.300      0.000 
      53      0.000      0.000      0.300      0.000 
      54      0.000      0.000      0.000      0.000 
      55      0.000      0.000      0.000      0.000 
      56      0.000      0.000      0.300      0.000 
      57      0.000      0.000      0.000      0.000 
      58      0.000      0.000      0.000      0.000 
      59      0.000      0.000      0.300      0.000 
      60      0.000      0.000      0.300      0.000 
      61      0.000      0.000      0.300      0.000 
      62      0.000      0.000      0.000      0.000 
      63      0.000      0.000      0.300      0.000 
      64      0.000      0.000      0.000      0.000 
      65      0.000      0.000      0.300      0.000 
      66      0.000      0.000      0.300      0.000 
      67      0.000      0.000      0.300      0.000 
      68      0.000      0.000      0.300      0.000 
      69      0.000      0.000      0.300      0.000 
      70      0.000      0.000      0.000      0.000 
      71      0.000      0.000      0.000      0.000 
      72      0.000      0.000      0.000      0.000 
      73      0.000      0.000      0.000      0.000 
      74      0.000      0.000      0.300      0.000 
      75      0.000      0.000      0.300      0.000 
      76      0.000      0.000      0.300      0.000 
      77      0.000      0.000      0.000      0.000 
      78      0.000      0.000      0.000      0.000 
      79      0.000      0.000      0.000      0.000 
      80      0.000      0.000      0.000      0.000 
      81      0.000      0.000      0.000      0.000 
      82      0.000      0.000      0.000      0.000 
      83      0.000      0.000      0.300      0.000 
      84      0.000      0.000      0.000      0.000 
      85      1.300     -0.200      0.200      0.000 
      86      0.000      0.000      0.300      0.000 
      87      0.000      0.000      0.300      0.000 
      88      0.000      0.000      0.300      0.000 
      89      0.000      0.000      0.300      0.000 
      90      0.000      0.000      0.300      0.000 
      91      0.000      0.000      0.300      0.000 
      92      0.000      0.000      0.300      0.000 
      93      0.000      0.000      0.000      0.000 
      94      0.000      0.000      0.300      0.000 
      95      0.000      0.000      0.300      0.000 
      96      0.000      0.000      0.300      0.000 
      97      0.000      0.000      0.300      0.000 
      98      0.000      0.000      0.300      0.000 
      99      0.000      0.000      0.000      0.000 
     100      0.000      0.000      0.300      0.000 
     101      0.000      0.000      0.300      0.000 
     102      0.000      0.000      0.300      0.000 
     103      0.000      0.000      0.300      0.000 
     104      0.000      0.000      0.000      0.000 

Improper Coeffs 

       1      0.000      -1       2 
       2      0.000      -1       2 
       3      0.000      -1       2 
       4      0.000      -1       2 
       5      0.000      -1       2 
       6      0.000      -1       2 
       7      0.000      -1       2 
       8      0.000      -1       2 
       9      0.000      -1       2 
      10      0.000      -1       2 
      11      0.000      -1       2 
      12      0.000      -1       2 
      13      0.000      -1       2 
      14      0.000      -1       2 
      15      0.000      -1       2 
      16      0.000      -1       2 
      17      0.000      -1       2 
      18      0.000      -1       2 
      19      0.000      -1       2 
      20      0.000      -1       2 
      21      0.000      -1       2 
      22      0.000      -1       2 
      23      0.000      -1       2 
      24      0.000      -1       2 
      25      0.000      -1       2 
      26      0.000      -1       2 
      27      0.000      -1       2 

Atoms 

     1      1      1 -0.23830000    1.000  1.00000  0.00000
     2      1      2 -0.17390000   -0.523  1.00000  0.00000
     3      1      3 -0.11240000   -1.144  1.00000  1.41323
     4      1      4 -0.23560000   -0.742  2.25308  2.19989
     5      1      5 -0.15850000   -2.689  0.88316  1.37642
     6      1      6 -0.12790000   -3.142 -0.43267  0.74560
     7      1      7 -0.13190000   -2.767 -1.78056  1.45489
     8      1      8 -0.21900000   -2.654 -1.82652  2.97571
     9      1      9 -0.13730000   -4.110 -2.35287  0.91147
    10      1     10 -0.21880000   -3.971 -3.13597 -0.39007
    11      1     11 -0.12730000   -4.636 -0.87732  0.86660
    12      1     12 -0.22750000   -5.585 -0.50959 -0.25902
    13      1     13 0.08020000    1.370  0.89582 -1.02530
    14      1     14 0.08020000    1.390  0.16177  0.58614
    15      1     15 0.08020000    1.404  1.93229  0.40392
    16      1     16 0.08770000   -0.833  0.10354 -0.54470
    17      1     17 0.08770000   -0.887  1.86276 -0.57007
    18      1     18 0.09850000   -0.740  0.13635  1.95261
    19      1     19 0.08040000   -0.974  3.16428  1.63990
    20      1     20 0.08040000    0.330  2.25139  2.41883
    21      1     21 0.08040000   -1.266  2.29949  3.16025
    22      1     22 0.09100000   -3.112  1.72552  0.81478
    23      1     23 0.09100000   -3.084  0.95751  2.39740
    24      1     24 0.11180000   -2.846 -0.43576 -0.31356
    25      1     25 0.10200000   -1.871 -2.24196  1.01765
    26      1     26 0.08290000   -3.504 -1.34061  3.46543
    27      1     27 0.08290000   -1.741 -1.33244  3.31813
    28      1     28 0.08290000   -2.615 -2.86484  3.32069
    29      1     29 0.10160000   -4.657 -2.96909  1.63671
    30      1     30 0.08280000   -3.438 -2.56955 -1.15666
    31      1     31 0.08280000   -4.958 -3.39990 -0.78691
    32      1     32 0.08280000   -3.418 -4.06495 -0.21625
    33      1     33 0.11180000   -5.084 -0.58329  1.82763
    34      1     34 0.08220000   -5.140 -0.68309 -1.24342
    35      1     35 0.08220000   -5.865  0.54661 -0.19770
    36      1     36 0.08220000   -6.502 -1.10504 -0.19330

Bonds 

     1      1      2      1
     2      2      3      2
     3      3      4      3
     4      4      5      3
     5      5      6      5
     6      6      7      6
     7      7      8      7
     8      8      9      7
     9      9     10      9
    10     10     11      6
    11     11     12     11
    12     12     13      1
    13     13     14      1
    14     14     15      1
    15     15     16      2
    16     16     17      2
    17     17     18      3
    18     18     19      4
    19     19     20      4
    20     20     21      4
    21     21     22      5
    22     22     23      5
    23     23     24      6
    24     24     25      7
    25     25     26      8
    26     26     27      8
    27     27     28      8
    28     28     29      9
    29     29     30     10
    30     30     31     10
    31     31     32     10
    32     32     33     11
    33     33     34     12
    34     34     35     12
    35     35     36     12
    36     36     11      9

Angles 

     1      1      1      2      3
     2      2      2      3      4
     3      3      2      3      5
     4      4      3      5      6
     5      5      5      6      7
     6      6      6      7      8
     7      7      6      7      9
     8      8      7      9     10
     9      9      5      6     11
    10     10      6     11     12
    11     11      2      1     13
    12     12      2      1     14
    13     13      2      1     15
    14     14      1      2     16
    15     15      1      2     17
    16     16      2      3     18
    17     17      3      4     19
    18     18      3      4     20
    19     19      3      4     21
    20     20      3      5     22
    21     21      3      5     23
    22     22      5      6     24
    23     23      6      7     25
    24     24      7      8     26
    25     25      7      8     27
    26     26      7      8     28
    27     27      7      9     29
    28     28      9     10     30
    29     29      9     10     31
    30     30      9     10     32
    31     31      6     11     33
    32     32     11     12     34
    33     33     11     12     35
    34     34     11     12     36
    35     35     11      6     24
    36     36     26      8     28
    37     37      7      6     24
    38     38     13      1     14
    39     39     16      2     17
    40     40     22      5     23
    41     41      9      7     25
    42     42     11      9     29
    43     43     10      9     29
    44     44      6      5     22
    45     45     31     10     32
    46     46      6     11      9
    47     47     30     10     31
    48     48      3      2     17
    49     49      7      9     11
    50     50     19      4     20
    51     51     34     12     36
    52     52      4      3      5
    53     53     35     12     36
    54     54      7      6     11
    55     55     27      8     28
    56     56      4      3     18
    57     57      8      7     25
    58     58     14      1     15
    59     59      5      3     18
    60     60     34     12     35
    61     61      9     11     12
    62     62     19      4     21
    63     63     10      9     11
    64     64      6      5     23
    65     65     30     10     32
    66     66     13      1     15
    67     67      3      2     16
    68     68      9     11     33
    69     69     12     11     33
    70     70     20      4     21
    71     71     26      8     27
    72     72      8      7      9

Dihedrals

     1      1      4      3      2      1 
     2      2      6      5      3      2 
     3      3      7      6      5      3 
     4      4      8      7      6      5 
     5      5     10      9      7      6 
     6      6     13      1      2      3 
     7      7     19      4      3      2 
     8      8     26      8      7      6 
     9      9     30     10      9      7 
    10     10     34     12     11      6 
    11     11     25      7      6     11 
    12     12     23      5      3      2 
    13     13     24      6      5      3 
    14     14     33     11      6      5 
    15     15     28      8      7      9 
    16     16     29      9      7      8 
    17     17     29      9      7     25 
    18     18     32     10      9     11 
    19     19      9      7      6      5 
    20     20     20      4      3     18 
    21     21     36     12     11      9 
    22     22     33     11      9      7 
    23     23     31     10      9     29 
    24     24     18      3      2     17 
    25     25     12     11      6      5 
    26     26     24      6      7      9 
    27     27     21      4      3     18 
    28     28     23      5      6      7 
    29     29     16      2      3      5 
    30     30     10      9      7      8 
    31     31     26      8      7     25 
    32     32     17      2      3      4 
    33     33     28      8      7     25 
    34     34     16      2      3      4 
    35     35     25      7      9     11 
    36     36     27      8      7      9 
    37     37     22      5      3      2 
    38     38     24      6      5     22 
    39     39     19      4      3      5 
    40     40     34     12     11      9 
    41     41     34     12     11     33 
    42     42      6      5      3      4 
    43     43     17      2      1     15 
    44     44     23      5      3     18 
    45     45     27      8      7      6 
    46     46     30     10      9     29 
    47     47     35     12     11     33 
    48     48     17      2      1     13 
    49     49     16      2      1     14 
    50     50     25      7      6     24 
    51     51     36     12     11     33 
    52     52     20      4      3      5 
    53     53     18      3      2     16 
    54     54     33     11      9     29 
    55     55     33     11      6      7 
    56     56     18      3      2      1 
    57     57     12     11      6      7 
    58     58     25      7      6      5 
    59     59     35     12     11      9 
    60     60     21      4      3      2 
    61     61     31     10      9     11 
    62     62     33     11      9     10 
    63     63     19      4      3     18 
    64     64     11      9      7      8 
    65     65     18      3      5      6 
    66     66     23      5      3      4 
    67     67     30     10      9     11 
    68     68     22      5      6      7 
    69     69     22      5      3      4 
    70     70     29      9     11     12 
    71     71     29      9     11      6 
    72     72     10      9     11      6 
    73     73     12     11      9     10 
    74     74     28      8      7      6 
    75     75     15      1      2      3 
    76     76     24      6      5     23 
    77     77     24      6      7      8 
    78     78     25      7      9     10 
    79     79     33     11      6     24 
    80     80      9     11      6      5 
    81     81     24      6     11     12 
    82     82     29      9      7      6 
    83     83     21      4      3      5 
    84     84     11      6      5      3 
    85     85      5      3      2      1 
    86     86     26      8      7      9 
    87     87     23      5      6     11 
    88     88     16      2      1     13 
    89     89     32     10      9      7 
    90     90     20      4      3      2 
    91     91     27      8      7     25 
    92     92     36     12     11      6 
    93     93     24      6     11      9 
    94     94     22      5      3     18 
    95     95     17      2      3      5 
    96     96     31     10      9      7 
    97     97     14      1      2      3 
    98     98     35     12     11      6 
    99     99     12     11      9      7 
   100    100     32     10      9     29 
   101    101     22      5      6     11 
   102    102     16      2      1     15 
   103    103     17      2      1     14 
   104    104     11      6      7      8 

Impropers

     1      1      3      2      4      5 
     2      2      7      9      6      8 
     3      3      6     11      5      7 
     4      4     11      9     12      6 
     5      5      1      2     13     14 
     6      6      1      2     13     15 
     7      7      2      1      3     16 
     8      8      2     17      3      1 
     9      9      3     18      4      2 
    10     10      4      3     20     19 
    11     11      4      3     21     19 
    12     12      5      3     22      6 
    13     13      5      3      6     23 
    14     14      6      5      7     24 
    15     15      7     25      6      8 
    16     16      8     26     27      7 
    17     17      8     26     28      7 
    18     18      9     10     29      7 
    19     19     10      9     30     31 
    20     20     10      9     30     32 
    21     21     11     33      9      6 
    22     22     12     34     35     11 
    23     23     12     34     11     36 
    24     24      9     11      6      7 
    25     25      9     11      6      7 
    26     26      9     11      6      7 
    27     27      9     11      6      7 

