LAMMPS data file Created by LigParGen - (Written by Leela S. Dodda)

      39 atoms
      39 bonds
      78 angles
     117 dihedrals
      26 impropers
 
      39 atom types
      39 bond types
      78 angle types
     117 dihedral types
      26 improper types
 
   -5.424470    44.575530 xlo xhi
   -3.121170    46.878830 ylo yhi
   -1.023180    48.976820 zlo zhi

Masses

       1     12.011  
       2     12.011  
       3     12.011  
       4     12.011  
       5     12.011  
       6     12.011  
       7     12.011  
       8     12.011  
       9     12.011  
      10     12.011  
      11     12.011  
      12     12.011  
      13     12.011  
      14      1.008  
      15      1.008  
      16      1.008  
      17      1.008  
      18      1.008  
      19      1.008  
      20      1.008  
      21      1.008  
      22      1.008  
      23      1.008  
      24      1.008  
      25      1.008  
      26      1.008  
      27      1.008  
      28      1.008  
      29      1.008  
      30      1.008  
      31      1.008  
      32      1.008  
      33      1.008  
      34      1.008  
      35      1.008  
      36      1.008  
      37      1.008  
      38      1.008  
      39      1.008  

Pair Coeffs 

       1      0.066  3.5000000 
       2      0.066  3.5000000 
       3      0.066  3.5000000 
       4      0.066  3.5000000 
       5      0.066  3.5000000 
       6      0.066  3.5000000 
       7      0.066  3.5000000 
       8      0.066  3.5000000 
       9      0.066  3.5000000 
      10      0.066  3.5000000 
      11      0.066  3.5000000 
      12      0.066  3.5000000 
      13      0.066  3.5000000 
      14      0.030  2.5000000 
      15      0.030  2.5000000 
      16      0.030  2.5000000 
      17      0.030  2.5000000 
      18      0.030  2.5000000 
      19      0.030  2.5000000 
      20      0.030  2.5000000 
      21      0.030  2.5000000 
      22      0.030  2.5000000 
      23      0.030  2.5000000 
      24      0.030  2.5000000 
      25      0.030  2.5000000 
      26      0.030  2.5000000 
      27      0.030  2.5000000 
      28      0.030  2.5000000 
      29      0.030  2.5000000 
      30      0.030  2.5000000 
      31      0.030  2.5000000 
      32      0.030  2.5000000 
      33      0.030  2.5000000 
      34      0.030  2.5000000 
      35      0.030  2.5000000 
      36      0.030  2.5000000 
      37      0.030  2.5000000 
      38      0.030  2.5000000 
      39      0.030  2.5000000 

Bond Coeffs 

       1   268.0000     1.5290 
       2   268.0000     1.5290 
       3   268.0000     1.5290 
       4   268.0000     1.5290 
       5   268.0000     1.5290 
       6   268.0000     1.5290 
       7   268.0000     1.5290 
       8   268.0000     1.5290 
       9   268.0000     1.5290 
      10   268.0000     1.5290 
      11   268.0000     1.5290 
      12   268.0000     1.5290 
      13   340.0000     1.0900 
      14   340.0000     1.0900 
      15   340.0000     1.0900 
      16   340.0000     1.0900 
      17   340.0000     1.0900 
      18   340.0000     1.0900 
      19   340.0000     1.0900 
      20   340.0000     1.0900 
      21   340.0000     1.0900 
      22   340.0000     1.0900 
      23   340.0000     1.0900 
      24   340.0000     1.0900 
      25   340.0000     1.0900 
      26   340.0000     1.0900 
      27   340.0000     1.0900 
      28   340.0000     1.0900 
      29   340.0000     1.0900 
      30   340.0000     1.0900 
      31   340.0000     1.0900 
      32   340.0000     1.0900 
      33   340.0000     1.0900 
      34   340.0000     1.0900 
      35   340.0000     1.0900 
      36   340.0000     1.0900 
      37   340.0000     1.0900 
      38   340.0000     1.0900 
      39   268.0000     1.5290 

Angle Coeffs 

       1     58.350    112.700
       2     58.350    112.700
       3     58.350    112.700
       4     58.350    112.700
       5     58.350    112.700
       6     58.350    112.700
       7     58.350    112.700
       8     58.350    112.700
       9     58.350    112.700
      10     58.350    112.700
      11     58.350    112.700
      12     37.500    110.700
      13     37.500    110.700
      14     37.500    110.700
      15     37.500    110.700
      16     37.500    110.700
      17     37.500    110.700
      18     37.500    110.700
      19     37.500    110.700
      20     37.500    110.700
      21     37.500    110.700
      22     37.500    110.700
      23     37.500    110.700
      24     37.500    110.700
      25     37.500    110.700
      26     37.500    110.700
      27     37.500    110.700
      28     37.500    110.700
      29     37.500    110.700
      30     37.500    110.700
      31     37.500    110.700
      32     37.500    110.700
      33     37.500    110.700
      34     37.500    110.700
      35     37.500    110.700
      36     37.500    110.700
      37     37.500    110.700
      38     33.000    107.800
      39     37.500    110.700
      40     58.350    112.700
      41     37.500    110.700
      42     33.000    107.800
      43     37.500    110.700
      44     37.500    110.700
      45     33.000    107.800
      46     37.500    110.700
      47     33.000    107.800
      48     33.000    107.800
      49     37.500    110.700
      50     37.500    110.700
      51     33.000    107.800
      52     37.500    110.700
      53     37.500    110.700
      54     37.500    110.700
      55     33.000    107.800
      56     33.000    107.800
      57     33.000    107.800
      58     33.000    107.800
      59     33.000    107.800
      60     33.000    107.800
      61     58.350    112.700
      62     37.500    110.700
      63     33.000    107.800
      64     33.000    107.800
      65     58.350    112.700
      66     33.000    107.800
      67     33.000    107.800
      68     58.350    112.700
      69     33.000    107.800
      70     58.350    112.700
      71     58.350    112.700
      72     33.000    107.800
      73     33.000    107.800
      74     33.000    107.800
      75     58.350    112.700
      76     58.350    112.700
      77     37.500    110.700
      78     58.350    112.700

Dihedral Coeffs  

       1      1.300     -0.200      0.200      0.000 
       2      1.300     -0.200      0.200      0.000 
       3      1.300     -0.200      0.200      0.000 
       4      1.300     -0.200      0.200      0.000 
       5      1.300     -0.200      0.200      0.000 
       6      0.000      0.000      0.300      0.000 
       7      0.000      0.000      0.300      0.000 
       8      0.000      0.000      0.300      0.000 
       9      0.000      0.000      0.300      0.000 
      10      0.000      0.000      0.300      0.000 
      11      0.000      0.000      0.300      0.000 
      12      0.000      0.000      0.300      0.000 
      13      1.300     -0.200      0.200      0.000 
      14      1.300     -0.200      0.200      0.000 
      15      1.300     -0.200      0.200      0.000 
      16      0.000      0.000      0.300      0.000 
      17      0.000      0.000      0.300      0.000 
      18      0.000      0.000      0.300      0.000 
      19      0.000      0.000      0.300      0.000 
      20      0.000      0.000      0.300      0.000 
      21      0.000      0.000      0.300      0.000 
      22      0.000      0.000      0.300      0.000 
      23      0.000      0.000      0.300      0.000 
      24      0.000      0.000      0.300      0.000 
      25      0.000      0.000      0.300      0.000 
      26      0.000      0.000      0.300      0.000 
      27      0.000      0.000      0.300      0.000 
      28      0.000      0.000      0.300      0.000 
      29      1.300     -0.200      0.200      0.000 
      30      1.300     -0.200      0.200      0.000 
      31      0.000      0.000      0.300      0.000 
      32      0.000      0.000      0.300      0.000 
      33      0.000      0.000      0.300      0.000 
      34      0.000      0.000      0.300      0.000 
      35      0.000      0.000      0.300      0.000 
      36      1.300     -0.200      0.200      0.000 
      37      0.000      0.000      0.300      0.000 
      38      1.300     -0.200      0.200      0.000 
      39      0.000      0.000      0.300      0.000 
      40      0.000      0.000      0.300      0.000 
      41      0.000      0.000      0.300      0.000 
      42      1.300     -0.200      0.200      0.000 
      43      0.000      0.000      0.300      0.000 
      44      0.000      0.000      0.300      0.000 
      45      0.000      0.000      0.300      0.000 
      46      0.000      0.000      0.300      0.000 
      47      0.000      0.000      0.300      0.000 
      48      0.000      0.000      0.300      0.000 
      49      1.300     -0.200      0.200      0.000 
      50      0.000      0.000      0.300      0.000 
      51      0.000      0.000      0.300      0.000 
      52      0.000      0.000      0.300      0.000 
      53      0.000      0.000      0.300      0.000 
      54      0.000      0.000      0.300      0.000 
      55      0.000      0.000      0.300      0.000 
      56      0.000      0.000      0.300      0.000 
      57      0.000      0.000      0.300      0.000 
      58      0.000      0.000      0.300      0.000 
      59      0.000      0.000      0.300      0.000 
      60      0.000      0.000      0.300      0.000 
      61      0.000      0.000      0.300      0.000 
      62      0.000      0.000      0.300      0.000 
      63      0.000      0.000      0.300      0.000 
      64      0.000      0.000      0.300      0.000 
      65      0.000      0.000      0.300      0.000 
      66      0.000      0.000      0.300      0.000 
      67      1.300     -0.200      0.200      0.000 
      68      1.300     -0.200      0.200      0.000 
      69      0.000      0.000      0.300      0.000 
      70      0.000      0.000      0.300      0.000 
      71      0.000      0.000      0.300      0.000 
      72      0.000      0.000      0.300      0.000 
      73      0.000      0.000      0.300      0.000 
      74      0.000      0.000      0.300      0.000 
      75      0.000      0.000      0.300      0.000 
      76      0.000      0.000      0.300      0.000 
      77      0.000      0.000      0.300      0.000 
      78      0.000      0.000      0.300      0.000 
      79      0.000      0.000      0.300      0.000 
      80      1.300     -0.200      0.200      0.000 
      81      1.300     -0.200      0.200      0.000 
      82      0.000      0.000      0.300      0.000 
      83      1.300     -0.200      0.200      0.000 
      84      0.000      0.000      0.300      0.000 
      85      0.000      0.000      0.300      0.000 
      86      0.000      0.000      0.300      0.000 
      87      0.000      0.000      0.300      0.000 
      88      1.300     -0.200      0.200      0.000 
      89      0.000      0.000      0.300      0.000 
      90      0.000      0.000      0.300      0.000 
      91      1.300     -0.200      0.200      0.000 
      92      0.000      0.000      0.300      0.000 
      93      0.000      0.000      0.300      0.000 
      94      0.000      0.000      0.300      0.000 
      95      0.000      0.000      0.300      0.000 
      96      1.300     -0.200      0.200      0.000 
      97      0.000      0.000      0.300      0.000 
      98      1.300     -0.200      0.200      0.000 
      99      0.000      0.000      0.300      0.000 
     100      0.000      0.000      0.300      0.000 
     101      0.000      0.000      0.300      0.000 
     102      0.000      0.000      0.300      0.000 
     103      0.000      0.000      0.300      0.000 
     104      0.000      0.000      0.300      0.000 
     105      0.000      0.000      0.300      0.000 
     106      0.000      0.000      0.300      0.000 
     107      0.000      0.000      0.300      0.000 
     108      0.000      0.000      0.300      0.000 
     109      0.000      0.000      0.300      0.000 
     110      0.000      0.000      0.300      0.000 
     111      0.000      0.000      0.300      0.000 
     112      0.000      0.000      0.300      0.000 
     113      0.000      0.000      0.300      0.000 
     114      0.000      0.000      0.300      0.000 
     115      0.000      0.000      0.300      0.000 
     116      0.000      0.000      0.300      0.000 
     117      1.300     -0.200      0.200      0.000 

Improper Coeffs 

       1      0.000      -1       2 
       2      0.000      -1       2 
       3      0.000      -1       2 
       4      0.000      -1       2 
       5      0.000      -1       2 
       6      0.000      -1       2 
       7      0.000      -1       2 
       8      0.000      -1       2 
       9      0.000      -1       2 
      10      0.000      -1       2 
      11      0.000      -1       2 
      12      0.000      -1       2 
      13      0.000      -1       2 
      14      0.000      -1       2 
      15      0.000      -1       2 
      16      0.000      -1       2 
      17      0.000      -1       2 
      18      0.000      -1       2 
      19      0.000      -1       2 
      20      0.000      -1       2 
      21      0.000      -1       2 
      22      0.000      -1       2 
      23      0.000      -1       2 
      24      0.000      -1       2 
      25      0.000      -1       2 
      26      0.000      -1       2 

Atoms 

     1      1      1 -0.24020000    1.000  1.00000  0.00000
     2      1      2 -0.17880000   -0.523  1.00000  0.00000
     3      1      3 -0.16600000   -1.098  1.00000  1.42775
     4      1      4 -0.02180000   -2.669  1.00178  1.55026
     5      1      5 -0.23320000   -3.180  2.33858  0.95739
     6      1      6 -0.16540000   -3.281 -0.15242  0.70449
     7      1      7 -0.16840000   -2.901 -1.54217  1.21420
     8      1      8 -0.10730000   -3.278 -1.76929  2.67980
     9      1      9 -0.23310000   -4.757 -2.13788  2.83172
    10      1     10 -0.15910000   -2.837 -0.59953  3.57516
    11      1     11 -0.02960000   -3.141  0.83637  3.06868
    12      1     12 -0.23410000   -2.415  1.81945  4.02654
    13      1     13 -0.22770000   -4.655  1.13745  3.25299
    14      1     14 0.08010000    1.375  0.88615 -1.02318
    15      1     15 0.08010000    1.398  0.17401  0.59803
    16      1     16 0.08010000    1.392  1.94063  0.39817
    17      1     17 0.08840000   -0.856  0.11274 -0.54626
    18      1     18 0.08840000   -0.861  1.88006 -0.55624
    19      1     19 0.08810000   -0.695  1.88511  1.93693
    20      1     20 0.08810000   -0.682  0.13227  1.95366
    21      1     21 0.08070000   -2.910  2.44327 -0.09786
    22      1     22 0.08070000   -2.761  3.19786  1.49101
    23      1     23 0.08070000   -4.270  2.41464  0.99402
    24      1     24 0.08750000   -2.978 -0.06544 -0.34418
    25      1     25 0.08750000   -4.373 -0.06755  0.68143
    26      1     26 0.08680000   -1.821 -1.68973  1.09899
    27      1     27 0.08680000   -3.376 -2.30147  0.58074
    28      1     28 0.08730000   -2.725 -2.65641  3.02355
    29      1     29 0.07960000   -5.424 -1.43388  2.33327
    30      1     30 0.07960000   -5.042 -2.19680  3.88701
    31      1     31 0.07960000   -4.944 -3.12117  2.38358
    32      1     32 0.08530000   -1.752 -0.69374  3.71116
    33      1     33 0.08530000   -3.257 -0.73729  4.58157
    34      1     34 0.08090000   -1.329  1.69843  4.00676
    35      1     35 0.08090000   -2.730  1.64652  5.06376
    36      1     36 0.08090000   -2.648  2.86201  3.78631
    37      1     37 0.08040000   -5.281  0.65619  2.50028
    38      1     38 0.08040000   -4.857  2.21148  3.18702
    39      1     39 0.08040000   -5.004  0.80781  4.23774

Bonds 

     1      1      2      1
     2      2      3      2
     3      3      4      3
     4      4      5      4
     5      5      6      4
     6      6      7      6
     7      7      8      7
     8      8      9      8
     9      9     10      8
    10     10     11      4
    11     11     12     11
    12     12     13     11
    13     13     14      1
    14     14     15      1
    15     15     16      1
    16     16     17      2
    17     17     18      2
    18     18     19      3
    19     19     20      3
    20     20     21      5
    21     21     22      5
    22     22     23      5
    23     23     24      6
    24     24     25      6
    25     25     26      7
    26     26     27      7
    27     27     28      8
    28     28     29      9
    29     29     30      9
    30     30     31      9
    31     31     32     10
    32     32     33     10
    33     33     34     12
    34     34     35     12
    35     35     36     12
    36     36     37     13
    37     37     38     13
    38     38     39     13
    39     39     11     10

Angles 

     1      1      1      2      3
     2      2      2      3      4
     3      3      3      4      5
     4      4      3      4      6
     5      5      4      6      7
     6      6      6      7      8
     7      7      7      8      9
     8      8      7      8     10
     9      9      3      4     11
    10     10      4     11     12
    11     11      4     11     13
    12     12      2      1     14
    13     13      2      1     15
    14     14      2      1     16
    15     15      1      2     17
    16     16      1      2     18
    17     17      2      3     19
    18     18      2      3     20
    19     19      4      5     21
    20     20      4      5     22
    21     21      4      5     23
    22     22      4      6     24
    23     23      4      6     25
    24     24      6      7     26
    25     25      6      7     27
    26     26      7      8     28
    27     27      8      9     29
    28     28      8      9     30
    29     29      8      9     31
    30     30      8     10     32
    31     31      8     10     33
    32     32     11     12     34
    33     33     11     12     35
    34     34     11     12     36
    35     35     11     13     37
    36     36     11     13     38
    37     37     11     13     39
    38     38     37     13     38
    39     39      9      8     28
    40     40      5      4      6
    41     41      8      7     27
    42     42     29      9     30
    43     43      7      6     24
    44     44     11     10     33
    45     45     22      5     23
    46     46      3      2     18
    47     47     21      5     22
    48     48     29      9     31
    49     49      3      2     17
    50     50      7      6     25
    51     51     37     13     39
    52     52      4      3     19
    53     53     11     10     32
    54     54      8      7     26
    55     55     34     12     36
    56     56     38     13     39
    57     57     21      5     23
    58     58     35     12     36
    59     59     26      7     27
    60     60     30      9     31
    61     61      8     10     11
    62     62     10      8     28
    63     63     15      1     16
    64     64     14      1     15
    65     65     10     11     12
    66     66     32     10     33
    67     67     17      2     18
    68     68      6      4     11
    69     69     24      6     25
    70     70      5      4     11
    71     71     12     11     13
    72     72     34     12     35
    73     73     19      3     20
    74     74     14      1     16
    75     75      4     11     10
    76     76     10     11     13
    77     77      4      3     20
    78     78      9      8     10

Dihedrals

     1      1      4      3      2      1 
     2      2      5      4      3      2 
     3      3      7      6      4      3 
     4      4      8      7      6      4 
     5      5      9      8      7      6 
     6      6     14      1      2      3 
     7      7     21      5      4      3 
     8      8     29      9      8      7 
     9      9     34     12     11      4 
    10     10     37     13     11      4 
    11     11     39     13     11     12 
    12     12     27      7      8     10 
    13     13     13     11      4      3 
    14     14     11      4      6      7 
    15     15     10     11      4      6 
    16     16     27      7      6     24 
    17     17     24      6      4      5 
    18     18     38     13     11     10 
    19     19     33     10     11     13 
    20     20     35     12     11     10 
    21     21     30      9      8     10 
    22     22     19      3      2     17 
    23     23     25      6      7      8 
    24     24     37     13     11     10 
    25     25     17      2      1     16 
    26     26     18      2      1     15 
    27     27     39     13     11      4 
    28     28     17      2      3      4 
    29     29     13     11     10      8 
    30     30     11     10      8      9 
    31     31     32     10      8      9 
    32     32     27      7      8      9 
    33     33     32     10     11     12 
    34     34     24      6      4      3 
    35     35     19      3      2      1 
    36     36     13     11      4      5 
    37     37     34     12     11     13 
    38     38     12     11      4      5 
    39     39     32     10      8     28 
    40     40     23      5      4      6 
    41     41     28      8      7     26 
    42     42      6      4      3      2 
    43     43     20      3      2      1 
    44     44     20      3      2     18 
    45     45     18      2      1     14 
    46     46     17      2      1     15 
    47     47     38     13     11     12 
    48     48     35     12     11     13 
    49     49      8     10     11      4 
    50     50     26      7      6     24 
    51     51     25      6      4      5 
    52     52     22      5      4      3 
    53     53     30      9      8      7 
    54     54     22      5      4     11 
    55     55     32     10      8      7 
    56     56     31      9      8     28 
    57     57     29      9      8     28 
    58     58     28      8     10     11 
    59     59     28      8      7     27 
    60     60     20      3      4      5 
    61     61     19      3      4      6 
    62     62     26      7      6      4 
    63     63     26      7      6     25 
    64     64     20      3      4     11 
    65     65     23      5      4      3 
    66     66     34     12     11     10 
    67     67     12     11      4      6 
    68     68     10     11      4      3 
    69     69     30      9      8     28 
    70     70     29      9      8     10 
    71     71     26      7      8     10 
    72     72     24      6      4     11 
    73     73     37     13     11     12 
    74     74     36     12     11      4 
    75     75     20      3      4      6 
    76     76     31      9      8     10 
    77     77     33     10     11      4 
    78     78     39     13     11     10 
    79     79     38     13     11      4 
    80     80     10     11      4      5 
    81     81     12     11      4      3 
    82     82     33     10      8     28 
    83     83     13     11      4      6 
    84     84     15      1      2      3 
    85     85     33     10      8      9 
    86     86     24      6      7      8 
    87     87     32     10     11     13 
    88     88     11     10      8      7 
    89     89     33     10     11     12 
    90     90     36     12     11     13 
    91     91     12     11     10      8 
    92     92     26      7      8      9 
    93     93     20      3      2     17 
    94     94     19      3      2     18 
    95     95     25      6      4      3 
    96     96     11      4      3      2 
    97     97     21      5      4      6 
    98     98     10      8      7      6 
    99     99     31      9      8      7 
   100    100     25      6      4     11 
   101    101     19      3      4      5 
   102    102     18      2      3      4 
   103    103     19      3      4     11 
   104    104     35     12     11      4 
   105    105     27      7      6      4 
   106    106     22      5      4      6 
   107    107     36     12     11     10 
   108    108     32     10     11      4 
   109    109     21      5      4     11 
   110    110     27      7      6     25 
   111    111     16      1      2      3 
   112    112     23      5      4     11 
   113    113     28      8      7      6 
   114    114     33     10      8      7 
   115    115     17      2      1     14 
   116    116     18      2      1     16 
   117    117      7      6      4      5 

Impropers

     1      1      4      3      5      6 
     2      2      8      9     10      7 
     3      3      4     11      5      3 
     4      4     11      4     10     12 
     5      5     11     10      4     13 
     6      6      1      2     14     15 
     7      7      1      2     14     16 
     8      8      2     17      3      1 
     9      9      2      1     18      3 
    10     10      3      2     19      4 
    11     11      3      4      2     20 
    12     12      5     21      4     22 
    13     13      5     21      4     23 
    14     14      6      4      7     24 
    15     15      6     25      4      7 
    16     16      7     26      6      8 
    17     17      7     27      6      8 
    18     18      8      9     28      7 
    19     19      9     29     30      8 
    20     20      9     29     31      8 
    21     21     10     11      8     32 
    22     22     10     33     11      8 
    23     23     12     34     35     11 
    24     24     12     34     11     36 
    25     25     13     37     11     38 
    26     26     13     37     11     39 

