LAMMPS data file Created by LigParGen - (Written by Leela S. Dodda)

      42 atoms
      42 bonds
      84 angles
     126 dihedrals
      28 impropers
 
      42 atom types
      42 bond types
      84 angle types
     126 dihedral types
      28 improper types
 
   -4.893670    45.106330 xlo xhi
    0.039410    50.039410 ylo yhi
   -4.953450    45.046550 zlo zhi

Masses

       1     12.011  
       2     12.011  
       3     12.011  
       4     12.011  
       5     12.011  
       6     12.011  
       7     12.011  
       8     12.011  
       9     12.011  
      10     12.011  
      11     12.011  
      12     12.011  
      13     12.011  
      14     12.011  
      15      1.008  
      16      1.008  
      17      1.008  
      18      1.008  
      19      1.008  
      20      1.008  
      21      1.008  
      22      1.008  
      23      1.008  
      24      1.008  
      25      1.008  
      26      1.008  
      27      1.008  
      28      1.008  
      29      1.008  
      30      1.008  
      31      1.008  
      32      1.008  
      33      1.008  
      34      1.008  
      35      1.008  
      36      1.008  
      37      1.008  
      38      1.008  
      39      1.008  
      40      1.008  
      41      1.008  
      42      1.008  

Pair Coeffs 

       1      0.066  3.5000000 
       2      0.066  3.5000000 
       3      0.066  3.5000000 
       4      0.066  3.5000000 
       5      0.066  3.5000000 
       6      0.066  3.5000000 
       7      0.066  3.5000000 
       8      0.066  3.5000000 
       9      0.066  3.5000000 
      10      0.066  3.5000000 
      11      0.066  3.5000000 
      12      0.066  3.5000000 
      13      0.066  3.5000000 
      14      0.066  3.5000000 
      15      0.030  2.5000000 
      16      0.030  2.5000000 
      17      0.030  2.5000000 
      18      0.030  2.5000000 
      19      0.030  2.5000000 
      20      0.030  2.5000000 
      21      0.030  2.5000000 
      22      0.030  2.5000000 
      23      0.030  2.5000000 
      24      0.030  2.5000000 
      25      0.030  2.5000000 
      26      0.030  2.5000000 
      27      0.030  2.5000000 
      28      0.030  2.5000000 
      29      0.030  2.5000000 
      30      0.030  2.5000000 
      31      0.030  2.5000000 
      32      0.030  2.5000000 
      33      0.030  2.5000000 
      34      0.030  2.5000000 
      35      0.030  2.5000000 
      36      0.030  2.5000000 
      37      0.030  2.5000000 
      38      0.030  2.5000000 
      39      0.030  2.5000000 
      40      0.030  2.5000000 
      41      0.030  2.5000000 
      42      0.030  2.5000000 

Bond Coeffs 

       1   268.0000     1.5290 
       2   268.0000     1.5290 
       3   268.0000     1.5290 
       4   268.0000     1.5290 
       5   268.0000     1.5290 
       6   268.0000     1.5290 
       7   268.0000     1.5290 
       8   268.0000     1.5290 
       9   268.0000     1.5290 
      10   268.0000     1.5290 
      11   268.0000     1.5290 
      12   268.0000     1.5290 
      13   268.0000     1.5290 
      14   340.0000     1.0900 
      15   340.0000     1.0900 
      16   340.0000     1.0900 
      17   340.0000     1.0900 
      18   340.0000     1.0900 
      19   340.0000     1.0900 
      20   340.0000     1.0900 
      21   340.0000     1.0900 
      22   340.0000     1.0900 
      23   340.0000     1.0900 
      24   340.0000     1.0900 
      25   340.0000     1.0900 
      26   340.0000     1.0900 
      27   340.0000     1.0900 
      28   340.0000     1.0900 
      29   340.0000     1.0900 
      30   340.0000     1.0900 
      31   340.0000     1.0900 
      32   340.0000     1.0900 
      33   340.0000     1.0900 
      34   340.0000     1.0900 
      35   340.0000     1.0900 
      36   340.0000     1.0900 
      37   340.0000     1.0900 
      38   340.0000     1.0900 
      39   340.0000     1.0900 
      40   340.0000     1.0900 
      41   340.0000     1.0900 
      42   268.0000     1.5290 

Angle Coeffs 

       1     58.350    112.700
       2     58.350    112.700
       3     58.350    112.700
       4     58.350    112.700
       5     58.350    112.700
       6     58.350    112.700
       7     58.350    112.700
       8     58.350    112.700
       9     58.350    112.700
      10     58.350    112.700
      11     58.350    112.700
      12     58.350    112.700
      13     37.500    110.700
      14     37.500    110.700
      15     37.500    110.700
      16     37.500    110.700
      17     37.500    110.700
      18     37.500    110.700
      19     37.500    110.700
      20     37.500    110.700
      21     37.500    110.700
      22     37.500    110.700
      23     37.500    110.700
      24     37.500    110.700
      25     37.500    110.700
      26     37.500    110.700
      27     37.500    110.700
      28     37.500    110.700
      29     37.500    110.700
      30     37.500    110.700
      31     37.500    110.700
      32     37.500    110.700
      33     37.500    110.700
      34     37.500    110.700
      35     37.500    110.700
      36     37.500    110.700
      37     37.500    110.700
      38     37.500    110.700
      39     37.500    110.700
      40     37.500    110.700
      41     33.000    107.800
      42     37.500    110.700
      43     33.000    107.800
      44     37.500    110.700
      45     37.500    110.700
      46     58.350    112.700
      47     37.500    110.700
      48     37.500    110.700
      49     37.500    110.700
      50     33.000    107.800
      51     37.500    110.700
      52     33.000    107.800
      53     37.500    110.700
      54     37.500    110.700
      55     37.500    110.700
      56     33.000    107.800
      57     37.500    110.700
      58     37.500    110.700
      59     58.350    112.700
      60     33.000    107.800
      61     37.500    110.700
      62     37.500    110.700
      63     33.000    107.800
      64     37.500    110.700
      65     33.000    107.800
      66     37.500    110.700
      67     37.500    110.700
      68     58.350    112.700
      69     37.500    110.700
      70     33.000    107.800
      71     33.000    107.800
      72     37.500    110.700
      73     33.000    107.800
      74     33.000    107.800
      75     37.500    110.700
      76     37.500    110.700
      77     58.350    112.700
      78     33.000    107.800
      79     37.500    110.700
      80     33.000    107.800
      81     33.000    107.800
      82     37.500    110.700
      83     33.000    107.800
      84     37.500    110.700

Dihedral Coeffs  

       1      1.300     -0.200      0.200      0.000 
       2      1.300     -0.200      0.200      0.000 
       3      1.300     -0.200      0.200      0.000 
       4      1.300     -0.200      0.200      0.000 
       5      1.300     -0.200      0.200      0.000 
       6      1.300     -0.200      0.200      0.000 
       7      1.300     -0.200      0.200      0.000 
       8      1.300     -0.200      0.200      0.000 
       9      1.300     -0.200      0.200      0.000 
      10      0.000      0.000      0.300      0.000 
      11      0.000      0.000      0.300      0.000 
      12      0.000      0.000      0.300      0.000 
      13      0.000      0.000      0.300      0.000 
      14      0.000      0.000      0.300      0.000 
      15      0.000      0.000      0.300      0.000 
      16      0.000      0.000      0.300      0.000 
      17      0.000      0.000      0.300      0.000 
      18      0.000      0.000      0.300      0.000 
      19      0.000      0.000      0.300      0.000 
      20      0.000      0.000      0.300      0.000 
      21      0.000      0.000      0.300      0.000 
      22      0.000      0.000      0.300      0.000 
      23      0.000      0.000      0.300      0.000 
      24      0.000      0.000      0.300      0.000 
      25      0.000      0.000      0.300      0.000 
      26      0.000      0.000      0.300      0.000 
      27      0.000      0.000      0.300      0.000 
      28      0.000      0.000      0.300      0.000 
      29      0.000      0.000      0.300      0.000 
      30      0.000      0.000      0.300      0.000 
      31      0.000      0.000      0.300      0.000 
      32      0.000      0.000      0.300      0.000 
      33      0.000      0.000      0.300      0.000 
      34      0.000      0.000      0.300      0.000 
      35      1.300     -0.200      0.200      0.000 
      36      0.000      0.000      0.300      0.000 
      37      0.000      0.000      0.300      0.000 
      38      0.000      0.000      0.300      0.000 
      39      0.000      0.000      0.300      0.000 
      40      1.300     -0.200      0.200      0.000 
      41      0.000      0.000      0.300      0.000 
      42      0.000      0.000      0.300      0.000 
      43      0.000      0.000      0.300      0.000 
      44      0.000      0.000      0.300      0.000 
      45      0.000      0.000      0.300      0.000 
      46      0.000      0.000      0.300      0.000 
      47      0.000      0.000      0.300      0.000 
      48      0.000      0.000      0.300      0.000 
      49      0.000      0.000      0.300      0.000 
      50      1.300     -0.200      0.200      0.000 
      51      0.000      0.000      0.300      0.000 
      52      0.000      0.000      0.300      0.000 
      53      0.000      0.000      0.300      0.000 
      54      0.000      0.000      0.300      0.000 
      55      0.000      0.000      0.300      0.000 
      56      0.000      0.000      0.300      0.000 
      57      0.000      0.000      0.300      0.000 
      58      0.000      0.000      0.300      0.000 
      59      1.300     -0.200      0.200      0.000 
      60      0.000      0.000      0.300      0.000 
      61      0.000      0.000      0.300      0.000 
      62      0.000      0.000      0.300      0.000 
      63      0.000      0.000      0.300      0.000 
      64      0.000      0.000      0.300      0.000 
      65      1.300     -0.200      0.200      0.000 
      66      0.000      0.000      0.300      0.000 
      67      0.000      0.000      0.300      0.000 
      68      0.000      0.000      0.300      0.000 
      69      0.000      0.000      0.300      0.000 
      70      0.000      0.000      0.300      0.000 
      71      0.000      0.000      0.300      0.000 
      72      0.000      0.000      0.300      0.000 
      73      0.000      0.000      0.300      0.000 
      74      0.000      0.000      0.300      0.000 
      75      0.000      0.000      0.300      0.000 
      76      0.000      0.000      0.300      0.000 
      77      0.000      0.000      0.300      0.000 
      78      0.000      0.000      0.300      0.000 
      79      0.000      0.000      0.300      0.000 
      80      0.000      0.000      0.300      0.000 
      81      0.000      0.000      0.300      0.000 
      82      0.000      0.000      0.300      0.000 
      83      0.000      0.000      0.300      0.000 
      84      0.000      0.000      0.300      0.000 
      85      0.000      0.000      0.300      0.000 
      86      0.000      0.000      0.300      0.000 
      87      0.000      0.000      0.300      0.000 
      88      0.000      0.000      0.300      0.000 
      89      0.000      0.000      0.300      0.000 
      90      0.000      0.000      0.300      0.000 
      91      0.000      0.000      0.300      0.000 
      92      0.000      0.000      0.300      0.000 
      93      0.000      0.000      0.300      0.000 
      94      0.000      0.000      0.300      0.000 
      95      0.000      0.000      0.300      0.000 
      96      0.000      0.000      0.300      0.000 
      97      0.000      0.000      0.300      0.000 
      98      0.000      0.000      0.300      0.000 
      99      0.000      0.000      0.300      0.000 
     100      0.000      0.000      0.300      0.000 
     101      1.300     -0.200      0.200      0.000 
     102      0.000      0.000      0.300      0.000 
     103      0.000      0.000      0.300      0.000 
     104      0.000      0.000      0.300      0.000 
     105      0.000      0.000      0.300      0.000 
     106      0.000      0.000      0.300      0.000 
     107      0.000      0.000      0.300      0.000 
     108      0.000      0.000      0.300      0.000 
     109      1.300     -0.200      0.200      0.000 
     110      0.000      0.000      0.300      0.000 
     111      0.000      0.000      0.300      0.000 
     112      0.000      0.000      0.300      0.000 
     113      0.000      0.000      0.300      0.000 
     114      0.000      0.000      0.300      0.000 
     115      0.000      0.000      0.300      0.000 
     116      0.000      0.000      0.300      0.000 
     117      0.000      0.000      0.300      0.000 
     118      0.000      0.000      0.300      0.000 
     119      0.000      0.000      0.300      0.000 
     120      0.000      0.000      0.300      0.000 
     121      0.000      0.000      0.300      0.000 
     122      0.000      0.000      0.300      0.000 
     123      0.000      0.000      0.300      0.000 
     124      0.000      0.000      0.300      0.000 
     125      1.300     -0.200      0.200      0.000 
     126      0.000      0.000      0.300      0.000 

Improper Coeffs 

       1      0.000      -1       2 
       2      0.000      -1       2 
       3      0.000      -1       2 
       4      0.000      -1       2 
       5      0.000      -1       2 
       6      0.000      -1       2 
       7      0.000      -1       2 
       8      0.000      -1       2 
       9      0.000      -1       2 
      10      0.000      -1       2 
      11      0.000      -1       2 
      12      0.000      -1       2 
      13      0.000      -1       2 
      14      0.000      -1       2 
      15      0.000      -1       2 
      16      0.000      -1       2 
      17      0.000      -1       2 
      18      0.000      -1       2 
      19      0.000      -1       2 
      20      0.000      -1       2 
      21      0.000      -1       2 
      22      0.000      -1       2 
      23      0.000      -1       2 
      24      0.000      -1       2 
      25      0.000      -1       2 
      26      0.000      -1       2 
      27      0.000      -1       2 
      28      0.000      -1       2 

Atoms 

     1      1      1 -0.23360000    1.000  1.00000  0.00000
     2      1      2 -0.11270000   -0.531  1.00000  0.00000
     3      1      3 -0.23320000   -1.041  1.00000  1.44370
     4      1      4 -0.10160000   -1.137  2.11646 -0.90881
     5      1      5 -0.17160000   -2.692  2.03574 -0.92921
     6      1      6 -0.17510000   -3.309  2.54757 -2.24407
     7      1      7 -0.17330000   -3.821  3.99364 -2.19965
     8      1      8 -0.17430000   -3.639  4.73974 -3.52874
     9      1      9 -0.17320000   -2.175  4.99441 -3.91844
    10      1     10 -0.17310000   -1.481  6.03239 -3.03058
    11      1     11 -0.17370000    0.045  5.88283 -3.03263
    12      1     12 -0.17550000    0.646  5.47126 -1.67651
    13      1     13 -0.17340000    0.574  3.96578 -1.38087
    14      1     14 -0.16980000   -0.654  3.55165 -0.57746
    15      1     15 0.08090000    1.384  0.10588  0.50444
    16      1     16 0.08090000    1.404  1.86793  0.52996
    17      1     17 0.08090000    1.392  0.99636 -1.02186
    18      1     18 0.08870000   -0.837  0.03941 -0.43850
    19      1     19 0.08040000   -0.750  1.90794  1.97956
    20      1     20 0.08040000   -0.626  0.14427  1.98946
    21      1     21 0.08040000   -2.130  0.90713  1.48598
    22      1     22 0.09410000   -0.804  1.87074 -1.92405
    23      1     23 0.08910000   -3.126  2.54965 -0.06396
    24      1     24 0.08910000   -2.979  0.97974 -0.84451
    25      1     25 0.08640000   -4.174  1.91559 -2.47729
    26      1     26 0.08640000   -2.607  2.38542 -3.06777
    27      1     27 0.08670000   -3.372  4.56452 -1.38235
    28      1     28 0.08670000   -4.894  3.96439 -1.96805
    29      1     29 0.08600000   -4.171  5.69959 -3.47415
    30      1     30 0.08600000   -4.123  4.15952 -4.32544
    31      1     31 0.08780000   -2.156  5.36127 -4.95345
    32      1     32 0.08780000   -1.620  4.05317 -3.92069
    33      1     33 0.08730000   -1.866  6.02222 -2.00844
    34      1     34 0.08730000   -1.735  7.02478 -3.42524
    35      1     35 0.08590000    0.471  6.86117 -3.28994
    36      1     36 0.08590000    0.380  5.19440 -3.81783
    37      1     37 0.08600000    0.206  6.05738 -0.86061
    38      1     38 0.08600000    1.709  5.74221 -1.70977
    39      1     39 0.08640000    1.463  3.70196 -0.79600
    40      1     40 0.08640000    0.645  3.40875 -2.32099
    41      1     41 0.09190000   -1.453  4.26322 -0.76922
    42      1     42 0.09190000   -0.439  3.65032  0.49277

Bonds 

     1      1      2      1
     2      2      3      2
     3      3      4      2
     4      4      5      4
     5      5      6      5
     6      6      7      6
     7      7      8      7
     8      8      9      8
     9      9     10      9
    10     10     11     10
    11     11     12     11
    12     12     13     12
    13     13     14      4
    14     14     15      1
    15     15     16      1
    16     16     17      1
    17     17     18      2
    18     18     19      3
    19     19     20      3
    20     20     21      3
    21     21     22      4
    22     22     23      5
    23     23     24      5
    24     24     25      6
    25     25     26      6
    26     26     27      7
    27     27     28      7
    28     28     29      8
    29     29     30      8
    30     30     31      9
    31     31     32      9
    32     32     33     10
    33     33     34     10
    34     34     35     11
    35     35     36     11
    36     36     37     12
    37     37     38     12
    38     38     39     13
    39     39     40     13
    40     40     41     14
    41     41     42     14
    42     42     14     13

Angles 

     1      1      1      2      3
     2      2      1      2      4
     3      3      2      4      5
     4      4      4      5      6
     5      5      5      6      7
     6      6      6      7      8
     7      7      7      8      9
     8      8      8      9     10
     9      9      9     10     11
    10     10     10     11     12
    11     11     11     12     13
    12     12      2      4     14
    13     13      2      1     15
    14     14      2      1     16
    15     15      2      1     17
    16     16      1      2     18
    17     17      2      3     19
    18     18      2      3     20
    19     19      2      3     21
    20     20      2      4     22
    21     21      4      5     23
    22     22      4      5     24
    23     23      5      6     25
    24     24      5      6     26
    25     25      6      7     27
    26     26      6      7     28
    27     27      7      8     29
    28     28      7      8     30
    29     29      8      9     31
    30     30      8      9     32
    31     31      9     10     33
    32     32      9     10     34
    33     33     10     11     35
    34     34     10     11     36
    35     35     11     12     37
    36     36     11     12     38
    37     37     12     13     39
    38     38     12     13     40
    39     39      4     14     41
    40     40      4     14     42
    41     41     25      6     26
    42     42      8      7     28
    43     43     39     13     40
    44     44      8      7     27
    45     45      6      5     24
    46     46      5      4     14
    47     47      9      8     30
    48     48     13     12     37
    49     49      3      2     18
    50     50     29      8     30
    51     51     11     10     33
    52     52     41     14     42
    53     53     13     14     41
    54     54      7      6     25
    55     55      9      8     29
    56     56     35     11     36
    57     57     14     13     39
    58     58     12     11     36
    59     59     12     13     14
    60     60     16      1     17
    61     61     14      4     22
    62     62     13     12     38
    63     63     15      1     16
    64     64      7      6     26
    65     65     19      3     21
    66     66     14     13     40
    67     67      5      4     22
    68     68      3      2      4
    69     69     10      9     31
    70     70     19      3     20
    71     71     15      1     17
    72     72     11     10     34
    73     73     33     10     34
    74     74     31      9     32
    75     75      6      5     23
    76     76      4      2     18
    77     77      4     14     13
    78     78     23      5     24
    79     79     10      9     32
    80     80     27      7     28
    81     81     37     12     38
    82     82     12     11     35
    83     83     20      3     21
    84     84     13     14     42

Dihedrals

     1      1      5      4      2      1 
     2      2      6      5      4      2 
     3      3      7      6      5      4 
     4      4      8      7      6      5 
     5      5      9      8      7      6 
     6      6     10      9      8      7 
     7      7     11     10      9      8 
     8      8     12     11     10      9 
     9      9     13     12     11     10 
    10     10     15      1      2      3 
    11     11     19      3      2      1 
    12     12     35     11     10     33 
    13     13     39     13     12     38 
    14     14     40     13     12     37 
    15     15     28      7      8      9 
    16     16     36     11     12     13 
    17     17     28      7      6     25 
    18     18     27      7      6     26 
    19     19     28      7      6     26 
    20     20     41     14      4      2 
    21     21     34     10      9     31 
    22     22     33     10      9     32 
    23     23     40     13     14      4 
    24     24     36     11     10     33 
    25     25     21      3      2     18 
    26     26     34     10     11     12 
    27     27     23      5      4     22 
    28     28     30      8      9     10 
    29     29     28      7      6      5 
    30     30     42     14     13     12 
    31     31     25      6      7      8 
    32     32     19      3      2      4 
    33     33     34     10      9     32 
    34     34     42     14     13     39 
    35     35     13     14      4      5 
    36     36     23      5      6      7 
    37     37     18      2      4     14 
    38     38     29      8      7     27 
    39     39     18      2      1     15 
    40     40     14      4      2      1 
    41     41     30      8      7     27 
    42     42     29      8      7     28 
    43     43     27      7      8      9 
    44     44     30      8      7      6 
    45     45     35     11     10      9 
    46     46     37     12     11     10 
    47     47     25      6      5     23 
    48     48     33     10      9     31 
    49     49     41     14      4     22 
    50     50      5      4      2      3 
    51     51     38     12     11     36 
    52     52     26      6      5      4 
    53     53     39     13     12     37 
    54     54     24      5      4     14 
    55     55     42     14      4      5 
    56     56     20      3      2      1 
    57     57     20      3      2     18 
    58     58     38     12     13     14 
    59     59     12     13     14      4 
    60     60     22      4      2     18 
    61     61     32      9     10     11 
    62     62     40     13     12     38 
    63     63     23      5      4      2 
    64     64     17      1      2      4 
    65     65     14     13     12     11 
    66     66     22      4      2      1 
    67     67     18      2      4      5 
    68     68     32      9      8     30 
    69     69     35     11     10     34 
    70     70     24      5      6      7 
    71     71     24      5      4      2 
    72     72     41     14     13     12 
    73     73     37     12     11     35 
    74     74     18      2      1     17 
    75     75     34     10      9      8 
    76     76     31      9     10     11 
    77     77     29      8      9     10 
    78     78     22      4      2      3 
    79     79     26      6      5     24 
    80     80     31      9      8     30 
    81     81     33     10      9      8 
    82     82     41     14     13     40 
    83     83     26      6      5     23 
    84     84     25      6      5     24 
    85     85     27      7      6     25 
    86     86     32      9      8      7 
    87     87     31      9      8     29 
    88     88     20      3      2      4 
    89     89     27      7      6      5 
    90     90     16      1      2      4 
    91     91     17      1      2      3 
    92     92     25      6      5      4 
    93     93     21      3      2      4 
    94     94     33     10     11     12 
    95     95     30      8      7     28 
    96     96     24      5      4     22 
    97     97     23      5      4     14 
    98     98     37     12     13     14 
    99     99     29      8      7      6 
   100    100     42     14      4      2 
   101    101     14      4      2      3 
   102    102     26      6      7      8 
   103    103     19      3      2     18 
   104    104     36     11     10     34 
   105    105     22      4     14     13 
   106    106     31      9      8      7 
   107    107     36     11     10      9 
   108    108     38     12     11     10 
   109    109     13     14      4      2 
   110    110     35     11     12     13 
   111    111     21      3      2      1 
   112    112     22      4      5      6 
   113    113     41     14      4      5 
   114    114     39     13     12     11 
   115    115     32      9      8     29 
   116    116     15      1      2      4 
   117    117     16      1      2      3 
   118    118     38     12     11     35 
   119    119     40     13     12     11 
   120    120     39     13     14      4 
   121    121     41     14     13     39 
   122    122     42     14      4     22 
   123    123     18      2      1     16 
   124    124     42     14     13     40 
   125    125     14      4      5      6 
   126    126     37     12     11     36 

Impropers

     1      1      2      1      3      4 
     2      2      4      2      5     14 
     3      3      1      2     15     16 
     4      4      1     17     15      2 
     5      5      2      1     18      3 
     6      6      3      2     20     19 
     7      7      3      2     21     19 
     8      8      4      2      5     22 
     9      9      5      4      6     23 
    10     10      5      4      6     24 
    11     11      6     25      5      7 
    12     12      6     26      5      7 
    13     13      7     27      6      8 
    14     14      7     28      6      8 
    15     15      8      9     29      7 
    16     16      8      9     30      7 
    17     17      9     10     31      8 
    18     18      9     10      8     32 
    19     19     10     33     11      9 
    20     20     10      9     34     11 
    21     21     11     10     35     12 
    22     22     11     12     10     36 
    23     23     12     13     11     37 
    24     24     12     11     13     38 
    25     25     13     12     14     39 
    26     26     13     12     14     40 
    27     27     14     41      4     13 
    28     28     14     42      4     13 

