LAMMPS data file Created by LigParGen - (Written by Leela S. Dodda)

      24 atoms
      23 bonds
      41 angles
      51 dihedrals
      13 impropers
 
      24 atom types
      23 bond types
      41 angle types
      51 dihedral types
      13 improper types
 
   -5.251550    44.748450 xlo xhi
   -1.028900    48.971100 ylo yhi
   -1.025980    48.974020 zlo zhi

Masses

       1     12.011  
       2     12.011  
       3     12.011  
       4     12.011  
       5     12.011  
       6     12.011  
       7     15.999  
       8     15.999  
       9     12.011  
      10     15.999  
      11     35.450  
      12      1.008  
      13      1.008  
      14      1.008  
      15      1.008  
      16      1.008  
      17      1.008  
      18      1.008  
      19      1.008  
      20      1.008  
      21      1.008  
      22      1.008  
      23      1.008  
      24      1.008  

Pair Coeffs 

       1      0.066  3.5000000 
       2      0.066  3.5000000 
       3      0.066  3.5000000 
       4      0.066  3.5000000 
       5      0.066  3.5000000 
       6      0.066  3.5000000 
       7      0.140  2.9000000 
       8      0.140  2.9000000 
       9      0.070  3.5500000 
      10      0.210  2.9600000 
      11      0.300  3.4000000 
      12      0.030  2.5000000 
      13      0.030  2.5000000 
      14      0.030  2.5000000 
      15      0.030  2.5000000 
      16      0.030  2.5000000 
      17      0.030  2.5000000 
      18      0.030  2.5000000 
      19      0.030  2.5000000 
      20      0.030  2.5000000 
      21      0.030  2.5000000 
      22      0.030  2.5000000 
      23      0.030  2.5000000 
      24      0.030  2.5000000 

Bond Coeffs 

       1   268.0000     1.5290 
       2   268.0000     1.5290 
       3   268.0000     1.5290 
       4   268.0000     1.5290 
       5   268.0000     1.5290 
       6   320.0000     1.4100 
       7   250.0000     1.4700 
       8   214.0000     1.3270 
       9   570.0000     1.2290 
      10   300.0000     1.7900 
      11   340.0000     1.0900 
      12   340.0000     1.0900 
      13   340.0000     1.0900 
      14   340.0000     1.0900 
      15   340.0000     1.0900 
      16   340.0000     1.0900 
      17   340.0000     1.0900 
      18   340.0000     1.0900 
      19   340.0000     1.0900 
      20   340.0000     1.0900 
      21   340.0000     1.0900 
      22   340.0000     1.0900 
      23   340.0000     1.0900 

Angle Coeffs 

       1     58.350    112.700
       2     58.350    112.700
       3     58.350    112.700
       4     58.350    112.700
       5     50.000    109.500
       6     69.510    114.540
       7     69.510    114.540
       8     83.000    123.400
       9     69.900    118.180
      10     37.500    110.700
      11     37.500    110.700
      12     37.500    110.700
      13     37.500    110.700
      14     37.500    110.700
      15     37.500    110.700
      16     37.500    110.700
      17     37.500    110.700
      18     37.500    110.700
      19     37.500    110.700
      20     37.500    110.700
      21     37.500    110.700
      22     37.500    110.700
      23     37.500    110.700
      24     33.000    107.800
      25     33.000    107.800
      26     33.000    107.800
      27     50.000    109.500
      28     33.000    107.800
      29     37.500    110.700
      30     37.500    110.700
      31     33.000    107.800
      32     37.500    110.700
      33     33.000    107.800
      34     37.500    110.700
      35     33.000    107.800
      36     37.500    110.700
      37     75.000    119.000
      38     35.000    109.500
      39     37.500    110.700
      40     33.000    107.800
      41     33.000    107.800

Dihedral Coeffs  

       1      1.300     -0.200      0.200      0.000 
       2      1.300     -0.200      0.200      0.000 
       3      1.300     -0.200      0.200      0.000 
       4      0.650     -0.250      0.670      0.000 
       5     -1.220     -0.126      0.422      0.000 
       6      0.000      5.124      0.000      0.000 
       7      0.000      0.000      0.300      0.000 
       8      0.000      0.000      0.300      0.000 
       9      0.000      0.000      0.300      0.000 
      10      0.000      0.000      0.300      0.000 
      11      0.000      0.000      0.300      0.000 
      12      0.000      0.000      0.300      0.000 
      13      0.000      0.000      0.468      0.000 
      14      0.000      0.000      0.300      0.000 
      15      0.000      0.000      0.300      0.000 
      16      0.000      0.000      0.300      0.000 
      17      0.000      0.000      0.300      0.000 
      18      0.000      0.000      0.300      0.000 
      19      0.000      0.000      0.300      0.000 
      20      0.000      0.000      0.300      0.000 
      21      0.000      0.000      0.300      0.000 
      22      0.000      0.000      0.300      0.000 
      23      0.000      0.000      0.300      0.000 
      24      0.000      0.000      0.300      0.000 
      25      0.000      0.000      0.300      0.000 
      26      0.000      0.000      0.300      0.000 
      27      0.000      0.000      0.760      0.000 
      28      0.000      0.000      0.300      0.000 
      29      0.000      0.000      0.300      0.000 
      30      0.000      0.000      0.468      0.000 
      31      0.000      0.000      0.300      0.000 
      32      0.000      0.000      0.300      0.000 
      33      0.000      0.000      0.300      0.000 
      34      0.000      0.000      0.300      0.000 
      35      0.000      0.000      0.300      0.000 
      36      0.000      0.000      0.300      0.000 
      37      0.000      0.000      0.468      0.000 
      38      0.000      0.000      0.300      0.000 
      39      0.000      0.000      0.300      0.000 
      40      0.000      0.000      0.300      0.000 
      41      0.000      0.000      0.300      0.000 
      42      0.000      0.000      0.300      0.000 
      43      4.669      5.124      0.000      0.000 
      44      0.000      0.000      0.468      0.000 
      45      0.650     -0.250      0.670      0.000 
      46      1.711     -0.500      0.663      0.000 
      47      0.000      0.000      0.300      0.000 
      48      1.711     -0.500      0.663      0.000 
      49      0.000      0.000      0.300      0.000 
      50      0.000      0.000      0.300      0.000 
      51      0.000      0.000      0.300      0.000 

Improper Coeffs 

       1      0.000      -1       2 
       2     10.500      -1       2 
       3      0.000      -1       2 
       4      0.000      -1       2 
       5      0.000      -1       2 
       6      0.000      -1       2 
       7      0.000      -1       2 
       8      0.000      -1       2 
       9      0.000      -1       2 
      10      0.000      -1       2 
      11      0.000      -1       2 
      12      0.000      -1       2 
      13      0.000      -1       2 

Atoms 

     1      1      1 -0.23980000    1.000  1.00000  0.00000
     2      1      2 -0.17350000   -0.522  1.00000  0.00000
     3      1      3 -0.20960000   -1.060  1.00000  1.42921
     4      1      4 0.03550000   -2.594  1.09006  1.54545
     5      1      5 -0.17610000   -3.293 -0.11469  0.89300
     6      1      6 -0.24890000   -4.814 -0.02313  0.93550
     7      1      7 -0.13810000   -2.951  1.07970  2.94096
     8      1      8 -0.18050000   -2.358  2.27868  3.53912
     9      1      9 0.46000000   -3.372  3.06842  4.03669
    10      1     10 -0.36150000   -4.560  2.78806  3.92211
    11      1     11 -0.03680000   -2.768  4.49516  4.83560
    12      1     12 0.08480000    1.380  0.99870 -1.02598
    13      1     13 0.08480000    1.389  0.11196  0.50912
    14      1     14 0.08480000    1.392  1.88687  0.50819
    15      1     15 0.09050000   -0.866  0.11486 -0.54352
    16      1     16 0.09050000   -0.884  1.88341 -0.53819
    17      1     17 0.10820000   -0.611  1.84797  1.96111
    18      1     18 0.10820000   -0.711  0.10558  1.96094
    19      1     19 0.11760000   -2.959  2.02068  1.09315
    20      1     20 0.11070000   -2.994 -1.02890  1.42053
    21      1     21 0.11070000   -2.993 -0.22296 -0.15436
    22      1     22 0.09280000   -5.184  0.28263  1.91802
    23      1     23 0.09280000   -5.252 -0.99937  0.70062
    24      1     24 0.09280000   -5.177  0.69380  0.19217

Bonds 

     1      1      2      1
     2      2      3      2
     3      3      4      3
     4      4      5      4
     5      5      6      5
     6      6      7      4
     7      7      8      7
     8      8      9      8
     9      9     10      9
    10     10     11      9
    11     11     12      1
    12     12     13      1
    13     13     14      1
    14     14     15      2
    15     15     16      2
    16     16     17      3
    17     17     18      3
    18     18     19      4
    19     19     20      5
    20     20     21      5
    21     21     22      6
    22     22     23      6
    23     23     24      6

Angles 

     1      1      1      2      3
     2      2      2      3      4
     3      3      3      4      5
     4      4      4      5      6
     5      5      3      4      7
     6      6      4      7      8
     7      7      7      8      9
     8      8      8      9     10
     9      9      8      9     11
    10     10      2      1     12
    11     11      2      1     13
    12     12      2      1     14
    13     13      1      2     15
    14     14      1      2     16
    15     15      2      3     17
    16     16      2      3     18
    17     17      3      4     19
    18     18      4      5     20
    19     19      4      5     21
    20     20      5      6     22
    21     21      5      6     23
    22     22      5      6     24
    23     23      3      2     15
    24     24     13      1     14
    25     25     22      6     24
    26     26     15      2     16
    27     27      5      4      7
    28     28     12      1     14
    29     29      3      2     16
    30     30      4      3     18
    31     31     12      1     13
    32     32      6      5     20
    33     33     22      6     23
    34     34      5      4     19
    35     35     23      6     24
    36     36      6      5     21
    37     37     10      9     11
    38     38      7      4     19
    39     39      4      3     17
    40     40     17      3     18
    41     41     20      5     21

Dihedrals

     1      1      4      3      2      1 
     2      2      5      4      3      2 
     3      3      6      5      4      3 
     4      4      8      7      4      3 
     5      5      9      8      7      4 
     6      6     10      9      8      7 
     7      7     12      1      2      3 
     8      8     22      6      5      4 
     9      9     16      2      3      4 
    10     10     18      3      2     16 
    11     11     21      5      4     19 
    12     12     15      2      3      4 
    13     13     18      3      4      7 
    14     14     18      3      2      1 
    15     15     15      2      1     12 
    16     16     17      3      2     16 
    17     17     18      3      2     15 
    18     18     24      6      5     20 
    19     19     20      5      4      3 
    20     20     20      5      4     19 
    21     21     22      6      5     20 
    22     22     22      6      5     21 
    23     23     24      6      5     21 
    24     24     18      3      4      5 
    25     25     23      6      5     21 
    26     26     24      6      5      4 
    27     27     19      4      7      8 
    28     28     15      2      1     14 
    29     29     13      1      2      3 
    30     30     20      5      4      7 
    31     31     19      4      3     18 
    32     32     19      4      3      2 
    33     33     23      6      5      4 
    34     34     17      3      2     15 
    35     35     17      3      4      5 
    36     36     17      3      2      1 
    37     37     17      3      4      7 
    38     38     16      2      1     13 
    39     39     19      4      5      6 
    40     40     14      1      2      3 
    41     41     19      4      3     17 
    42     42     21      5      4      3 
    43     43     11      9      8      7 
    44     44     21      5      4      7 
    45     45      8      7      4      5 
    46     46      7      4      3      2 
    47     47     16      2      1     14 
    48     48      7      4      5      6 
    49     49     23      6      5     20 
    50     50     15      2      1     13 
    51     51     16      2      1     12 

Impropers

     1      1      4      3      5      7 
     2      2      9     10     11      8 
     3      3      1      2     12     13 
     4      4      1      2     12     14 
     5      5      2      1      3     15 
     6      6      2      1      3     16 
     7      7      3     17      2      4 
     8      8      3     18      4      2 
     9      9      4     19      5      3 
    10     10      5      4     20      6 
    11     11      5      4     21      6 
    12     12      6      5     23     22 
    13     13      6     22      5     24 

