LAMMPS data file Created by LigParGen - (Written by Leela S. Dodda)

      48 atoms
      47 bonds
      91 angles
     129 dihedrals
      30 impropers
 
      48 atom types
      47 bond types
      91 angle types
     129 dihedral types
      30 improper types
 
   -8.423210    41.576790 xlo xhi
   -2.238420    47.761580 ylo yhi
   -3.893830    46.106170 zlo zhi

Masses

       1     12.011  
       2     12.011  
       3     12.011  
       4     12.011  
       5     12.011  
       6     12.011  
       7     12.011  
       8     12.011  
       9     12.011  
      10     12.011  
      11     12.011  
      12     12.011  
      13     14.007  
      14     12.011  
      15     12.011  
      16     12.011  
      17     12.011  
      18      1.008  
      19      1.008  
      20      1.008  
      21      1.008  
      22      1.008  
      23      1.008  
      24      1.008  
      25      1.008  
      26      1.008  
      27      1.008  
      28      1.008  
      29      1.008  
      30      1.008  
      31      1.008  
      32      1.008  
      33      1.008  
      34      1.008  
      35      1.008  
      36      1.008  
      37      1.008  
      38      1.008  
      39      1.008  
      40      1.008  
      41      1.008  
      42      1.008  
      43      1.008  
      44      1.008  
      45      1.008  
      46      1.008  
      47      1.008  
      48      1.008  

Pair Coeffs 

       1      0.066  3.5000000 
       2      0.066  3.5000000 
       3      0.066  3.5000000 
       4      0.066  3.5000000 
       5      0.066  3.5000000 
       6      0.066  3.5000000 
       7      0.066  3.5000000 
       8      0.066  3.5000000 
       9      0.066  3.5000000 
      10      0.066  3.5000000 
      11      0.066  3.5000000 
      12      0.066  3.3000000 
      13      0.170  3.2000000 
      14      0.066  3.5000000 
      15      0.066  3.5000000 
      16      0.066  3.5000000 
      17      0.066  3.5000000 
      18      0.030  2.5000000 
      19      0.030  2.5000000 
      20      0.030  2.5000000 
      21      0.030  2.5000000 
      22      0.030  2.5000000 
      23      0.030  2.5000000 
      24      0.030  2.5000000 
      25      0.030  2.5000000 
      26      0.030  2.5000000 
      27      0.030  2.5000000 
      28      0.030  2.5000000 
      29      0.030  2.5000000 
      30      0.030  2.5000000 
      31      0.030  2.5000000 
      32      0.030  2.5000000 
      33      0.030  2.5000000 
      34      0.030  2.5000000 
      35      0.030  2.5000000 
      36      0.030  2.5000000 
      37      0.030  2.5000000 
      38      0.030  2.5000000 
      39      0.030  2.5000000 
      40      0.030  2.5000000 
      41      0.030  2.5000000 
      42      0.030  2.5000000 
      43      0.030  2.5000000 
      44      0.030  2.5000000 
      45      0.030  2.5000000 
      46      0.030  2.5000000 
      47      0.030  2.5000000 
      48      0.030  2.5000000 

Bond Coeffs 

       1   268.0000     1.5290 
       2   268.0000     1.5290 
       3   268.0000     1.5290 
       4   268.0000     1.5290 
       5   268.0000     1.5290 
       6   268.0000     1.5290 
       7   268.0000     1.5290 
       8   268.0000     1.5290 
       9   268.0000     1.5290 
      10   268.0000     1.5290 
      11   390.0000     1.4700 
      12   650.0000     1.1570 
      13   268.0000     1.5290 
      14   268.0000     1.5290 
      15   268.0000     1.5290 
      16   268.0000     1.5290 
      17   340.0000     1.0900 
      18   340.0000     1.0900 
      19   340.0000     1.0900 
      20   340.0000     1.0900 
      21   340.0000     1.0900 
      22   340.0000     1.0900 
      23   340.0000     1.0900 
      24   340.0000     1.0900 
      25   340.0000     1.0900 
      26   340.0000     1.0900 
      27   340.0000     1.0900 
      28   340.0000     1.0900 
      29   340.0000     1.0900 
      30   340.0000     1.0900 
      31   340.0000     1.0900 
      32   340.0000     1.0900 
      33   340.0000     1.0900 
      34   340.0000     1.0900 
      35   340.0000     1.0900 
      36   340.0000     1.0900 
      37   340.0000     1.0900 
      38   340.0000     1.0900 
      39   340.0000     1.0900 
      40   340.0000     1.0900 
      41   340.0000     1.0900 
      42   340.0000     1.0900 
      43   340.0000     1.0900 
      44   340.0000     1.0900 
      45   340.0000     1.0900 
      46   340.0000     1.0900 
      47   340.0000     1.0900 

Angle Coeffs 

       1     58.350    112.700
       2     58.350    112.700
       3     58.350    112.700
       4     58.350    112.700
       5     58.350    112.700
       6     58.350    112.700
       7     58.350    112.700
       8     58.350    112.700
       9     58.350    112.700
      10     58.350    112.700
      11    150.000    180.000
      12     58.350    112.700
      13     58.350    112.700
      14     58.350    112.700
      15     58.350    112.700
      16     37.500    110.700
      17     37.500    110.700
      18     37.500    110.700
      19     37.500    110.700
      20     37.500    110.700
      21     37.500    110.700
      22     37.500    110.700
      23     37.500    110.700
      24     37.500    110.700
      25     37.500    110.700
      26     37.500    110.700
      27     37.500    110.700
      28     37.500    110.700
      29     37.500    110.700
      30     37.500    110.700
      31     37.500    110.700
      32     37.500    110.700
      33     37.500    110.700
      34     37.500    110.700
      35     37.500    110.700
      36     37.500    110.700
      37     37.500    110.700
      38     37.500    110.700
      39     37.500    110.700
      40     37.500    110.700
      41     37.500    110.700
      42     37.500    110.700
      43     37.500    110.700
      44     37.500    110.700
      45     37.500    110.700
      46     37.500    110.700
      47     33.000    107.800
      48     58.350    112.700
      49     33.000    107.800
      50     37.500    110.700
      51     37.500    110.700
      52     33.000    107.800
      53     37.500    110.700
      54     58.350    112.700
      55     33.000    107.800
      56     35.000    108.500
      57     33.000    107.800
      58     33.000    107.800
      59     33.000    107.800
      60     37.500    110.700
      61     33.000    107.800
      62     58.350    112.700
      63     37.500    110.700
      64     33.000    107.800
      65     33.000    107.800
      66     35.000    108.500
      67     37.500    110.700
      68     37.500    110.700
      69     33.000    107.800
      70     37.500    110.700
      71     33.000    107.800
      72     33.000    107.800
      73     37.500    110.700
      74     37.500    110.700
      75     33.000    107.800
      76     33.000    107.800
      77     33.000    107.800
      78     33.000    107.800
      79     37.500    110.700
      80     33.000    107.800
      81     33.000    107.800
      82     33.000    107.800
      83     58.350    112.700
      84     37.500    110.700
      85     37.500    110.700
      86     37.500    110.700
      87     33.000    107.800
      88     58.350    112.700
      89     58.350    112.700
      90     33.000    107.800
      91     33.000    107.800

Dihedral Coeffs  

       1      1.300     -0.200      0.200      0.000 
       2      1.300     -0.200      0.200      0.000 
       3      1.300     -0.200      0.200      0.000 
       4      1.300     -0.200      0.200      0.000 
       5      1.300     -0.200      0.200      0.000 
       6      0.000     -0.650      0.000      0.000 
       7      0.000      0.000      0.000      0.000 
       8      1.300     -0.200      0.200      0.000 
       9      1.300     -0.200      0.200      0.000 
      10      0.000      0.000      0.300      0.000 
      11      0.000      0.000      0.300      0.000 
      12      0.000      0.000      0.300      0.000 
      13      0.000      0.000      0.300      0.000 
      14      0.000      0.000      0.300      0.000 
      15      0.000      0.000      0.300      0.000 
      16      0.000      0.000      0.300      0.000 
      17      0.000      0.000      0.300      0.000 
      18      0.000      0.000      0.300      0.000 
      19      0.000      0.000      0.300      0.000 
      20      0.000      0.000      0.300      0.000 
      21      0.000      0.000      0.300      0.000 
      22      0.000      0.000      0.300      0.000 
      23      0.000      0.000      0.300      0.000 
      24      0.000      0.000      0.300      0.000 
      25      0.000      0.000      0.300      0.000 
      26      0.000      0.000      0.300      0.000 
      27      0.000      0.000      0.300      0.000 
      28      0.000      0.000      0.300      0.000 
      29      0.000      0.000      0.300      0.000 
      30      0.000      0.000      0.300      0.000 
      31      0.000      0.000      0.300      0.000 
      32      0.000      0.000      0.300      0.000 
      33      0.000      0.000      0.300      0.000 
      34      1.300     -0.200      0.200      0.000 
      35      0.000      0.000      0.300      0.000 
      36      0.000      0.000      0.300      0.000 
      37      0.000      0.000      0.300      0.000 
      38      0.000      0.000      0.300      0.000 
      39      1.300     -0.200      0.200      0.000 
      40      0.000      0.000      0.300      0.000 
      41      0.000      0.000      0.300      0.000 
      42      0.000      0.000      0.300      0.000 
      43      0.000      0.000      0.300      0.000 
      44      0.000      0.000      0.300      0.000 
      45      0.000      0.000      0.300      0.000 
      46      0.000      0.000      0.300      0.000 
      47      1.300     -0.200      0.200      0.000 
      48      0.000      0.000      0.300      0.000 
      49      0.000      0.000      0.300      0.000 
      50      1.300     -0.200      0.200      0.000 
      51      0.000      0.000      0.300      0.000 
      52      0.000      0.000      0.300      0.000 
      53      0.000      0.000      0.300      0.000 
      54      0.000      0.000      0.300      0.000 
      55      0.000      0.000      0.300      0.000 
      56      0.000      0.000      0.300      0.000 
      57      0.000      0.000      0.300      0.000 
      58      0.000      0.000      0.300      0.000 
      59      0.000      0.000      0.300      0.000 
      60      0.000      0.000      0.300      0.000 
      61      0.000      0.000      0.300      0.000 
      62      0.000      0.000      0.300      0.000 
      63      0.000      0.000      0.300      0.000 
      64      0.000      0.000      0.300      0.000 
      65      0.000      0.000      0.000      0.000 
      66      0.000      0.000      0.300      0.000 
      67      0.000      0.000      0.300      0.000 
      68      0.000      0.000      0.300      0.000 
      69      0.000      0.000      0.300      0.000 
      70      0.000      0.000      0.300      0.000 
      71      0.000      0.000      0.300      0.000 
      72      0.000      0.000      0.300      0.000 
      73      0.000      0.000      0.300      0.000 
      74      0.000      0.000      0.300      0.000 
      75      0.000      0.000      0.300      0.000 
      76      0.000      0.000      0.300      0.000 
      77      0.000      0.000      0.300      0.000 
      78      0.000      0.000      0.300      0.000 
      79      0.000      0.000      0.000      0.000 
      80      1.300     -0.200      0.200      0.000 
      81      0.000      0.000      0.300      0.000 
      82      0.000      0.000      0.300      0.000 
      83      0.000      0.000      0.300      0.000 
      84      0.000      0.000      0.300      0.000 
      85      0.000      0.000      0.300      0.000 
      86      1.300     -0.200      0.200      0.000 
      87      1.300     -0.200      0.200      0.000 
      88      0.000      0.000      0.300      0.000 
      89      0.000     -0.650      0.000      0.000 
      90      0.000      0.000      0.300      0.000 
      91      0.000      0.000      0.300      0.000 
      92      0.000      0.000      0.300      0.000 
      93      0.000      0.000      0.300      0.000 
      94      1.300     -0.200      0.200      0.000 
      95      1.300     -0.200      0.200      0.000 
      96      0.000      0.000      0.300      0.000 
      97      0.000      0.000      0.300      0.000 
      98      0.000      0.000      0.300      0.000 
      99      0.000      0.000      0.300      0.000 
     100      0.000      0.000      0.300      0.000 
     101      0.000      0.000      0.300      0.000 
     102      0.000      0.000      0.300      0.000 
     103      0.000      0.000      0.300      0.000 
     104      0.000      0.000      0.300      0.000 
     105      0.000      0.000      0.300      0.000 
     106      1.300     -0.200      0.200      0.000 
     107      0.000      0.000      0.300      0.000 
     108      0.000      0.000      0.300      0.000 
     109      0.000      0.000      0.300      0.000 
     110      0.000      0.000      0.300      0.000 
     111      0.000      0.000      0.300      0.000 
     112      0.000      0.000      0.300      0.000 
     113      0.000      0.000      0.300      0.000 
     114      0.000      0.000      0.300      0.000 
     115      0.000      0.000      0.300      0.000 
     116      0.000      0.000      0.300      0.000 
     117      0.000      0.000      0.300      0.000 
     118      0.000     -0.650      0.000      0.000 
     119      0.000      0.000      0.300      0.000 
     120      1.300     -0.200      0.200      0.000 
     121      0.000      0.000      0.300      0.000 
     122      0.000      0.000      0.300      0.000 
     123      0.000      0.000      0.300      0.000 
     124      0.000      0.000      0.300      0.000 
     125      0.000      0.000      0.300      0.000 
     126      1.300     -0.200      0.200      0.000 
     127      0.000      0.000      0.300      0.000 
     128      0.000      0.000      0.300      0.000 
     129      0.000      0.000      0.300      0.000 

Improper Coeffs 

       1      0.000      -1       2 
       2      0.000      -1       2 
       3      0.000      -1       2 
       4      0.000      -1       2 
       5      0.000      -1       2 
       6      0.000      -1       2 
       7      0.000      -1       2 
       8      0.000      -1       2 
       9      0.000      -1       2 
      10      0.000      -1       2 
      11      0.000      -1       2 
      12      0.000      -1       2 
      13      0.000      -1       2 
      14      0.000      -1       2 
      15      0.000      -1       2 
      16      0.000      -1       2 
      17      0.000      -1       2 
      18      0.000      -1       2 
      19      0.000      -1       2 
      20      0.000      -1       2 
      21      0.000      -1       2 
      22      0.000      -1       2 
      23      0.000      -1       2 
      24      0.000      -1       2 
      25      0.000      -1       2 
      26      0.000      -1       2 
      27      0.000      -1       2 
      28      0.000      -1       2 
      29      0.000      -1       2 
      30      0.000      -1       2 

Atoms 

     1      1      1 -0.23850000    1.000  1.00000  0.00000
     2      1      2 -0.17330000   -0.523  1.00000  0.00000
     3      1      3 -0.10600000   -1.158  1.00000  1.40731
     4      1      4 -0.17330000   -0.605  2.11692  2.32910
     5      1      5 -0.23700000   -0.934  3.53928  1.89735
     6      1      6 -0.17460000   -2.705  1.08637  1.33094
     7      1      7 -0.10170000   -3.450 -0.06748  0.59866
     8      1      8 -0.24130000   -3.139 -1.40509  1.30077
     9      1      9 -0.02870000   -5.008  0.20917  0.42388
    10      1     10 -0.23730000   -5.692 -1.00747 -0.25161
    11      1     11 -0.03970000   -5.697  0.41182  1.82020
    12      1     12 0.13340000   -7.187  0.68019  1.68724
    13      1     13 -0.40430000   -8.423  0.90396  1.57806
    14      1     14 -0.16960000   -5.268  1.50580 -0.43235
    15      1     15 -0.10940000   -4.633  1.66704 -1.83246
    16      1     16 -0.23500000   -5.163  0.67957 -2.87326
    17      1     17 -0.24090000   -4.931  3.09149 -2.33292
    18      1     18 0.08150000    1.376  0.82742 -1.01315
    19      1     19 0.08150000    1.397  0.21141  0.64824
    20      1     20 0.08150000    1.400  1.96391  0.33504
    21      1     21 0.08770000   -0.845  0.10219 -0.53837
    22      1     22 0.08770000   -0.879  1.85841 -0.58064
    23      1     23 0.09460000   -0.882  0.05388  1.89057
    24      1     24 0.08750000    0.484  2.01305  2.41663
    25      1     25 0.08750000   -0.994  1.96584  3.34431
    26      1     26 0.08130000   -0.757  3.69918  0.83090
    27      1     27 0.08130000   -0.312  4.25121  2.45022
    28      1     28 0.08130000   -1.980  3.78036  2.11416
    29      1     29 0.08960000   -2.960  2.03414  0.84626
    30      1     30 0.08960000   -3.078  1.14587  2.36123
    31      1     31 0.10670000   -3.038 -0.15756 -0.41329
    32      1     32 0.08380000   -3.325 -1.34878  2.37749
    33      1     33 0.08380000   -2.089 -1.67722  1.15496
    34      1     34 0.08380000   -3.721 -2.23842  0.89612
    35      1     35 0.08930000   -5.815 -1.84128  0.44866
    36      1     36 0.08930000   -5.109 -1.38801 -1.09264
    37      1     37 0.08930000   -6.695 -0.75782 -0.61729
    38      1     38 0.12860000   -5.263  1.26798  2.34748
    39      1     39 0.12860000   -5.559 -0.47111  2.45442
    40      1     40 0.09310000   -4.961  2.37009  0.17238
    41      1     41 0.09310000   -6.351  1.63050 -0.56377
    42      1     42 0.09910000   -3.546  1.56642 -1.76904
    43      1     43 0.08240000   -6.238  0.50383 -2.75296
    44      1     44 0.08240000   -4.639 -0.27582 -2.80330
    45      1     45 0.08240000   -5.003  1.04544 -3.89383
    46      1     46 0.08290000   -6.010  3.27308 -2.40698
    47      1     47 0.08290000   -4.485  3.26649 -3.31881
    48      1     48 0.08290000   -4.509  3.83066 -1.64571

Bonds 

     1      1      2      1
     2      2      3      2
     3      3      4      3
     4      4      5      4
     5      5      6      3
     6      6      7      6
     7      7      8      7
     8      8      9      7
     9      9     10      9
    10     10     11      9
    11     11     12     11
    12     12     13     12
    13     13     14      9
    14     14     15     14
    15     15     16     15
    16     16     17     15
    17     17     18      1
    18     18     19      1
    19     19     20      1
    20     20     21      2
    21     21     22      2
    22     22     23      3
    23     23     24      4
    24     24     25      4
    25     25     26      5
    26     26     27      5
    27     27     28      5
    28     28     29      6
    29     29     30      6
    30     30     31      7
    31     31     32      8
    32     32     33      8
    33     33     34      8
    34     34     35     10
    35     35     36     10
    36     36     37     10
    37     37     38     11
    38     38     39     11
    39     39     40     14
    40     40     41     14
    41     41     42     15
    42     42     43     16
    43     43     44     16
    44     44     45     16
    45     45     46     17
    46     46     47     17
    47     47     48     17

Angles 

     1      1      1      2      3
     2      2      2      3      4
     3      3      3      4      5
     4      4      2      3      6
     5      5      3      6      7
     6      6      6      7      8
     7      7      6      7      9
     8      8      7      9     10
     9      9      7      9     11
    10     10      9     11     12
    11     11     11     12     13
    12     12      7      9     14
    13     13      9     14     15
    14     14     14     15     16
    15     15     14     15     17
    16     16      2      1     18
    17     17      2      1     19
    18     18      2      1     20
    19     19      1      2     21
    20     20      1      2     22
    21     21      2      3     23
    22     22      3      4     24
    23     23      3      4     25
    24     24      4      5     26
    25     25      4      5     27
    26     26      4      5     28
    27     27      3      6     29
    28     28      3      6     30
    29     29      6      7     31
    30     30      7      8     32
    31     31      7      8     33
    32     32      7      8     34
    33     33      9     10     35
    34     34      9     10     36
    35     35      9     10     37
    36     36      9     11     38
    37     37      9     11     39
    38     38      9     14     40
    39     39      9     14     41
    40     40     14     15     42
    41     41     15     16     43
    42     42     15     16     44
    43     43     15     16     45
    44     44     15     17     46
    45     45     15     17     47
    46     46     15     17     48
    47     47     43     16     45
    48     48     11      9     14
    49     49     32      8     34
    50     50      4      3     23
    51     51     15     14     40
    52     52     46     17     48
    53     53     16     15     42
    54     54     16     15     17
    55     55     35     10     36
    56     56     12     11     38
    57     57     18      1     19
    58     58     40     14     41
    59     59     24      4     25
    60     60      5      4     24
    61     61     27      5     28
    62     62      8      7      9
    63     63     15     14     41
    64     64     38     11     39
    65     65     44     16     45
    66     66     12     11     39
    67     67      5      4     25
    68     68      8      7     31
    69     69     21      2     22
    70     70     17     15     42
    71     71     47     17     48
    72     72     32      8     33
    73     73      6      3     23
    74     74      9      7     31
    75     75     33      8     34
    76     76     35     10     37
    77     77     43     16     44
    78     78     26      5     28
    79     79      7      6     29
    80     80     29      6     30
    81     81     18      1     20
    82     82     46     17     47
    83     83     10      9     14
    84     84      3      2     21
    85     85      7      6     30
    86     86      3      2     22
    87     87     26      5     27
    88     88      4      3      6
    89     89     10      9     11
    90     90     19      1     20
    91     91     36     10     37

Dihedrals

     1      1      4      3      2      1 
     2      2      5      4      3      2 
     3      3      7      6      3      2 
     4      4      8      7      6      3 
     5      5     10      9      7      6 
     6      6     12     11      9      7 
     7      7     13     12     11      9 
     8      8     15     14      9      7 
     9      9     16     15     14      9 
    10     10     18      1      2      3 
    11     11     26      5      4      3 
    12     12     32      8      7      6 
    13     13     35     10      9      7 
    14     14     43     16     15     14 
    15     15     46     17     15     14 
    16     16     34      8      7      6 
    17     17     34      8      7     31 
    18     18     36     10      9      7 
    19     19     35     10      9     11 
    20     20     30      6      3      2 
    21     21     38     11      9      7 
    22     22     24      4      3     23 
    23     23     19      1      2      3 
    24     24     29      6      7      9 
    25     25     31      7      9     14 
    26     26     35     10      9     14 
    27     27     39     11      9     10 
    28     28     23      3      6      7 
    29     29     28      5      4      3 
    30     30     47     17     15     16 
    31     31     45     16     15     14 
    32     32     23      3      4      5 
    33     33     38     11      9     14 
    34     34     10      9      7      8 
    35     35     37     10      9     11 
    36     36     40     14      9      7 
    37     37     38     11      9     10 
    38     38     45     16     15     42 
    39     39     11      9      7      6 
    40     40     47     17     15     42 
    41     41     23      3      2     22 
    42     42     23      3      2      1 
    43     43     26      5      4     24 
    44     44     34      8      7      9 
    45     45     21      2      3      6 
    46     46     40     14      9     10 
    47     47     14      9      7      6 
    48     48     30      6      7      8 
    49     49     47     17     15     14 
    50     50      9      7      6      3 
    51     51     22      2      1     20 
    52     52     36     10      9     11 
    53     53     44     16     15     14 
    54     54     31      7      6     29 
    55     55     25      4      3      6 
    56     56     22      2      3      6 
    57     57     39     11      9      7 
    58     58     39     11      9     14 
    59     59     27      5      4     25 
    60     60     28      5      4     24 
    61     61     48     17     15     14 
    62     62     43     16     15     17 
    63     63     40     14      9     11 
    64     64     41     14      9     10 
    65     65     38     11     12     13 
    66     66     48     17     15     16 
    67     67     40     14     15     16 
    68     68     42     15     14     40 
    69     69     33      8      7      6 
    70     70     44     16     15     42 
    71     71     42     15     14     41 
    72     72     29      6      3      4 
    73     73     21      2      1     20 
    74     74     22      2      1     19 
    75     75     37     10      9     14 
    76     76     30      6      3     23 
    77     77     33      8      7     31 
    78     78     21      2      1     19 
    79     79     39     11     12     13 
    80     80     11      9      7      8 
    81     81     32      8      7     31 
    82     82     30      6      7      9 
    83     83     29      6      7      8 
    84     84     24      4      3      2 
    85     85     37     10      9      7 
    86     86     14      9      7      8 
    87     87     15     14      9     10 
    88     88     25      4      3     23 
    89     89     12     11      9     10 
    90     90     41     14      9     11 
    91     91     45     16     15     17 
    92     92     32      8      7      9 
    93     93     29      6      3      2 
    94     94      6      3      4      5 
    95     95      7      6      3      4 
    96     96     36     10      9     14 
    97     97     31      7      9     10 
    98     98     23      3      2     21 
    99     99     21      2      3      4 
   100    100     42     15     14      9 
   101    101     33      8      7      9 
   102    102     20      1      2      3 
   103    103     41     14     15     16 
   104    104     40     14     15     17 
   105    105     28      5      4     25 
   106    106     17     15     14      9 
   107    107     41     14      9      7 
   108    108     31      7      6      3 
   109    109     46     17     15     42 
   110    110     29      6      3     23 
   111    111     27      5      4      3 
   112    112     30      6      3      4 
   113    113     22      2      3      4 
   114    114     22      2      1     18 
   115    115     24      4      3      6 
   116    116     43     16     15     42 
   117    117     31      7      6     30 
   118    118     14      9     11     12 
   119    119     44     16     15     17 
   120    120      6      3      2      1 
   121    121     25      4      3      2 
   122    122     46     17     15     16 
   123    123     31      7      9     11 
   124    124     26      5      4     25 
   125    125     27      5      4     24 
   126    126     15     14      9     11 
   127    127     48     17     15     42 
   128    128     21      2      1     18 
   129    129     41     14     15     17 

Impropers

     1      1      3      2      4      6 
     2      2      7      9      6      8 
     3      3      9     10     11      7 
     4      4      9     10     14      7 
     5      5     15     17     14     16 
     6      6      1      2     19     18 
     7      7      1      2     20     18 
     8      8      2      1      3     21 
     9      9      2      1      3     22 
    10     10      3      2      4     23 
    11     11      4      3      5     24 
    12     12      4     25      3      5 
    13     13      5     26     27      4 
    14     14      5      4     26     28 
    15     15      6      3     29      7 
    16     16      6      3     30      7 
    17     17      7      8     31      6 
    18     18      8     33     32      7 
    19     19      8     34     32      7 
    20     20     10      9     35     36 
    21     21     10      9     35     37 
    22     22     11      9     12     38 
    23     23     11      9     12     39 
    24     24     14      9     15     40 
    25     25     14     41      9     15 
    26     26     15     42     14     16 
    27     27     16     43     44     15 
    28     28     16     43     45     15 
    29     29     17     15     47     46 
    30     30     17     46     15     48 

