LAMMPS data file Created by LigParGen - (Written by Leela S. Dodda)

      22 atoms
      23 bonds
      48 angles
      70 dihedrals
      20 impropers
 
      22 atom types
      23 bond types
      48 angle types
      70 dihedral types
      20 improper types
 
   -3.182090    46.817910 xlo xhi
    0.104000    50.104000 ylo yhi
   -1.024360    48.975640 zlo zhi

Masses

       1     12.011  
       2     12.011  
       3     12.011  
       4     12.011  
       5     12.011  
       6     32.060  
       7     12.011  
       8     12.011  
       9      1.008  
      10      1.008  
      11      1.008  
      12      1.008  
      13      1.008  
      14      1.008  
      15      1.008  
      16      1.008  
      17      1.008  
      18      1.008  
      19      1.008  
      20      1.008  
      21      1.008  
      22      1.008  

Pair Coeffs 

       1      0.066  3.5000000 
       2      0.066  3.5000000 
       3      0.083  3.4500000 
       4      0.083  3.4500000 
       5      0.083  3.4500000 
       6      0.355  3.6000000 
       7      0.083  3.4500000 
       8      0.083  3.4500000 
       9      0.030  2.5000000 
      10      0.030  2.5000000 
      11      0.030  2.5000000 
      12      0.030  2.5000000 
      13      0.030  2.5000000 
      14      0.030  2.5000000 
      15      0.030  2.5000000 
      16      0.030  2.5000000 
      17      0.030  2.5000000 
      18      0.030  2.5000000 
      19      0.030  2.5000000 
      20      0.030  2.5000000 
      21      0.030  2.5000000 
      22      0.030  2.5000000 

Bond Coeffs 

       1   268.0000     1.5290 
       2   280.0000     1.5100 
       3   260.0000     1.5200 
       4   260.0000     1.5200 
       5   222.0000     1.8100 
       6   222.0000     1.8100 
       7   222.0000     1.8100 
       8   340.0000     1.0900 
       9   340.0000     1.0900 
      10   340.0000     1.0900 
      11   340.0000     1.0900 
      12   340.0000     1.0900 
      13   340.0000     1.0880 
      14   340.0000     1.0880 
      15   340.0000     1.0880 
      16   340.0000     1.0880 
      17   340.0000     1.0880 
      18   340.0000     1.0880 
      19   340.0000     1.0880 
      20   340.0000     1.0880 
      21   340.0000     1.0880 
      22   222.0000     1.8100 
      23   260.0000     1.5200 

Angle Coeffs 

       1     58.350    112.700
       2     37.500    117.200
       3     30.000     83.000
       4     50.000    114.700
       5     62.000     94.000
       6     62.000     94.000
       7     37.500    110.700
       8     37.500    110.700
       9     37.500    110.700
      10     37.500    110.700
      11     37.500    110.700
      12     35.000    114.300
      13     37.500    117.200
      14     37.500    117.200
      15     37.500    117.200
      16     37.500    117.200
      17     37.500    108.000
      18     37.500    108.000
      19     37.500    108.000
      20     37.500    108.000
      21     35.000    114.300
      22     35.000    114.300
      23     37.500    117.200
      24     35.000    114.300
      25     35.000    114.300
      26     62.000     94.000
      27     33.000    107.800
      28     55.000    128.000
      29     62.000     94.000
      30     62.000     94.000
      31     37.500    108.000
      32     55.000    128.000
      33     37.500    117.200
      34     37.500    117.200
      35     37.500    117.200
      36     62.000     94.000
      37     37.500    110.700
      38     37.500    117.200
      39     33.000    107.800
      40     37.500    110.700
      41     33.000    107.800
      42     33.000    107.800
      43     37.500    117.200
      44     37.500    108.000
      45     55.000    128.000
      46     55.000    128.000
      47     37.500    117.200
      48     37.500    108.000

Dihedral Coeffs  

       1      0.000      0.000      0.000      0.000 
       2      0.000      0.000      0.000      0.000 
       3      0.000      0.000      0.300      0.000 
       4      0.000      0.000      0.000      0.000 
       5      0.000      0.000      0.000      0.000 
       6      0.000      0.000      0.000      0.000 
       7      0.000      0.000      0.000      0.000 
       8      0.000      0.000      0.647      0.000 
       9      0.000      0.000      0.452      0.000 
      10      0.000      0.000      0.000      0.000 
      11      0.000      0.000      0.647      0.000 
      12      0.000      0.000      0.647      0.000 
      13      0.000      0.000      0.300      0.000 
      14      0.000      0.000      0.000      0.000 
      15      0.000      0.000      0.647      0.000 
      16      0.000      0.000      0.300      0.000 
      17      0.000      0.000      0.000      0.000 
      18      0.000      0.000      0.300      0.000 
      19      0.000      0.000      0.000      0.000 
      20      0.925     -0.576      0.677      0.000 
      21      0.000      0.000      0.000      0.000 
      22      0.000      0.000      0.647      0.000 
      23      0.000      0.000      0.000      0.000 
      24      0.000      0.000      0.647      0.000 
      25      0.000      0.000      0.300      0.000 
      26      0.000      0.000      0.300      0.000 
      27      0.000      0.000      0.647      0.000 
      28      0.000      0.000      0.000      0.000 
      29      0.000      0.000      0.000      0.000 
      30      0.000      0.000      0.300      0.000 
      31      0.000      0.000      0.647      0.000 
      32      0.000      0.000      0.647      0.000 
      33      0.925     -0.576      0.677      0.000 
      34      0.000      0.000      0.647      0.000 
      35      0.000      0.000      0.300      0.000 
      36      0.000      0.000      0.000      0.000 
      37      0.000      0.000      0.300      0.000 
      38      0.925     -0.576      0.677      0.000 
      39      0.000      0.000      0.452      0.000 
      40      0.000      0.000      0.647      0.000 
      41      0.000      0.000      0.647      0.000 
      42      0.000      0.000      0.000      0.000 
      43      0.000      0.000      0.000      0.000 
      44      0.000      0.000      0.000      0.000 
      45      0.000      0.000      0.000      0.000 
      46      0.000      0.000      0.647      0.000 
      47      0.000      0.000      0.300      0.000 
      48      0.000      0.000      0.000      0.000 
      49      0.000      0.000      0.300      0.000 
      50      0.000      0.000      0.647      0.000 
      51      2.619     -0.620      0.258      0.000 
      52      0.000      0.000      0.647      0.000 
      53      0.000      0.000      0.000      0.000 
      54      0.925     -0.576      0.677      0.000 
      55      0.000      0.000      0.000      0.000 
      56      0.000      0.000      0.000      0.000 
      57      0.925     -0.576      0.677      0.000 
      58      0.000      0.000      0.000      0.000 
      59      0.000      0.000      0.300      0.000 
      60      0.000      0.000      0.000      0.000 
      61      0.925     -0.576      0.677      0.000 
      62      0.000      0.000      0.000      0.000 
      63      0.000      0.000      0.300      0.000 
      64      0.925     -0.576      0.677      0.000 
      65      0.000      0.000      0.647      0.000 
      66      0.000      0.000      0.000      0.000 
      67      0.000      0.000      0.647      0.000 
      68      0.000      0.000      0.300      0.000 
      69      0.000      0.000      0.000      0.000 
      70      0.000      0.000      0.000      0.000 

Improper Coeffs 

       1      0.000      -1       2 
       2      0.000      -1       2 
       3      0.000      -1       2 
       4      0.000      -1       2 
       5      0.000      -1       2 
       6      0.000      -1       2 
       7      0.000      -1       2 
       8      0.000      -1       2 
       9      0.000      -1       2 
      10      0.000      -1       2 
      11      0.000      -1       2 
      12      0.000      -1       2 
      13      0.000      -1       2 
      14      0.000      -1       2 
      15     -0.288      -1       2 
      16      0.000      -1       2 
      17      0.000      -1       2 
      18      0.000      -1       2 
      19      0.000      -1       2 
      20     -0.288      -1       2 

Atoms 

     1      1      1 -0.24400000    1.000  1.00000  0.00000
     2      1      2 -0.15680000   -0.521  1.00000  0.00000
     3      1      3 -0.15660000   -1.050  1.00000  1.43178
     4      1      4 -0.15890000   -2.594  1.00177  1.56785
     5      1      5 -0.23060000   -2.679  2.34707  2.30967
     6      1      6 0.03580000   -0.943  2.54956  2.28605
     7      1      7 -0.46260000   -0.840  1.55973  4.34020
     8      1      8 -0.23060000    0.045  2.47087  3.66967
     9      1      9 0.08620000    1.381  0.95288 -1.02436
    10      1     10 0.08620000    1.390  0.13771  0.55115
    11      1     11 0.08620000    1.395  1.90580  0.47053
    12      1     12 0.09990000   -0.875  0.10400 -0.52322
    13      1     13 0.09990000   -0.891  1.87041 -0.55447
    14      1     14 0.14710000   -0.595  0.17360  1.99036
    15      1     15 0.11370000   -2.974  0.15945  2.15802
    16      1     16 0.11370000   -3.137  1.00056  0.61548
    17      1     17 0.13580000   -3.150  2.30436  3.29447
    18      1     18 0.13580000   -3.182  3.12995  1.73231
    19      1     19 0.11520000   -0.832  0.50575  4.10131
    20      1     20 0.11520000   -1.706  1.95377  4.85130
    21      1     21 0.13470000    1.065  2.10294  3.51482
    22      1     22 0.13470000    0.210  3.41889  4.19579

Bonds 

     1      1      2      1
     2      2      3      2
     3      3      4      3
     4      4      5      4
     5      5      6      3
     6      6      7      6
     7      7      8      6
     8      8      9      1
     9      9     10      1
    10     10     11      1
    11     11     12      2
    12     12     13      2
    13     13     14      3
    14     14     15      4
    15     15     16      4
    16     16     17      5
    17     17     18      5
    18     18     19      7
    19     19     20      7
    20     20     21      8
    21     21     22      8
    22     22      6      5
    23     23      8      7

Angles 

     1      1      1      2      3
     2      2      2      3      4
     3      3      3      4      5
     4      4      2      3      6
     5      5      3      6      7
     6      6      3      6      8
     7      7      2      1      9
     8      8      2      1     10
     9      9      2      1     11
    10     10      1      2     12
    11     11      1      2     13
    12     12      2      3     14
    13     13      3      4     15
    14     14      3      4     16
    15     15      4      5     17
    16     16      4      5     18
    17     17      6      7     19
    18     18      6      7     20
    19     19      6      8     21
    20     20      6      8     22
    21     21     17      5     18
    22     22     15      4     16
    23     23      7      8     21
    24     24     19      7     20
    25     25     21      8     22
    26     26      3      6      5
    27     27     12      2     13
    28     28      4      5      6
    29     29      5      6      8
    30     30      5      6      7
    31     31      6      5     17
    32     32      6      7      8
    33     33      5      4     16
    34     34      8      7     19
    35     35      5      4     15
    36     36      7      6      8
    37     37      3      2     12
    38     38      7      8     22
    39     39     10      1     11
    40     40      3      2     13
    41     41      9      1     10
    42     42      9      1     11
    43     43      4      3     14
    44     44      6      3     14
    45     45      4      3      6
    46     46      6      8      7
    47     47      8      7     20
    48     48      6      5     18

Dihedrals

     1      1      4      3      2      1 
     2      2      5      4      3      2 
     3      3      9      1      2      3 
     4      4     19      7      6      8 
     5      5     20      7      6      8 
     6      6     21      8      6      7 
     7      7     22      8      6      7 
     8      8     17      5      6      7 
     9      9     13      2      3      6 
    10     10     14      3      4      5 
    11     11     14      3      6      7 
    12     12     21      8      6      3 
    13     13     12      2      1     10 
    14     14     18      5      4     16 
    15     15     18      5      6      7 
    16     16     12      2      1      9 
    17     17     19      7      8      6 
    18     18     11      1      2      3 
    19     19     16      4      3      6 
    20     20      8      6      3      4 
    21     21     15      4      5      6 
    22     22     14      3      6      8 
    23     23     15      4      3     14 
    24     24     14      3      6      5 
    25     25     14      3      2     13 
    26     26     13      2      1      9 
    27     27     19      7      6      3 
    28     28     17      5      4     16 
    29     29     18      5      4     15 
    30     30     12      2      1     11 
    31     31     19      7      6      5 
    32     32     21      8      6      5 
    33     33      8      6      5      4 
    34     34     17      5      6      3 
    35     35     13      2      1     11 
    36     36     21      8      7      6 
    37     37     14      3      2     12 
    38     38      8      6      3      2 
    39     39     12      2      3      6 
    40     40     18      5      6      3 
    41     41     17      5      6      8 
    42     42     16      4      3      2 
    43     43     15      4      3      2 
    44     44     21      8      7     19 
    45     45     21      8      7     20 
    46     46     20      7      6      3 
    47     47     13      2      3      4 
    48     48     16      4      3     14 
    49     49     13      2      1     10 
    50     50     22      8      6      3 
    51     51      6      3      2      1 
    52     52     22      8      6      5 
    53     53     22      8      7     20 
    54     54      7      6      5      4 
    55     55     22      8      7     19 
    56     56     20      7      8      6 
    57     57      5      6      3      2 
    58     58     22      8      7      6 
    59     59     10      1      2      3 
    60     60     17      5      4     15 
    61     61      7      6      3      4 
    62     62     15      4      3      6 
    63     63     14      3      2      1 
    64     64      7      6      3      2 
    65     65     20      7      6      5 
    66     66     18      5      4      3 
    67     67     18      5      6      8 
    68     68     12      2      3      4 
    69     69     17      5      4      3 
    70     70     16      4      5      6 

Impropers

     1      1      3      2      4      6 
     2      2      6      3      5      7 
     3      3      6      3      5      8 
     4      4      1     10      9      2 
     5      5      1      2     11      9 
     6      6      2      1      3     12 
     7      7      2      1      3     13 
     8      8      3      2      4     14 
     9      9      4      3      5     15 
    10     10      4      3      5     16 
    11     11      5     17      4      6 
    12     12      5     18      4      6 
    13     13      3      4      5      6 
    14     14      6      7      8      3 
    15     15      3      4      5      6 
    16     16      6      7      8      5 
    17     17      3      4      5      6 
    18     18      6      7      8      5 
    19     19      6      7      8      3 
    20     20      3      4      5      6 

