LAMMPS data file Created by LigParGen - (Written by Leela S. Dodda)

      52 atoms
      51 bonds
      99 angles
     135 dihedrals
      33 impropers
 
      52 atom types
      51 bond types
      99 angle types
     135 dihedral types
      33 improper types
 
   -9.358020    40.641980 xlo xhi
   -1.073690    48.926310 ylo yhi
   -1.025910    48.974090 zlo zhi

Masses

       1     12.011  
       2     12.011  
       3     12.011  
       4     12.011  
       5     12.011  
       6     12.011  
       7     12.011  
       8     14.007  
       9     12.011  
      10     12.011  
      11     32.060  
      12     15.999  
      13     15.999  
      14     12.011  
      15     12.011  
      16     12.011  
      17     12.011  
      18     12.011  
      19     12.011  
      20      1.008  
      21      1.008  
      22      1.008  
      23      1.008  
      24      1.008  
      25      1.008  
      26      1.008  
      27      1.008  
      28      1.008  
      29      1.008  
      30      1.008  
      31      1.008  
      32      1.008  
      33      1.008  
      34      1.008  
      35      1.008  
      36      1.008  
      37      1.008  
      38      1.008  
      39      1.008  
      40      1.008  
      41      1.008  
      42      1.008  
      43      1.008  
      44      1.008  
      45      1.008  
      46      1.008  
      47      1.008  
      48      1.008  
      49      1.008  
      50      1.008  
      51      1.008  
      52      1.008  

Pair Coeffs 

       1      0.066  3.5000000 
       2      0.066  3.5000000 
       3      0.066  3.5000000 
       4      0.066  3.5000000 
       5      0.066  3.5000000 
       6      0.066  3.5000000 
       7      0.066  3.5000000 
       8      0.170  3.3000000 
       9      0.066  3.5000000 
      10      0.066  3.5000000 
      11      0.250  3.5500000 
      12      0.170  2.9600000 
      13      0.170  2.9600000 
      14      0.066  3.5000000 
      15      0.066  3.5000000 
      16      0.066  3.5000000 
      17      0.066  3.5000000 
      18      0.066  3.5000000 
      19      0.066  3.5000000 
      20      0.030  2.5000000 
      21      0.030  2.5000000 
      22      0.030  2.5000000 
      23      0.030  2.5000000 
      24      0.030  2.5000000 
      25      0.030  2.5000000 
      26      0.030  2.5000000 
      27      0.030  2.5000000 
      28      0.030  2.5000000 
      29      0.030  2.5000000 
      30      0.030  2.5000000 
      31      0.030  2.5000000 
      32      0.030  2.5000000 
      33      0.030  2.5000000 
      34      0.030  2.5000000 
      35      0.030  2.5000000 
      36      0.030  2.5000000 
      37      0.030  2.5000000 
      38      0.030  2.5000000 
      39      0.030  2.5000000 
      40      0.030  2.5000000 
      41      0.030  2.5000000 
      42      0.030  2.5000000 
      43      0.030  2.5000000 
      44      0.030  2.5000000 
      45      0.030  2.5000000 
      46      0.030  2.5000000 
      47      0.030  2.5000000 
      48      0.030  2.5000000 
      49      0.030  2.5000000 
      50      0.030  2.5000000 
      51      0.030  2.5000000 
      52      0.030  2.5000000 

Bond Coeffs 

       1   268.0000     1.5290 
       2   268.0000     1.5290 
       3   268.0000     1.5290 
       4   268.0000     1.5290 
       5   268.0000     1.5290 
       6   268.0000     1.5290 
       7   382.0000     1.4480 
       8   382.0000     1.4480 
       9   268.0000     1.5290 
      10   340.0000     1.7700 
      11   700.0000     1.4400 
      12   700.0000     1.4400 
      13   340.0000     1.7700 
      14   268.0000     1.5290 
      15   382.0000     1.4480 
      16   268.0000     1.5290 
      17   268.0000     1.5290 
      18   268.0000     1.5290 
      19   340.0000     1.0900 
      20   340.0000     1.0900 
      21   340.0000     1.0900 
      22   340.0000     1.0900 
      23   340.0000     1.0900 
      24   340.0000     1.0900 
      25   340.0000     1.0900 
      26   340.0000     1.0900 
      27   340.0000     1.0900 
      28   340.0000     1.0900 
      29   340.0000     1.0900 
      30   340.0000     1.0900 
      31   340.0000     1.0900 
      32   340.0000     1.0900 
      33   340.0000     1.0900 
      34   340.0000     1.0900 
      35   340.0000     1.0900 
      36   340.0000     1.0900 
      37   340.0000     1.0900 
      38   340.0000     1.0900 
      39   340.0000     1.0900 
      40   340.0000     1.0900 
      41   340.0000     1.0900 
      42   340.0000     1.0900 
      43   340.0000     1.0900 
      44   340.0000     1.0900 
      45   340.0000     1.0900 
      46   340.0000     1.0900 
      47   340.0000     1.0900 
      48   340.0000     1.0900 
      49   340.0000     1.0900 
      50   340.0000     1.0900 
      51   340.0000     1.0900 

Angle Coeffs 

       1     58.350    112.700
       2     58.350    112.700
       3     58.350    112.700
       4     58.350    112.700
       5     58.350    112.700
       6     56.200    109.470
       7     51.800    107.200
       8     56.200    109.470
       9     50.000    108.600
      10     74.000    108.900
      11     74.000    108.900
      12     62.000    102.000
      13     50.000    108.600
      14     51.800    107.200
      15     56.200    109.470
      16     58.350    112.700
      17     58.350    112.700
      18     37.500    110.700
      19     37.500    110.700
      20     37.500    110.700
      21     37.500    110.700
      22     37.500    110.700
      23     37.500    110.700
      24     37.500    110.700
      25     37.500    110.700
      26     37.500    110.700
      27     37.500    110.700
      28     37.500    110.700
      29     37.500    110.700
      30     37.500    110.700
      31     37.500    110.700
      32     37.500    110.700
      33     35.000    109.500
      34     35.000    109.500
      35     37.500    110.700
      36     37.500    110.700
      37     35.000    109.500
      38     35.000    109.500
      39     37.500    110.700
      40     37.500    110.700
      41     37.500    110.700
      42     35.000    109.500
      43     35.000    109.500
      44     37.500    110.700
      45     37.500    110.700
      46     37.500    110.700
      47     37.500    110.700
      48     37.500    110.700
      49     37.500    110.700
      50     37.500    110.700
      51     35.000    109.500
      52     37.500    110.700
      53     33.000    107.800
      54     33.000    107.800
      55     74.000    108.900
      56     33.000    107.800
      57     33.000    107.800
      58     37.500    110.700
      59     37.500    110.700
      60     37.500    110.700
      61     58.350    112.700
      62     51.800    107.200
      63     33.000    107.800
      64     37.500    110.700
      65     33.000    107.800
      66     33.000    107.800
      67     33.000    107.800
      68     35.000    109.500
      69     74.000    108.900
      70     37.500    110.700
      71     33.000    107.800
      72     33.000    107.800
      73     33.000    107.800
      74     33.000    107.800
      75     33.000    107.800
      76     37.500    110.700
      77     37.500    110.700
      78     37.500    110.700
      79     33.000    107.800
      80     33.000    107.800
      81     33.000    107.800
      82     33.000    107.800
      83     33.000    107.800
      84     37.500    110.700
      85     37.500    110.700
      86     35.000    109.500
      87     33.000    107.800
      88     33.000    107.800
      89     33.000    107.800
      90     37.500    110.700
      91     37.500    110.700
      92     37.500    110.700
      93     58.350    112.700
      94     35.000    109.500
      95     37.500    110.700
      96     33.000    107.800
      97    104.000    119.000
      98     37.500    110.700
      99     33.000    107.800

Dihedral Coeffs  

       1      1.300     -0.200      0.200      0.000 
       2      1.300     -0.200      0.200      0.000 
       3      1.300     -0.200      0.200      0.000 
       4      2.392     -0.674      0.550      0.000 
       5      0.416     -0.128      0.695      0.000 
       6      0.416     -0.128      0.695      0.000 
       7      1.428      0.086      0.029      0.000 
       8      0.000      0.000      0.000      0.000 
       9      0.000      0.000      0.000      0.000 
      10      0.416     -0.128      0.695      0.000 
      11      2.392     -0.674      0.550      0.000 
      12      0.000      0.000      0.300      0.000 
      13      0.000      0.000      0.300      0.000 
      14      0.000      0.000      0.452      0.000 
      15      0.000      0.000      0.300      0.000 
      16      0.000      0.000      0.300      0.000 
      17      0.000      0.000      0.300      0.000 
      18     -1.013     -0.709      0.473      0.000 
      19      0.000      0.000      0.452      0.000 
      20      0.000      0.000      0.300      0.000 
      21      0.000      0.000      0.300      0.000 
      22      0.000      0.000      0.300      0.000 
      23      0.000      0.000      0.300      0.000 
      24      0.000      0.000      0.300      0.000 
      25      0.000      0.000      0.350      0.000 
      26      0.000      0.000      0.300      0.000 
      27      0.000      0.000      0.300      0.000 
      28      0.000      0.000      0.452      0.000 
      29      0.000      0.000      0.300      0.000 
      30      0.000      0.000      0.300      0.000 
      31      0.000      0.000      0.350      0.000 
      32      0.000      0.000      0.000      0.000 
      33      0.000      0.000      0.560      0.000 
      34      0.000      0.000      0.350      0.000 
      35      0.000      0.000      0.000      0.000 
      36      0.000      0.000      0.300      0.000 
      37      0.000      0.000      0.300      0.000 
      38      0.000      0.000      0.300      0.000 
      39     -1.013     -0.709      0.473      0.000 
      40     -1.013     -0.709      0.473      0.000 
      41      0.000      0.000      0.300      0.000 
      42      0.000      0.000      0.560      0.000 
      43      0.000      0.000      0.300      0.000 
      44      0.000      0.000      0.560      0.000 
      45      0.000      0.000      0.560      0.000 
      46      0.000      0.000      0.300      0.000 
      47      0.416     -0.128      0.695      0.000 
      48      0.000      0.000      0.350      0.000 
      49      0.000      0.000      0.300      0.000 
      50      0.000      0.000      0.300      0.000 
      51      0.000      0.000      0.350      0.000 
      52      0.000      0.000      0.300      0.000 
      53      0.000      0.000      0.300      0.000 
      54      1.300     -0.200      0.200      0.000 
      55      0.000      0.000      0.560      0.000 
      56      0.000      0.000      0.350      0.000 
      57      0.000      0.000      0.000      0.000 
      58      0.000      0.000      0.300      0.000 
      59      0.000      0.000      0.300      0.000 
      60      0.000      0.000      0.452      0.000 
      61      0.000      0.000      0.300      0.000 
      62      0.000      0.000      0.300      0.000 
      63      0.000      0.000      0.300      0.000 
      64      0.000      0.000      0.300      0.000 
      65      0.000      0.000      0.300      0.000 
      66      0.000      0.000      0.300      0.000 
      67      0.000      0.000      0.560      0.000 
      68      2.392     -0.674      0.550      0.000 
      69      0.000      0.000      0.300      0.000 
      70      0.000      0.000      0.350      0.000 
      71      0.000      0.000      0.300      0.000 
      72      0.000      0.000      0.350      0.000 
      73     -1.013     -0.709      0.473      0.000 
      74      0.000      0.000      0.300      0.000 
      75      0.000      0.000      0.300      0.000 
      76      0.000      0.000      0.300      0.000 
      77      0.000      0.000      0.300      0.000 
      78      0.000      0.000      0.300      0.000 
      79      0.000      0.000      0.300      0.000 
      80      0.000      0.000      0.300      0.000 
      81      0.000      0.000      0.300      0.000 
      82      0.000      0.000      0.300      0.000 
      83      0.000      0.000      0.300      0.000 
      84      0.000      0.000      0.300      0.000 
      85      0.000      0.000      0.300      0.000 
      86      0.000      0.000      0.300      0.000 
      87      0.416     -0.128      0.695      0.000 
      88      0.000      0.000      0.452      0.000 
      89      0.000      0.000      0.300      0.000 
      90      0.000      0.000      0.560      0.000 
      91      0.000      0.000      0.300      0.000 
      92      0.000      0.000      0.300      0.000 
      93     -1.013     -0.709      0.473      0.000 
      94      0.000      0.000      0.300      0.000 
      95      0.000      0.000      0.300      0.000 
      96      0.000      0.000      0.560      0.000 
      97      0.000      0.000      0.300      0.000 
      98      0.000      0.000      0.300      0.000 
      99      0.000      0.000      0.300      0.000 
     100      0.000      0.000      0.300      0.000 
     101      0.000      0.000      0.300      0.000 
     102      0.000      0.000      0.300      0.000 
     103      0.000      0.000      0.560      0.000 
     104      0.000      0.000      0.300      0.000 
     105      0.000      0.000      0.300      0.000 
     106      0.000      0.000      0.350      0.000 
     107      0.000      0.000      0.560      0.000 
     108      0.000      0.000      0.560      0.000 
     109      0.000      0.000      0.300      0.000 
     110      0.000      0.000      0.300      0.000 
     111      0.000      0.000      0.300      0.000 
     112      0.000      0.000      0.300      0.000 
     113      0.000      0.000      0.300      0.000 
     114      0.000      0.000      0.300      0.000 
     115      0.000      0.000      0.300      0.000 
     116      0.000      0.000      0.300      0.000 
     117      0.000      0.000      0.300      0.000 
     118      0.000      0.000      0.300      0.000 
     119      0.000      0.000      0.350      0.000 
     120      0.000      0.000      0.300      0.000 
     121      0.000      0.000      0.300      0.000 
     122      0.000      0.000      0.300      0.000 
     123      0.000      0.000      0.560      0.000 
     124      0.000      0.000      0.300      0.000 
     125      0.000      0.000      0.300      0.000 
     126      0.416     -0.128      0.695      0.000 
     127      0.000      0.000      0.300      0.000 
     128      0.000      0.000      0.000      0.000 
     129      0.000      0.000      0.300      0.000 
     130      0.000      0.000      0.300      0.000 
     131      0.000      0.000      0.300      0.000 
     132      0.000      0.000      0.350      0.000 
     133      0.000      0.000      0.350      0.000 
     134      0.000      0.000      0.300      0.000 
     135      1.300     -0.200      0.200      0.000 

Improper Coeffs 

       1      0.000      -1       2 
       2      0.000      -1       2 
       3      0.000      -1       2 
       4      0.000      -1       2 
       5      0.000      -1       2 
       6      0.000      -1       2 
       7      0.000      -1       2 
       8      0.000      -1       2 
       9      0.000      -1       2 
      10      0.000      -1       2 
      11      0.000      -1       2 
      12      0.000      -1       2 
      13      0.000      -1       2 
      14      0.000      -1       2 
      15      0.000      -1       2 
      16      0.000      -1       2 
      17      0.000      -1       2 
      18      0.000      -1       2 
      19      0.000      -1       2 
      20      0.000      -1       2 
      21      0.000      -1       2 
      22      0.000      -1       2 
      23      0.000      -1       2 
      24      0.000      -1       2 
      25      0.000      -1       2 
      26      0.000      -1       2 
      27      0.000      -1       2 
      28      0.000      -1       2 
      29      0.000      -1       2 
      30      0.000      -1       2 
      31      0.000      -1       2 
      32      0.000      -1       2 
      33      0.000      -1       2 

Atoms 

     1      1      1 -0.23980000    1.000  1.00000  0.00000
     2      1      2 -0.17760000   -0.522  1.00000  0.00000
     3      1      3 -0.17170000   -1.059  1.00000  1.43111
     4      1      4 -0.10700000   -2.595  1.06447  1.53669
     5      1      5 -0.23930000   -3.268 -0.12077  0.83137
     6      1      6 -0.17770000   -3.034  1.03935  3.01036
     7      1      7 0.01760000   -2.594  2.22526  3.87956
     8      1      8 -0.57740000   -3.072  3.56976  3.51578
     9      1      9 0.05170000   -4.545  3.66124  3.52550
    10      1     10 -0.50160000   -5.112  4.94775  2.92129
    11      1     11 1.28890000   -6.896  4.90669  3.00445
    12      1     12 -0.56690000   -7.366  3.80510  2.19054
    13      1     13 -0.56690000   -7.273  5.01509  4.40393
    14      1     14 -0.49660000   -7.381  6.42356  2.19326
    15      1     15 -0.21020000   -8.889  6.57766  2.16259
    16      1     16 0.02090000   -2.404  4.61510  4.32935
    17      1     17 -0.15110000   -2.687  4.72717  5.85775
    18      1     18 -0.23510000   -2.258  3.51615  6.69250
    19      1     19 -0.23470000   -1.958  5.95845  6.41538
    20      1     20 0.07980000    1.380  0.99870 -1.02591
    21      1     21 0.07980000    1.389  0.11133  0.50812
    22      1     22 0.07980000    1.392  1.88624  0.50918
    23      1     23 0.08970000   -0.867  0.11487 -0.54351
    24      1     24 0.08970000   -0.886  1.88384 -0.53562
    25      1     25 0.08730000   -0.625  1.86326  1.94882
    26      1     26 0.08730000   -0.694  0.10437  1.95064
    27      1     27 0.11360000   -2.950  1.98934  1.06615
    28      1     28 0.08170000   -2.920 -1.07369  1.24588
    29      1     29 0.08170000   -3.071 -0.11956 -0.24361
    30      1     30 0.08170000   -4.356 -0.07856  0.96033
    31      1     31 0.09160000   -2.626  0.13136  3.47809
    32      1     32 0.09160000   -4.122  0.92501  3.07485
    33      1     33 0.08600000   -1.498  2.23186  3.92017
    34      1     34 0.08600000   -2.945  1.96518  4.87560
    35      1     35 0.10350000   -4.933  3.51059  4.53991
    36      1     36 0.10350000   -4.952  2.84567  2.91727
    37      1     37 0.16240000   -4.835  5.04240  1.86632
    38      1     38 0.16240000   -4.792  5.83840  3.46773
    39      1     39 0.15590000   -6.979  6.39281  1.17679
    40      1     40 0.15590000   -6.923  7.25137  2.74148
    41      1     41 0.10730000   -9.358  5.75115  1.61880
    42      1     42 0.10730000   -9.167  7.51328  1.66809
    43      1     43 0.10730000   -9.305  6.58761  3.17524
    44      1     44 0.09990000   -2.635  5.58406  3.87305
    45      1     45 0.09990000   -1.318  4.51579  4.18131
    46      1     46 0.10410000   -3.761  4.88808  6.01253
    47      1     47 0.08330000   -1.319  3.08767  6.32409
    48      1     48 0.08330000   -3.032  2.74561  6.69040
    49      1     49 0.08330000   -2.107  3.78026  7.74432
    50      1     50 0.08280000   -0.874  5.86084  6.29690
    51      1     51 0.08280000   -2.169  6.08101  7.48396
    52      1     52 0.08280000   -2.281  6.87088  5.90540

Bonds 

     1      1      2      1
     2      2      3      2
     3      3      4      3
     4      4      5      4
     5      5      6      4
     6      6      7      6
     7      7      8      7
     8      8      9      8
     9      9     10      9
    10     10     11     10
    11     11     12     11
    12     12     13     11
    13     13     14     11
    14     14     15     14
    15     15     16      8
    16     16     17     16
    17     17     18     17
    18     18     19     17
    19     19     20      1
    20     20     21      1
    21     21     22      1
    22     22     23      2
    23     23     24      2
    24     24     25      3
    25     25     26      3
    26     26     27      4
    27     27     28      5
    28     28     29      5
    29     29     30      5
    30     30     31      6
    31     31     32      6
    32     32     33      7
    33     33     34      7
    34     34     35      9
    35     35     36      9
    36     36     37     10
    37     37     38     10
    38     38     39     14
    39     39     40     14
    40     40     41     15
    41     41     42     15
    42     42     43     15
    43     43     44     16
    44     44     45     16
    45     45     46     17
    46     46     47     18
    47     47     48     18
    48     48     49     18
    49     49     50     19
    50     50     51     19
    51     51     52     19

Angles 

     1      1      1      2      3
     2      2      2      3      4
     3      3      3      4      5
     4      4      3      4      6
     5      5      4      6      7
     6      6      6      7      8
     7      7      7      8      9
     8      8      8      9     10
     9      9      9     10     11
    10     10     10     11     12
    11     11     10     11     13
    12     12     10     11     14
    13     13     11     14     15
    14     14      7      8     16
    15     15      8     16     17
    16     16     16     17     18
    17     17     16     17     19
    18     18      2      1     20
    19     19      2      1     21
    20     20      2      1     22
    21     21      1      2     23
    22     22      1      2     24
    23     23      2      3     25
    24     24      2      3     26
    25     25      3      4     27
    26     26      4      5     28
    27     27      4      5     29
    28     28      4      5     30
    29     29      4      6     31
    30     30      4      6     32
    31     31      6      7     33
    32     32      6      7     34
    33     33      8      9     35
    34     34      8      9     36
    35     35      9     10     37
    36     36      9     10     38
    37     37     11     14     39
    38     38     11     14     40
    39     39     14     15     41
    40     40     14     15     42
    41     41     14     15     43
    42     42      8     16     44
    43     43      8     16     45
    44     44     16     17     46
    45     45     17     18     47
    46     46     17     18     48
    47     47     17     18     49
    48     48     17     19     50
    49     49     17     19     51
    50     50     17     19     52
    51     51     11     10     38
    52     52     15     14     40
    53     53     41     15     43
    54     54     47     18     49
    55     55     12     11     14
    56     56     50     19     52
    57     57     20      1     21
    58     58      5      4     27
    59     59      7      6     32
    60     60      7      6     31
    61     61      5      4      6
    62     62      9      8     16
    63     63     28      5     29
    64     64     17     16     45
    65     65     33      7     34
    66     66     44     16     45
    67     67     35      9     36
    68     68      8      7     33
    69     69     13     11     14
    70     70     17     16     44
    71     71     20      1     22
    72     72     41     15     42
    73     73     48     18     49
    74     74     29      5     30
    75     75     42     15     43
    76     76     18     17     46
    77     77     10      9     35
    78     78      6      4     27
    79     79     50     19     51
    80     80     51     19     52
    81     81     37     10     38
    82     82     39     14     40
    83     83     21      1     22
    84     84      4      3     26
    85     85     15     14     39
    86     86      8      7     34
    87     87     25      3     26
    88     88     31      6     32
    89     89     47     18     48
    90     90      4      3     25
    91     91      3      2     23
    92     92     19     17     46
    93     93     18     17     19
    94     94     11     10     37
    95     95     10      9     36
    96     96     23      2     24
    97     97     12     11     13
    98     98      3      2     24
    99     99     28      5     30

Dihedrals

     1      1      4      3      2      1 
     2      2      5      4      3      2 
     3      3      7      6      4      3 
     4      4      8      7      6      4 
     5      5      9      8      7      6 
     6      6     10      9      8      7 
     7      7     11     10      9      8 
     8      8     12     11     10      9 
     9      9     15     14     11     10 
    10     10     17     16      8      7 
    11     11     18     17     16      8 
    12     12     20      1      2      3 
    13     13     28      5      4      3 
    14     14     41     15     14     11 
    15     15     47     18     17     16 
    16     16     50     19     17     16 
    17     17     26      3      4      6 
    18     18     38     10      9      8 
    19     19     35      9     10     11 
    20     20     44     16     17     19 
    21     21     32      6      4      3 
    22     22     25      3      4      5 
    23     23     30      5      4     27 
    24     24     47     18     17     46 
    25     25     39     14     11     12 
    26     26     45     16     17     18 
    27     27     23      2      1     21 
    28     28     42     15     14     11 
    29     29     50     19     17     46 
    30     30     24      2      1     20 
    31     31     37     10     11     14 
    32     32     15     14     11     13 
    33     33     44     16      8      7 
    34     34     38     10     11     13 
    35     35     15     14     11     12 
    36     36     26      3      2      1 
    37     37     33      7      6     31 
    38     38     23      2      3      4 
    39     39     46     17     16      8 
    40     40     32      6      7      8 
    41     41     27      4      3     25 
    42     42     36      9      8     16 
    43     43     46     17     16     45 
    44     44     44     16      8      9 
    45     45     36      9      8      7 
    46     46     47     18     17     19 
    47     47     16      8      7      6 
    48     48     40     14     11     12 
    49     49     45     16     17     19 
    50     50     31      6      4      5 
    51     51     39     14     11     13 
    52     52     38     10      9     36 
    53     53     30      5      4      3 
    54     54      6      4      3      2 
    55     55     34      7      8      9 
    56     56     39     14     11     10 
    57     57     13     11     10      9 
    58     58     34      7      6      4 
    59     59     24      2      1     22 
    60     60     36      9     10     11 
    61     61     37     10      9     35 
    62     62     33      7      6     32 
    63     63     25      3      2     23 
    64     64     25      3      4      6 
    65     65     26      3      4      5 
    66     66     29      5      4      6 
    67     67     35      9      8      7 
    68     68     19     17     16      8 
    69     69     21      1      2      3 
    70     70     40     14     11     13 
    71     71     28      5      4     27 
    72     72     40     14     11     10 
    73     73     37     10      9      8 
    74     74     49     18     17     19 
    75     75     32      6      4      5 
    76     76     42     15     14     40 
    77     77     43     15     14     39 
    78     78     52     19     17     18 
    79     79     34      7      6     32 
    80     80     43     15     14     40 
    81     81     48     18     17     46 
    82     82     24      2      3      4 
    83     83     27      4      3     26 
    84     84     28      5      4      6 
    85     85     41     15     14     40 
    86     86     41     15     14     39 
    87     87     17     16      8      9 
    88     88     43     15     14     11 
    89     89     31      6      4     27 
    90     90     34      7      8     16 
    91     91     24      2      1     21 
    92     92     23      2      1     22 
    93     93     31      6      7      8 
    94     94     27      4      3      2 
    95     95     52     19     17     46 
    96     96     45     16      8      7 
    97     97     46     17     16     44 
    98     98     49     18     17     46 
    99     99     26      3      2     24 
   100    100     27      4      6      7 
   101    101     22      1      2      3 
   102    102     31      6      4      3 
   103    103     33      7      8     16 
   104    104     29      5      4     27 
   105    105     44     16     17     18 
   106    106     38     10     11     14 
   107    107     33      7      8      9 
   108    108     45     16      8      9 
   109    109     49     18     17     16 
   110    110     38     10      9     35 
   111    111     37     10      9     36 
   112    112     26      3      2     23 
   113    113     25      3      2     24 
   114    114     51     19     17     16 
   115    115     33      7      6      4 
   116    116     29      5      4      3 
   117    117     23      2      1     20 
   118    118     30      5      4      6 
   119    119     37     10     11     12 
   120    120     25      3      2      1 
   121    121     42     15     14     39 
   122    122     34      7      6     31 
   123    123     35      9      8     16 
   124    124     50     19     17     18 
   125    125     51     19     17     18 
   126    126     16      8      9     10 
   127    127     51     19     17     46 
   128    128     14     11     10      9 
   129    129     52     19     17     16 
   130    130     48     18     17     19 
   131    131     48     18     17     16 
   132    132     37     10     11     13 
   133    133     38     10     11     12 
   134    134     32      6      4     27 
   135    135      7      6      4      5 

Impropers

     1      1      4      3      5      6 
     2      2     11     10     12     13 
     3      3     11     10     12     14 
     4      4      8      9      7     16 
     5      5     17     18     19     16 
     6      6      1      2     20     21 
     7      7      1      2     20     22 
     8      8      2      1      3     23 
     9      9      2      1      3     24 
    10     10      3     25      2      4 
    11     11      3     26      4      2 
    12     12      4     27      5      3 
    13     13      5     28      4     29 
    14     14      5     28      4     30 
    15     15      6      7      4     31 
    16     16      6      4      7     32 
    17     17      7     33      6      8 
    18     18      7     34      6      8 
    19     19      9     10     35      8 
    20     20      9     10     36      8 
    21     21     10      9     11     37 
    22     22     10      9     11     38 
    23     23     14     11     15     39 
    24     24     14     11     15     40 
    25     25     15     41     42     14 
    26     26     15     41     43     14 
    27     27     16      8     17     44 
    28     28     16     17      8     45 
    29     29     17     18     46     16 
    30     30     18     17     47     48 
    31     31     18     49     47     17 
    32     32     19     17     50     51 
    33     33     19     17     50     52 

