LAMMPS data file Created by LigParGen - (Written by Leela S. Dodda)

      31 atoms
      30 bonds
      55 angles
      71 dihedrals
      18 impropers
 
      31 atom types
      30 bond types
      55 angle types
      71 dihedral types
      18 improper types
 
   -4.636250    45.363750 xlo xhi
   -6.026410    43.973590 ylo yhi
   -1.018870    48.981130 zlo zhi

Masses

       1     12.011  
       2     12.011  
       3     12.011  
       4     12.011  
       5     12.011  
       6     15.999  
       7     12.011  
       8     12.011  
       9     12.011  
      10     12.011  
      11     15.999  
      12     15.999  
      13     12.011  
      14      1.008  
      15      1.008  
      16      1.008  
      17      1.008  
      18      1.008  
      19      1.008  
      20      1.008  
      21      1.008  
      22      1.008  
      23      1.008  
      24      1.008  
      25      1.008  
      26      1.008  
      27      1.008  
      28      1.008  
      29      1.008  
      30      1.008  
      31      1.008  

Pair Coeffs 

       1      0.066  3.5000000 
       2      0.066  3.5000000 
       3      0.066  3.5000000 
       4      0.066  3.5000000 
       5      0.070  3.5500000 
       6      0.210  2.9600000 
       7      0.066  3.5000000 
       8      0.066  3.5000000 
       9      0.066  3.5000000 
      10      0.070  3.5500000 
      11      0.210  2.9600000 
      12      0.140  2.9000000 
      13      0.066  3.5000000 
      14      0.030  2.5000000 
      15      0.030  2.5000000 
      16      0.030  2.5000000 
      17      0.030  2.5000000 
      18      0.030  2.5000000 
      19      0.030  2.5000000 
      20      0.030  2.5000000 
      21      0.030  2.5000000 
      22      0.030  2.5000000 
      23      0.030  2.5000000 
      24      0.030  2.5000000 
      25      0.030  2.5000000 
      26      0.030  2.5000000 
      27      0.030  2.5000000 
      28      0.030  2.5000000 
      29      0.030  2.5000000 
      30      0.030  2.5000000 
      31      0.030  2.5000000 

Bond Coeffs 

       1   268.0000     1.5290 
       2   268.0000     1.5290 
       3   268.0000     1.5290 
       4   317.0000     1.5220 
       5   570.0000     1.2290 
       6   268.0000     1.5290 
       7   268.0000     1.5290 
       8   268.0000     1.5290 
       9   317.0000     1.5220 
      10   570.0000     1.2290 
      11   214.0000     1.3270 
      12   320.0000     1.4100 
      13   340.0000     1.0900 
      14   340.0000     1.0900 
      15   340.0000     1.0900 
      16   340.0000     1.0900 
      17   340.0000     1.0900 
      18   340.0000     1.0900 
      19   340.0000     1.0900 
      20   340.0000     1.0900 
      21   340.0000     1.0900 
      22   340.0000     1.0900 
      23   340.0000     1.0900 
      24   340.0000     1.0900 
      25   340.0000     1.0900 
      26   340.0000     1.0900 
      27   340.0000     1.0900 
      28   340.0000     1.0900 
      29   340.0000     1.0900 
      30   340.0000     1.0900 

Angle Coeffs 

       1     58.350    112.700
       2     58.350    112.700
       3     63.000    111.100
       4     80.000    120.400
       5     58.350    112.700
       6     58.350    112.700
       7     58.350    112.700
       8     63.000    111.100
       9     80.000    120.400
      10     81.000    111.400
      11     83.000    116.900
      12     37.500    110.700
      13     37.500    110.700
      14     37.500    110.700
      15     37.500    110.700
      16     37.500    110.700
      17     37.500    110.700
      18     37.500    110.700
      19     37.500    110.700
      20     35.000    115.000
      21     37.500    110.700
      22     37.500    110.700
      23     37.500    110.700
      24     37.500    110.700
      25     37.500    110.700
      26     37.500    110.700
      27     35.000    109.500
      28     35.000    109.500
      29     35.000    109.500
      30     33.000    107.800
      31     37.500    110.700
      32     37.500    110.700
      33     83.000    123.400
      34     37.500    110.700
      35     58.350    112.700
      36     35.000    123.000
      37     37.500    110.700
      38     37.500    110.700
      39     33.000    107.800
      40     33.000    107.800
      41     37.500    110.700
      42     33.000    107.800
      43     33.000    107.800
      44     33.000    107.800
      45     33.000    107.800
      46     35.000    109.500
      47     37.500    110.700
      48     35.000    109.500
      49     35.000    109.500
      50     37.500    110.700
      51     33.000    107.800
      52     33.000    107.800
      53     33.000    107.800
      54     35.000    109.500
      55     33.000    107.800

Dihedral Coeffs  

       1      1.300     -0.200      0.200      0.000 
       2     -2.060     -0.313      0.315      0.000 
       3      0.000      0.000      0.000      0.000 
       4      1.300     -0.200      0.200      0.000 
       5      1.300     -0.200      0.200      0.000 
       6     -2.060     -0.313      0.315      0.000 
       7      0.000      0.000      0.000      0.000 
       8      4.669      5.124      0.000      0.000 
       9      0.000      0.000      0.300      0.000 
      10      0.000      0.000      0.198      0.000 
      11      0.000      0.000      0.000      0.000 
      12     -2.060     -0.313      0.315      0.000 
      13      0.000      0.000      0.000      0.000 
      14      0.000      0.000      0.300      0.000 
      15      0.000      0.000      0.360      0.000 
      16      0.000      0.000      0.300      0.000 
      17      0.000      0.000      0.300      0.000 
      18      0.000      0.000      0.360      0.000 
      19      0.000      0.000      0.300      0.000 
      20      0.000      0.000      0.300      0.000 
      21      0.000      0.000      0.198      0.000 
      22      0.000      0.000      0.300      0.000 
      23      0.000      0.000      0.198      0.000 
      24      0.000      0.000      0.300      0.000 
      25      0.000      0.000      0.300      0.000 
      26      0.000      0.000      0.000      0.000 
      27      0.000      0.000      0.300      0.000 
      28      0.000      0.000      0.300      0.000 
      29      1.300     -0.200      0.200      0.000 
      30      0.000      0.000      0.132      0.000 
      31      0.000      0.000      0.300      0.000 
      32      0.000      0.000      0.300      0.000 
      33      0.000      0.000      0.300      0.000 
      34      0.000      0.000      0.300      0.000 
      35      0.000      0.000     -0.553      0.000 
      36      0.000      0.000      0.300      0.000 
      37      0.000      0.000      0.300      0.000 
      38      0.000      0.000      0.300      0.000 
      39      0.000      0.000      0.300      0.000 
      40      0.000      0.000      0.300      0.000 
      41      0.000      0.000      0.300      0.000 
      42      0.000      0.000      0.300      0.000 
      43      0.000      0.000      0.000      0.000 
      44      0.000      0.000      0.300      0.000 
      45      0.000      0.000     -0.100      0.000 
      46      0.000      0.000     -0.100      0.000 
      47      0.000      0.000      0.300      0.000 
      48      0.000      0.000      0.300      0.000 
      49      0.000      0.000      0.300      0.000 
      50      0.000      0.000      0.300      0.000 
      51      0.000      5.124      0.000      0.000 
      52      0.000      0.000      0.300      0.000 
      53      0.000      0.000      0.300      0.000 
      54      0.000      0.000      0.300      0.000 
      55      0.000      0.000      0.300      0.000 
      56      0.000      0.000      0.300      0.000 
      57      0.000      0.000      0.300      0.000 
      58      0.000      0.000      0.132      0.000 
      59      0.000      0.000      0.300      0.000 
      60      0.000      0.000     -0.100      0.000 
      61      0.000      0.000      0.300      0.000 
      62      0.000      0.000      0.300      0.000 
      63      0.000      0.000      0.000      0.000 
      64      0.000      0.000      0.300      0.000 
      65      0.000      0.000      0.300      0.000 
      66      0.000      0.000      0.300      0.000 
      67      0.000      0.000      0.300      0.000 
      68      0.000      0.000      0.300      0.000 
      69      0.000      0.000      0.300      0.000 
      70      1.300     -0.200      0.200      0.000 
      71      0.000      0.000      0.300      0.000 

Improper Coeffs 

       1      0.000      -1       2 
       2     10.500      -1       2 
       3      0.000      -1       2 
       4      0.000      -1       2 
       5      0.000      -1       2 
       6      0.000      -1       2 
       7      0.000      -1       2 
       8      0.000      -1       2 
       9      0.000      -1       2 
      10     10.500      -1       2 
      11      0.000      -1       2 
      12      0.000      -1       2 
      13      0.000      -1       2 
      14      0.000      -1       2 
      15      0.000      -1       2 
      16      0.000      -1       2 
      17      0.000      -1       2 
      18      0.000      -1       2 

Atoms 

     1      1      1 -0.24080000    1.000  1.00000  0.00000
     2      1      2 -0.17960000   -0.522  1.00000  0.00000
     3      1      3 -0.10030000   -1.166  1.00000  1.40554
     4      1      4 -0.25230000   -0.767  2.25528  2.20514
     5      1      5 0.31090000   -1.240  2.24415  3.64265
     6      1      6 -0.44410000   -1.525  1.23035  4.27270
     7      1      7 -0.17640000   -2.710  0.91047  1.28929
     8      1      8 -0.17100000   -3.256 -0.32683  0.56794
     9      1      9 -0.18910000   -2.861 -1.64719  1.23026
    10      1     10 0.43210000   -3.425 -2.82661  0.47490
    11      1     11 -0.45110000   -4.111 -2.75695 -0.53680
    12      1     12 -0.35570000   -3.053 -3.98480  1.08969
    13      1     13 -0.05820000   -3.543 -5.15854  0.44088
    14      1     14 0.08240000    1.368  0.83947 -1.01887
    15      1     15 0.08240000    1.393  0.19738  0.63116
    16      1     16 0.08240000    1.404  1.95534  0.34545
    17      1     17 0.09290000   -0.833  0.10282 -0.54514
    18      1     18 0.09290000   -0.880  1.86292 -0.57465
    19      1     19 0.11630000   -0.799  0.12364  1.95371
    20      1     20 0.12190000   -1.178  3.15220  1.72670
    21      1     21 0.12190000    0.320  2.36978  2.25405
    22      1     22 0.10420000   -1.257  3.23175  4.13382
    23      1     23 0.09460000   -3.079  1.80086  0.76314
    24      1     24 0.09460000   -3.162  0.93844  2.28705
    25      1     25 0.10530000   -2.944 -0.32167 -0.48270
    26      1     26 0.10530000   -4.351 -0.25278  0.54791
    27      1     27 0.13750000   -3.241 -1.67655  2.25684
    28      1     28 0.13750000   -1.772 -1.75976  1.24413
    29      1     29 0.10130000   -3.235 -6.02641  1.02995
    30      1     30 0.10130000   -3.109 -5.24711 -0.55995
    31      1     31 0.10130000   -4.636 -5.14356  0.39228

Bonds 

     1      1      2      1
     2      2      3      2
     3      3      4      3
     4      4      5      4
     5      5      6      5
     6      6      7      3
     7      7      8      7
     8      8      9      8
     9      9     10      9
    10     10     11     10
    11     11     12     10
    12     12     13     12
    13     13     14      1
    14     14     15      1
    15     15     16      1
    16     16     17      2
    17     17     18      2
    18     18     19      3
    19     19     20      4
    20     20     21      4
    21     21     22      5
    22     22     23      7
    23     23     24      7
    24     24     25      8
    25     25     26      8
    26     26     27      9
    27     27     28      9
    28     28     29     13
    29     29     30     13
    30     30     31     13

Angles 

     1      1      1      2      3
     2      2      2      3      4
     3      3      3      4      5
     4      4      4      5      6
     5      5      2      3      7
     6      6      3      7      8
     7      7      7      8      9
     8      8      8      9     10
     9      9      9     10     11
    10     10      9     10     12
    11     11     10     12     13
    12     12      2      1     14
    13     13      2      1     15
    14     14      2      1     16
    15     15      1      2     17
    16     16      1      2     18
    17     17      2      3     19
    18     18      3      4     20
    19     19      3      4     21
    20     20      4      5     22
    21     21      3      7     23
    22     22      3      7     24
    23     23      7      8     25
    24     24      7      8     26
    25     25      8      9     27
    26     26      8      9     28
    27     27     12     13     29
    28     28     12     13     30
    29     29     12     13     31
    30     30     23      7     24
    31     31      9      8     25
    32     32      3      2     18
    33     33     11     10     12
    34     34      7      3     19
    35     35      4      3      7
    36     36      6      5     22
    37     37      3      2     17
    38     38      4      3     19
    39     39     25      8     26
    40     40     27      9     28
    41     41      8      7     23
    42     42     15      1     16
    43     43     14      1     15
    44     44     30     13     31
    45     45     17      2     18
    46     46      5      4     20
    47     47      9      8     26
    48     48     10      9     28
    49     49      5      4     21
    50     50      8      7     24
    51     51     29     13     30
    52     52     29     13     31
    53     53     14      1     16
    54     54     10      9     27
    55     55     20      4     21

Dihedrals

     1      1      4      3      2      1 
     2      2      5      4      3      2 
     3      3      6      5      4      3 
     4      4      8      7      3      2 
     5      5      9      8      7      3 
     6      6     10      9      8      7 
     7      7     11     10      9      8 
     8      8     13     12     10      9 
     9      9     14      1      2      3 
    10     10     29     13     12     10 
    11     11     27      9     10     11 
    12     12      7      3      4      5 
    13     13     22      5      4      3 
    14     14     18      2      3      7 
    15     15     22      5      4     21 
    16     16     19      3      7      8 
    17     17     19      3      2      1 
    18     18     22      5      4     20 
    19     19     24      7      8      9 
    20     20     23      7      8      9 
    21     21     31     13     12     10 
    22     22     23      7      3     19 
    23     23     30     13     12     10 
    24     24     27      9      8      7 
    25     25     27      9      8     25 
    26     26     20      4      5      6 
    27     27     21      4      3      2 
    28     28     26      8      7     24 
    29     29      7      3      2      1 
    30     30     28      9     10     12 
    31     31     20      4      3      7 
    32     32     25      8      7     23 
    33     33     25      8      7      3 
    34     34     28      9      8      7 
    35     35     12     10      9      8 
    36     36     23      7      3      2 
    37     37     21      4      3     19 
    38     38     19      3      2     17 
    39     39     20      4      3     19 
    40     40     23      7      3      4 
    41     41     18      2      1     14 
    42     42     17      2      1     15 
    43     43     21      4      5      6 
    44     44     24      7      3     19 
    45     45     19      3      4      5 
    46     46     25      8      9     10 
    47     47     18      2      3      4 
    48     48     25      8      7     24 
    49     49     20      4      3      2 
    50     50     17      2      3      7 
    51     51     13     12     10     11 
    52     52     18      2      1     16 
    53     53     26      8      7      3 
    54     54     21      4      3      7 
    55     55     27      9      8     26 
    56     56     28      9      8     25 
    57     57     28      9      8     26 
    58     58     27      9     10     12 
    59     59     24      7      3      2 
    60     60     26      8      9     10 
    61     61     16      1      2      3 
    62     62     17      2      1     14 
    63     63     28      9     10     11 
    64     64     19      3      2     18 
    65     65     15      1      2      3 
    66     66     17      2      1     16 
    67     67     18      2      1     15 
    68     68     24      7      3      4 
    69     69     17      2      3      4 
    70     70      8      7      3      4 
    71     71     26      8      7     23 

Impropers

     1      1      3      2      4      7 
     2      2     10      9     11     12 
     3      3      1      2     14     15 
     4      4      1      2     14     16 
     5      5      2     17      3      1 
     6      6      2      1     18      3 
     7      7      3      2     19      4 
     8      8      4      3     20      5 
     9      9      4      5      3     21 
    10     10      5      4     22      6 
    11     11      7      3     23      8 
    12     12      7      3      8     24 
    13     13      8     25      9      7 
    14     14      8      9     26      7 
    15     15      9     10     27      8 
    16     16      9     10     28      8 
    17     17     13     29     12     30 
    18     18     13     29     12     31 

