LAMMPS data file Created by LigParGen - (Written by Leela S. Dodda)

      39 atoms
      38 bonds
      73 angles
     102 dihedrals
      24 impropers
 
      39 atom types
      38 bond types
      73 angle types
     102 dihedral types
      24 improper types
 
   -5.452280    44.547720 xlo xhi
   -1.711590    48.288410 ylo yhi
   -1.027840    48.972160 zlo zhi

Masses

       1     12.011  
       2     12.011  
       3     12.011  
       4     12.011  
       5     12.011  
       6     14.007  
       7     12.011  
       8     12.011  
       9     12.011  
      10     12.011  
      11     12.011  
      12     12.011  
      13     12.011  
      14     12.011  
      15      1.008  
      16      1.008  
      17      1.008  
      18      1.008  
      19      1.008  
      20      1.008  
      21      1.008  
      22      1.008  
      23      1.008  
      24      1.008  
      25      1.008  
      26      1.008  
      27      1.008  
      28      1.008  
      29      1.008  
      30      1.008  
      31      1.008  
      32      1.008  
      33      1.008  
      34      1.008  
      35      1.008  
      36      1.008  
      37      1.008  
      38      1.008  
      39      1.008  

Pair Coeffs 

       1      0.066  3.5000000 
       2      0.066  3.5000000 
       3      0.066  3.5000000 
       4      0.066  3.5000000 
       5      0.066  3.3000000 
       6      0.170  3.2000000 
       7      0.066  3.5000000 
       8      0.066  3.5000000 
       9      0.066  3.5000000 
      10      0.066  3.5000000 
      11      0.066  3.5000000 
      12      0.066  3.5000000 
      13      0.066  3.5000000 
      14      0.066  3.5000000 
      15      0.030  2.5000000 
      16      0.030  2.5000000 
      17      0.030  2.5000000 
      18      0.030  2.5000000 
      19      0.030  2.5000000 
      20      0.030  2.5000000 
      21      0.030  2.5000000 
      22      0.030  2.5000000 
      23      0.030  2.5000000 
      24      0.030  2.5000000 
      25      0.030  2.5000000 
      26      0.030  2.5000000 
      27      0.030  2.5000000 
      28      0.030  2.5000000 
      29      0.030  2.5000000 
      30      0.030  2.5000000 
      31      0.030  2.5000000 
      32      0.030  2.5000000 
      33      0.030  2.5000000 
      34      0.030  2.5000000 
      35      0.030  2.5000000 
      36      0.030  2.5000000 
      37      0.030  2.5000000 
      38      0.030  2.5000000 
      39      0.030  2.5000000 

Bond Coeffs 

       1   268.0000     1.5290 
       2   268.0000     1.5290 
       3   268.0000     1.5290 
       4   390.0000     1.4700 
       5   650.0000     1.1570 
       6   268.0000     1.5290 
       7   268.0000     1.5290 
       8   268.0000     1.5290 
       9   268.0000     1.5290 
      10   268.0000     1.5290 
      11   268.0000     1.5290 
      12   268.0000     1.5290 
      13   268.0000     1.5290 
      14   340.0000     1.0900 
      15   340.0000     1.0900 
      16   340.0000     1.0900 
      17   340.0000     1.0900 
      18   340.0000     1.0900 
      19   340.0000     1.0900 
      20   340.0000     1.0900 
      21   340.0000     1.0900 
      22   340.0000     1.0900 
      23   340.0000     1.0900 
      24   340.0000     1.0900 
      25   340.0000     1.0900 
      26   340.0000     1.0900 
      27   340.0000     1.0900 
      28   340.0000     1.0900 
      29   340.0000     1.0900 
      30   340.0000     1.0900 
      31   340.0000     1.0900 
      32   340.0000     1.0900 
      33   340.0000     1.0900 
      34   340.0000     1.0900 
      35   340.0000     1.0900 
      36   340.0000     1.0900 
      37   340.0000     1.0900 
      38   340.0000     1.0900 

Angle Coeffs 

       1     58.350    112.700
       2     58.350    112.700
       3     58.350    112.700
       4    150.000    180.000
       5     58.350    112.700
       6     58.350    112.700
       7     58.350    112.700
       8     58.350    112.700
       9     58.350    112.700
      10     58.350    112.700
      11     58.350    112.700
      12     58.350    112.700
      13     37.500    110.700
      14     37.500    110.700
      15     37.500    110.700
      16     37.500    110.700
      17     37.500    110.700
      18     37.500    110.700
      19     37.500    110.700
      20     37.500    110.700
      21     37.500    110.700
      22     37.500    110.700
      23     37.500    110.700
      24     37.500    110.700
      25     37.500    110.700
      26     37.500    110.700
      27     37.500    110.700
      28     37.500    110.700
      29     37.500    110.700
      30     37.500    110.700
      31     37.500    110.700
      32     37.500    110.700
      33     37.500    110.700
      34     37.500    110.700
      35     37.500    110.700
      36     37.500    110.700
      37     37.500    110.700
      38     33.000    107.800
      39     33.000    107.800
      40     37.500    110.700
      41     37.500    110.700
      42     37.500    110.700
      43     58.350    112.700
      44     37.500    110.700
      45     37.500    110.700
      46     58.350    112.700
      47     33.000    107.800
      48     37.500    110.700
      49     33.000    107.800
      50     37.500    110.700
      51     33.000    107.800
      52     37.500    110.700
      53     33.000    107.800
      54     33.000    107.800
      55     33.000    107.800
      56     37.500    110.700
      57     35.000    108.500
      58     37.500    110.700
      59     33.000    107.800
      60     37.500    110.700
      61     33.000    107.800
      62     37.500    110.700
      63     33.000    107.800
      64     37.500    110.700
      65     33.000    107.800
      66     33.000    107.800
      67     33.000    107.800
      68     37.500    110.700
      69     33.000    107.800
      70     58.350    112.700
      71     33.000    107.800
      72     37.500    110.700
      73     33.000    107.800

Dihedral Coeffs  

       1      1.300     -0.200      0.200      0.000 
       2      0.000     -0.650      0.000      0.000 
       3      0.000      0.000      0.000      0.000 
       4      1.300     -0.200      0.200      0.000 
       5      1.300     -0.200      0.200      0.000 
       6      1.300     -0.200      0.200      0.000 
       7      1.300     -0.200      0.200      0.000 
       8      1.300     -0.200      0.200      0.000 
       9      0.000      0.000      0.300      0.000 
      10      0.000      0.000      0.300      0.000 
      11      0.000      0.000      0.300      0.000 
      12      0.000      0.000      0.300      0.000 
      13      0.000      0.000      0.300      0.000 
      14      0.000      0.000      0.300      0.000 
      15      0.000      0.000      0.300      0.000 
      16      1.300     -0.200      0.200      0.000 
      17      0.000      0.000      0.300      0.000 
      18      0.000      0.000      0.300      0.000 
      19      0.000      0.000      0.300      0.000 
      20      0.000      0.000      0.300      0.000 
      21      0.000      0.000      0.300      0.000 
      22      0.000      0.000      0.366      0.000 
      23      0.000      0.000      0.300      0.000 
      24      0.000      0.000      0.300      0.000 
      25      0.000      0.000      0.300      0.000 
      26      0.000      0.000      0.300      0.000 
      27      0.000      0.000      0.300      0.000 
      28      0.000      0.000      0.300      0.000 
      29      0.000      0.000      0.300      0.000 
      30      0.000      0.000      0.000      0.000 
      31      0.000      0.000      0.300      0.000 
      32      0.000      0.000      0.300      0.000 
      33      0.000      0.000      0.300      0.000 
      34      0.000      0.000      0.300      0.000 
      35      1.300     -0.200      0.200      0.000 
      36      0.000      0.000      0.300      0.000 
      37      0.000      0.000      0.300      0.000 
      38      0.000      0.000      0.300      0.000 
      39      0.000      0.000      0.300      0.000 
      40      0.000      0.000      0.300      0.000 
      41      0.000      0.000      0.300      0.000 
      42      0.000      0.000      0.300      0.000 
      43      0.000      0.000      0.300      0.000 
      44      0.000      0.000      0.300      0.000 
      45      0.000      0.000      0.300      0.000 
      46      0.000      0.000      0.300      0.000 
      47      0.000      0.000      0.300      0.000 
      48      0.000      0.000      0.300      0.000 
      49      0.000      0.000      0.300      0.000 
      50      0.000      0.000      0.300      0.000 
      51      0.000      0.000      0.300      0.000 
      52      0.000      0.000      0.300      0.000 
      53      0.000      0.000      0.300      0.000 
      54      0.000      0.000      0.300      0.000 
      55      1.300     -0.200      0.200      0.000 
      56      0.000      0.000      0.300      0.000 
      57      0.000      0.000      0.300      0.000 
      58      0.000      0.000      0.366      0.000 
      59      0.000      0.000      0.300      0.000 
      60      0.000      0.000      0.300      0.000 
      61      0.000      0.000      0.300      0.000 
      62      0.000      0.000      0.300      0.000 
      63      0.000      0.000      0.300      0.000 
      64      0.000      0.000      0.300      0.000 
      65      0.000      0.000      0.300      0.000 
      66      0.000      0.000      0.300      0.000 
      67      0.000      0.000      0.300      0.000 
      68      0.000      0.000      0.300      0.000 
      69      0.000      0.000      0.366      0.000 
      70      0.000      0.000      0.300      0.000 
      71      0.000      0.000      0.300      0.000 
      72      0.000      0.000      0.300      0.000 
      73      0.000      0.000      0.300      0.000 
      74      0.000      0.000      0.300      0.000 
      75      0.000     -0.650      0.000      0.000 
      76      0.000      0.000      0.366      0.000 
      77      0.000      0.000      0.300      0.000 
      78      0.000      0.000      0.300      0.000 
      79      0.000      0.000      0.300      0.000 
      80      0.000      0.000      0.300      0.000 
      81      0.000      0.000      0.300      0.000 
      82      0.000      0.000      0.300      0.000 
      83      0.000      0.000      0.300      0.000 
      84      0.000      0.000      0.300      0.000 
      85      0.000      0.000      0.300      0.000 
      86      0.000      0.000      0.300      0.000 
      87      0.000      0.000      0.300      0.000 
      88      0.000      0.000      0.300      0.000 
      89      0.000      0.000      0.300      0.000 
      90      0.000      0.000      0.300      0.000 
      91      0.000      0.000      0.300      0.000 
      92      1.300     -0.200      0.200      0.000 
      93      0.000      0.000      0.300      0.000 
      94      0.000      0.000      0.300      0.000 
      95      0.000      0.000      0.300      0.000 
      96      0.000      0.000      0.000      0.000 
      97      0.000      0.000      0.300      0.000 
      98      0.000      0.000      0.300      0.000 
      99      0.000      0.000      0.300      0.000 
     100      0.000      0.000      0.300      0.000 
     101      0.000      0.000      0.300      0.000 
     102      0.000      0.000      0.300      0.000 

Improper Coeffs 

       1      0.000      -1       2 
       2      0.000      -1       2 
       3      0.000      -1       2 
       4      0.000      -1       2 
       5      0.000      -1       2 
       6      0.000      -1       2 
       7      0.000      -1       2 
       8      0.000      -1       2 
       9      0.000      -1       2 
      10      0.000      -1       2 
      11      0.000      -1       2 
      12      0.000      -1       2 
      13      0.000      -1       2 
      14      0.000      -1       2 
      15      0.000      -1       2 
      16      0.000      -1       2 
      17      0.000      -1       2 
      18      0.000      -1       2 
      19      0.000      -1       2 
      20      0.000      -1       2 
      21      0.000      -1       2 
      22      0.000      -1       2 
      23      0.000      -1       2 
      24      0.000      -1       2 

Atoms 

     1      1      1 -0.23890000    1.000  1.00000  0.00000
     2      1      2 -0.18450000   -0.521  1.00000  0.00000
     3      1      3 -0.17510000   -1.085  1.00000  1.42805
     4      1      4 0.02910000   -2.625  1.00179  1.46467
     5      1      5 0.13350000   -3.148 -0.24675  0.77325
     6      1      6 -0.40110000   -3.581 -1.28228  0.19860
     7      1      7 -0.17770000   -3.194  0.99841  2.88818
     8      1      8 -0.11020000   -2.790  2.16437  3.81382
     9      1      9 -0.23950000   -3.231  3.51482  3.24028
    10      1     10 -0.17260000   -3.403  1.96403  5.22145
    11      1     11 -0.17810000   -2.872  0.69578  5.90320
    12      1     12 -0.11590000   -3.432  0.42816  7.30688
    13      1     13 -0.23450000   -4.953  0.26262  7.29775
    14      1     14 -0.23740000   -2.778 -0.84521  7.85550
    15      1     15 0.08390000    1.377  0.99870 -1.02784
    16      1     16 0.08390000    1.391  0.11148  0.50533
    17      1     17 0.08390000    1.391  1.88853  0.50507
    18      1     18 0.09580000   -0.863  0.11595 -0.55004
    19      1     19 0.09580000   -0.882  1.88265 -0.54057
    20      1     20 0.10400000   -0.703  1.88804  1.94286
    21      1     21 0.10400000   -0.700  0.12444  1.96763
    22      1     22 0.13350000   -3.002  1.87189  0.91407
    23      1     23 0.10380000   -2.884  0.04743  3.33601
    24      1     24 0.10380000   -4.291  0.96175  2.82974
    25      1     25 0.09990000   -1.701  2.18378  3.92410
    26      1     26 0.08430000   -4.299  3.51596  2.99501
    27      1     27 0.08430000   -2.673  3.75662  2.32999
    28      1     28 0.08430000   -3.050  4.32273  3.95771
    29      1     29 0.09410000   -4.494  1.92474  5.13079
    30      1     30 0.09410000   -3.162  2.83022  5.85040
    31      1     31 0.08920000   -1.778  0.76695  5.96108
    32      1     32 0.08920000   -3.099 -0.18435  5.29495
    33      1     33 0.09790000   -3.173  1.26551  7.96470
    34      1     34 0.08210000   -5.265 -0.50141  6.57722
    35      1     35 0.08210000   -5.452  1.20038  7.03564
    36      1     36 0.08210000   -5.318 -0.03698  8.28633
    37      1     37 0.08220000   -3.012 -1.71159  7.22438
    38      1     38 0.08220000   -3.130 -1.06280  8.86624
    39      1     39 0.08220000   -1.688 -0.73943  7.88863

Bonds 

     1      1      2      1
     2      2      3      2
     3      3      4      3
     4      4      5      4
     5      5      6      5
     6      6      7      4
     7      7      8      7
     8      8      9      8
     9      9     10      8
    10     10     11     10
    11     11     12     11
    12     12     13     12
    13     13     14     12
    14     14     15      1
    15     15     16      1
    16     16     17      1
    17     17     18      2
    18     18     19      2
    19     19     20      3
    20     20     21      3
    21     21     22      4
    22     22     23      7
    23     23     24      7
    24     24     25      8
    25     25     26      9
    26     26     27      9
    27     27     28      9
    28     28     29     10
    29     29     30     10
    30     30     31     11
    31     31     32     11
    32     32     33     12
    33     33     34     13
    34     34     35     13
    35     35     36     13
    36     36     37     14
    37     37     38     14
    38     38     39     14

Angles 

     1      1      1      2      3
     2      2      2      3      4
     3      3      3      4      5
     4      4      4      5      6
     5      5      3      4      7
     6      6      4      7      8
     7      7      7      8      9
     8      8      7      8     10
     9      9      8     10     11
    10     10     10     11     12
    11     11     11     12     13
    12     12     11     12     14
    13     13      2      1     15
    14     14      2      1     16
    15     15      2      1     17
    16     16      1      2     18
    17     17      1      2     19
    18     18      2      3     20
    19     19      2      3     21
    20     20      3      4     22
    21     21      4      7     23
    22     22      4      7     24
    23     23      7      8     25
    24     24      8      9     26
    25     25      8      9     27
    26     26      8      9     28
    27     27      8     10     29
    28     28      8     10     30
    29     29     10     11     31
    30     30     10     11     32
    31     31     11     12     33
    32     32     12     13     34
    33     33     12     13     35
    34     34     12     13     36
    35     35     12     14     37
    36     36     12     14     38
    37     37     12     14     39
    38     38     35     13     36
    39     39     18      2     19
    40     40     12     11     31
    41     41      9      8     25
    42     42      8      7     24
    43     43     13     12     14
    44     44     13     12     33
    45     45      3      2     18
    46     46      5      4      7
    47     47     15      1     17
    48     48     11     10     29
    49     49     26      9     27
    50     50     14     12     33
    51     51     23      7     24
    52     52     12     11     32
    53     53     31     11     32
    54     54     37     14     38
    55     55     29     10     30
    56     56      8      7     23
    57     57      5      4     22
    58     58      3      2     19
    59     59     15      1     16
    60     60     10      8     25
    61     61     34     13     36
    62     62      4      3     21
    63     63     27      9     28
    64     64      7      4     22
    65     65     16      1     17
    66     66     26      9     28
    67     67     34     13     35
    68     68      4      3     20
    69     69     38     14     39
    70     70      9      8     10
    71     71     37     14     39
    72     72     11     10     30
    73     73     20      3     21

Dihedrals

     1      1      4      3      2      1 
     2      2      5      4      3      2 
     3      3      6      5      4      3 
     4      4      8      7      4      3 
     5      5      9      8      7      4 
     6      6     11     10      8      7 
     7      7     12     11     10      8 
     8      8     13     12     11     10 
     9      9     15      1      2      3 
    10     10     26      9      8      7 
    11     11     34     13     12     11 
    12     12     37     14     12     11 
    13     13     28      9      8     10 
    14     14     31     11     12     14 
    15     15     32     11     12     13 
    16     16     14     12     11     10 
    17     17     25      8     10     11 
    18     18     29     10      8      7 
    19     19     39     14     12     33 
    20     20     20      3      4      7 
    21     21     32     11     10     30 
    22     22     23      7      4      5 
    23     23     20      3      2     19 
    24     24     21      3      2     18 
    25     25     31     11     10      8 
    26     26     22      4      7      8 
    27     27     21      3      4      7 
    28     28     26      9      8     10 
    29     29     36     13     12     11 
    30     30      7      4      5      6 
    31     31     18      2      1     15 
    32     32     38     14     12     13 
    33     33     36     13     12     33 
    34     34     26      9      8     25 
    35     35     10      8      7      4 
    36     36     29     10      8      9 
    37     37     23      7      4      3 
    38     38     27      9      8      7 
    39     39     27      9      8     25 
    40     40     24      7      4      3 
    41     41     37     14     12     33 
    42     42     25      8      7     23 
    43     43     20      3      2      1 
    44     44     33     12     11     10 
    45     45     20      3      2     18 
    46     46     35     13     12     33 
    47     47     22      4      3     20 
    48     48     29     10     11     12 
    49     49     23      7      8     10 
    50     50     24      7      8      9 
    51     51     25      8      7      4 
    52     52     27      9      8     10 
    53     53     34     13     12     14 
    54     54     30     10      8      9 
    55     55      7      4      3      2 
    56     56     22      4      3      2 
    57     57     30     10      8     25 
    58     58     20      3      4      5 
    59     59     23      7      4     22 
    60     60     32     11     10     29 
    61     61     31     11     10     30 
    62     62     31     11     12     13 
    63     63     18      2      1     17 
    64     64     19      2      1     16 
    65     65     35     13     12     14 
    66     66     33     12     11     32 
    67     67     21      3      2     19 
    68     68     38     14     12     33 
    69     69     21      3      4      5 
    70     70     37     14     12     13 
    71     71     28      9      8      7 
    72     72     32     11     10      8 
    73     73     24      7      4     22 
    74     74     28      9      8     25 
    75     75      8      7      4      5 
    76     76     24      7      4      5 
    77     77     39     14     12     13 
    78     78     29     10      8     25 
    79     79     30     10     11     12 
    80     80     35     13     12     11 
    81     81     17      1      2      3 
    82     82     25      8      7     24 
    83     83     39     14     12     11 
    84     84     23      7      8      9 
    85     85     31     11     10     29 
    86     86     19      2      3      4 
    87     87     24      7      8     10 
    88     88     30     10      8      7 
    89     89     33     12     11     31 
    90     90     34     13     12     33 
    91     91     22      4      3     21 
    92     92     11     10      8      9 
    93     93     18      2      3      4 
    94     94     19      2      1     17 
    95     95     21      3      2      1 
    96     96     22      4      5      6 
    97     97     32     11     12     14 
    98     98     36     13     12     14 
    99     99     16      1      2      3 
   100    100     38     14     12     11 
   101    101     18      2      1     16 
   102    102     19      2      1     15 

Impropers

     1      1      4      3      5      7 
     2      2      8      9     10      7 
     3      3     12     11     13     14 
     4      4      1      2     15     16 
     5      5      1     17     15      2 
     6      6      2      1     18      3 
     7      7      2      1     19      3 
     8      8      3      4      2     20 
     9      9      3      2      4     21 
    10     10      4      3      5     22 
    11     11      7      4     23      8 
    12     12      7      8      4     24 
    13     13      8     25      9      7 
    14     14      9     26     27      8 
    15     15      9     26     28      8 
    16     16     10     11     29      8 
    17     17     10     11     30      8 
    18     18     11     10     12     31 
    19     19     11     10     12     32 
    20     20     12     33     11     13 
    21     21     13     34     35     12 
    22     22     13     12     34     36 
    23     23     14     12     37     38 
    24     24     14     12     37     39 

