LAMMPS data file Created by LigParGen - (Written by Leela S. Dodda)

      37 atoms
      38 bonds
      78 angles
     117 dihedrals
      29 impropers
 
      37 atom types
      38 bond types
      78 angle types
     117 dihedral types
      29 improper types
 
   -8.389160    41.610840 xlo xhi
   -4.137760    45.862240 ylo yhi
   -1.011700    48.988300 zlo zhi

Masses

       1     12.011  
       2     12.011  
       3     12.011  
       4     12.011  
       5     12.011  
       6     12.011  
       7     12.011  
       8     12.011  
       9     12.011  
      10     12.011  
      11     12.011  
      12     12.011  
      13     12.011  
      14      1.008  
      15      1.008  
      16      1.008  
      17      1.008  
      18      1.008  
      19      1.008  
      20      1.008  
      21      1.008  
      22      1.008  
      23      1.008  
      24      1.008  
      25      1.008  
      26      1.008  
      27      1.008  
      28      1.008  
      29      1.008  
      30      1.008  
      31      1.008  
      32      1.008  
      33      1.008  
      34      1.008  
      35      1.008  
      36      1.008  
      37      1.008  

Pair Coeffs 

       1      0.066  3.5000000 
       2      0.066  3.5000000 
       3      0.066  3.5000000 
       4      0.066  3.5000000 
       5      0.066  3.5000000 
       6      0.066  3.5000000 
       7      0.066  3.5000000 
       8      0.083  3.4500000 
       9      0.083  3.4500000 
      10      0.083  3.4500000 
      11      0.083  3.4500000 
      12      0.083  3.4500000 
      13      0.066  3.5000000 
      14      0.030  2.5000000 
      15      0.030  2.5000000 
      16      0.030  2.5000000 
      17      0.030  2.5000000 
      18      0.030  2.5000000 
      19      0.030  2.5000000 
      20      0.030  2.5000000 
      21      0.030  2.5000000 
      22      0.030  2.5000000 
      23      0.030  2.5000000 
      24      0.030  2.5000000 
      25      0.030  2.5000000 
      26      0.030  2.5000000 
      27      0.030  2.5000000 
      28      0.030  2.5000000 
      29      0.030  2.5000000 
      30      0.030  2.5000000 
      31      0.030  2.5000000 
      32      0.030  2.5000000 
      33      0.030  2.5000000 
      34      0.030  2.5000000 
      35      0.030  2.5000000 
      36      0.030  2.5000000 
      37      0.030  2.5000000 

Bond Coeffs 

       1   268.0000     1.5290 
       2   268.0000     1.5290 
       3   268.0000     1.5290 
       4   268.0000     1.5290 
       5   268.0000     1.5290 
       6   268.0000     1.5290 
       7   280.0000     1.5100 
       8   260.0000     1.5200 
       9   260.0000     1.5200 
      10   260.0000     1.5200 
      11   260.0000     1.5200 
      12   280.0000     1.5100 
      13   340.0000     1.0900 
      14   340.0000     1.0900 
      15   340.0000     1.0900 
      16   340.0000     1.0900 
      17   340.0000     1.0900 
      18   340.0000     1.0900 
      19   340.0000     1.0900 
      20   340.0000     1.0900 
      21   340.0000     1.0900 
      22   340.0000     1.0900 
      23   340.0000     1.0900 
      24   340.0000     1.0900 
      25   340.0000     1.0900 
      26   340.0000     1.0900 
      27   340.0000     1.0900 
      28   340.0000     1.0880 
      29   340.0000     1.0880 
      30   340.0000     1.0880 
      31   340.0000     1.0880 
      32   340.0000     1.0880 
      33   340.0000     1.0880 
      34   340.0000     1.0900 
      35   340.0000     1.0900 
      36   340.0000     1.0900 
      37   260.0000     1.5200 
      38   260.0000     1.5200 

Angle Coeffs 

       1     58.350    112.700
       2     58.350    112.700
       3     58.350    112.700
       4     58.350    112.700
       5     58.350    112.700
       6     58.350    112.700
       7     37.500    117.200
       8     30.000     83.000
       9     30.000     83.000
      10     37.500    117.200
      11     37.500    117.200
      12     37.500    110.700
      13     37.500    110.700
      14     37.500    110.700
      15     37.500    110.700
      16     37.500    110.700
      17     37.500    110.700
      18     37.500    110.700
      19     37.500    110.700
      20     37.500    110.700
      21     37.500    110.700
      22     37.500    110.700
      23     37.500    110.700
      24     37.500    110.700
      25     37.500    110.700
      26     37.500    110.700
      27     35.000    114.300
      28     37.500    117.200
      29     37.500    117.200
      30     37.500    117.200
      31     37.500    117.200
      32     37.500    117.200
      33     37.500    110.700
      34     37.500    110.700
      35     37.500    110.700
      36     33.000    107.800
      37     37.500    110.700
      38     37.500    110.700
      39     37.500    110.700
      40     35.000    114.300
      41     37.500    110.700
      42     33.000    107.800
      43     33.000    107.800
      44     30.000     83.000
      45     37.500    117.200
      46     30.000     83.000
      47     37.500    117.200
      48     37.500    110.700
      49     30.000     83.000
      50     37.500    110.700
      51     37.500    110.700
      52     33.000    107.800
      53     30.000     83.000
      54     33.000    107.800
      55     58.350    112.700
      56     37.500    110.700
      57     33.000    107.800
      58     37.500    110.700
      59     37.500    117.200
      60     37.500    117.200
      61     33.000    107.800
      62     33.000    107.800
      63     30.000     83.000
      64     33.000    107.800
      65     37.500    117.200
      66     33.000    107.800
      67     37.500    117.200
      68     37.500    117.200
      69     30.000     83.000
      70     35.000    114.300
      71     37.500    110.700
      72     33.000    107.800
      73     37.500    117.200
      74     37.500    117.200
      75     30.000     83.000
      76     37.500    117.200
      77     33.000    107.800
      78     33.000    107.800

Dihedral Coeffs  

       1      1.300     -0.200      0.200      0.000 
       2      1.300     -0.200      0.200      0.000 
       3      1.300     -0.200      0.200      0.000 
       4      1.300     -0.200      0.200      0.000 
       5      0.000      0.000      0.000      0.000 
       6      0.000      0.000      0.000      0.000 
       7      0.000      0.000      0.000      0.000 
       8      0.000      0.000      0.000      0.000 
       9      0.000      0.000      0.000      0.000 
      10      0.000      0.000      0.300      0.000 
      11      0.000      0.000      0.300      0.000 
      12      0.000      0.000      0.300      0.000 
      13      0.000      0.000      0.300      0.000 
      14      0.000      0.000      0.300      0.000 
      15      0.000      0.000      0.300      0.000 
      16      0.000      0.000      0.300      0.000 
      17      0.000      0.000      0.300      0.000 
      18      0.000      0.000      0.300      0.000 
      19      0.000      0.000      0.300      0.000 
      20      0.000      0.000      0.000      0.000 
      21      0.000      0.000      0.000      0.000 
      22      0.000      0.000      0.300      0.000 
      23      0.000      0.000      0.000      0.000 
      24      0.000      0.000      0.000      0.000 
      25      0.000      0.000      0.300      0.000 
      26      0.000      0.000      0.000      0.000 
      27      0.000      0.000      0.300      0.000 
      28      0.000      0.000      0.300      0.000 
      29      0.000      0.000      0.000      0.000 
      30      0.000      0.000      0.300      0.000 
      31      0.000      0.000      0.300      0.000 
      32      0.000      0.000      0.300      0.000 
      33      0.000      0.000      0.300      0.000 
      34      0.000      0.000      0.000      0.000 
      35      0.000      0.000      0.300      0.000 
      36      0.000      0.000      0.000      0.000 
      37      0.000      0.000      0.300      0.000 
      38      0.000      0.000      0.000      0.000 
      39      0.000      0.000      0.300      0.000 
      40      0.000      0.000      0.300      0.000 
      41      0.000      0.000      0.000      0.000 
      42      0.000      0.000      0.000      0.000 
      43      0.000      0.000      0.000      0.000 
      44      0.000      0.000      0.300      0.000 
      45      1.300     -0.200      0.200      0.000 
      46      0.000      0.000      0.000      0.000 
      47      0.000      0.000      0.000      0.000 
      48      0.000      0.000      0.300      0.000 
      49      0.000      0.000      0.000      0.000 
      50      0.000      0.000      0.000      0.000 
      51      0.000      0.000      0.300      0.000 
      52      0.000      0.000      0.300      0.000 
      53      0.000      0.000      0.300      0.000 
      54      0.000      0.000      0.300      0.000 
      55      0.000      0.000      0.000      0.000 
      56      0.000      0.000      0.300      0.000 
      57      0.000      0.000      0.000      0.000 
      58      0.000      0.000      0.300      0.000 
      59      0.000      0.000      0.000      0.000 
      60      0.000      0.000      0.300      0.000 
      61      0.000      0.000      0.000      0.000 
      62      0.000      0.000      0.300      0.000 
      63      0.000      0.000      0.000      0.000 
      64      0.000      0.000      0.300      0.000 
      65      0.000      0.000      0.300      0.000 
      66      0.000      0.000      0.000      0.000 
      67      0.000      0.000      0.300      0.000 
      68      0.000      0.000      0.300      0.000 
      69      0.000      0.000      0.000      0.000 
      70      0.000      0.000      0.300      0.000 
      71      0.000      0.000      0.300      0.000 
      72      0.000      0.000      0.300      0.000 
      73      0.000      0.000      0.000      0.000 
      74      0.000      0.000      0.000      0.000 
      75      0.000      0.000      0.300      0.000 
      76      0.000      0.000      0.300      0.000 
      77      0.000      0.000      0.000      0.000 
      78      0.000      0.000      0.000      0.000 
      79      0.000      0.000      0.000      0.000 
      80      0.000      0.000      0.000      0.000 
      81      0.000      0.000      0.300      0.000 
      82      0.000      0.000      0.300      0.000 
      83      0.000      0.000      0.300      0.000 
      84      0.000      0.000      0.000      0.000 
      85      0.000      0.000      0.000      0.000 
      86      0.000      0.000      0.300      0.000 
      87      0.000      0.000      0.000      0.000 
      88      0.000      0.000      0.300      0.000 
      89      0.000      0.000      0.300      0.000 
      90      0.000      0.000      0.000      0.000 
      91      0.000      0.000      0.300      0.000 
      92      0.000      0.000      0.300      0.000 
      93      1.300     -0.200      0.200      0.000 
      94      0.000      0.000      0.300      0.000 
      95      0.000      0.000      0.300      0.000 
      96      0.000      0.000      0.000      0.000 
      97      0.000      0.000      0.300      0.000 
      98      0.000      0.000      0.300      0.000 
      99      0.000      0.000      0.000      0.000 
     100      0.000      0.000      0.000      0.000 
     101      0.000      0.000      0.300      0.000 
     102      0.000      0.000      0.300      0.000 
     103      0.000      0.000      0.000      0.000 
     104      0.000      0.000      0.300      0.000 
     105      0.000      0.000      0.300      0.000 
     106      0.000      0.000      0.300      0.000 
     107      0.000      0.000      0.300      0.000 
     108      0.000      0.000      0.300      0.000 
     109      0.000      0.000      0.000      0.000 
     110      0.000      0.000      0.000      0.000 
     111      0.000      0.000      0.000      0.000 
     112      0.000      0.000      0.300      0.000 
     113      0.000      0.000      0.000      0.000 
     114      0.000      0.000      0.000      0.000 
     115      0.000      0.000      0.300      0.000 
     116      0.000      0.000      0.300      0.000 
     117      0.000      0.000      0.300      0.000 

Improper Coeffs 

       1      0.000      -1       2 
       2      0.000      -1       2 
       3      0.000      -1       2 
       4      0.000      -1       2 
       5      0.000      -1       2 
       6      0.000      -1       2 
       7      0.000      -1       2 
       8      0.000      -1       2 
       9      0.000      -1       2 
      10      0.000      -1       2 
      11      0.000      -1       2 
      12      0.000      -1       2 
      13      0.000      -1       2 
      14      0.000      -1       2 
      15      0.000      -1       2 
      16      0.000      -1       2 
      17      0.000      -1       2 
      18      0.000      -1       2 
      19      0.000      -1       2 
      20      0.000      -1       2 
      21      0.000      -1       2 
      22      0.000      -1       2 
      23      0.000      -1       2 
      24      0.000      -1       2 
      25      0.000      -1       2 
      26      0.000      -1       2 
      27      0.000      -1       2 
      28      0.000      -1       2 
      29      0.000      -1       2 

Atoms 

     1      1      1 -0.23750000    1.000  1.00000  0.00000
     2      1      2 -0.17420000   -0.531  1.00000  0.00000
     3      1      3 -0.11290000   -1.164  1.00000  1.39443
     4      1      4 -0.23370000   -0.783  2.25171  2.19198
     5      1      5 -0.17710000   -2.698  0.85802  1.23948
     6      1      6 -0.17270000   -3.453  0.84279  2.56907
     7      1      7 -0.13760000   -4.961  0.61209  2.41548
     8      1      8 -0.12720000   -5.346 -0.73309  1.81846
     9      1      9 -0.28190000   -4.952 -1.96106  2.56709
    10      1     10 -0.17960000   -5.214 -3.30365  2.02055
    11      1     11 -0.12150000   -6.675 -3.07053  2.41483
    12      1     12 -0.09910000   -6.426 -1.57795  2.43885
    13      1     13 -0.21830000   -7.390 -0.85815  3.33745
    14      1     14 0.08070000    1.396  0.88742 -1.01170
    15      1     15 0.08070000    1.400  0.21467  0.63097
    16      1     16 0.08070000    1.385  1.97527  0.36666
    17      1     17 0.08720000   -0.859  0.09300 -0.52964
    18      1     18 0.08720000   -0.897  1.85468 -0.57662
    19      1     19 0.09650000   -0.796  0.12295  1.95014
    20      1     20 0.08120000   -1.178  3.15478  1.71496
    21      1     21 0.08120000    0.302  2.35563  2.27821
    22      1     22 0.08120000   -1.170  2.20553  3.21456
    23      1     23 0.09010000   -2.903 -0.07554  0.69760
    24      1     24 0.09010000   -3.087  1.67512  0.61627
    25      1     25 0.09160000   -3.323  1.80760  3.07108
    26      1     26 0.09160000   -3.014  0.08702  3.22982
    27      1     27 0.09580000   -5.399  1.40986  1.80503
    28      1     28 0.09580000   -5.385  0.72291  3.42266
    29      1     29 0.11530000   -5.220 -0.74642  0.73779
    30      1     30 0.16340000   -3.932 -1.79660  2.83657
    31      1     31 0.10500000   -4.731 -4.13776  2.53312
    32      1     32 0.10500000   -5.031 -3.38827  0.94552
    33      1     33 0.10460000   -6.909 -3.46153  3.41721
    34      1     34 0.10460000   -7.422 -3.45188  1.71530
    35      1     35 0.08800000   -8.389 -1.28331  3.19928
    36      1     36 0.08800000   -7.497  0.19460  3.06002
    37      1     37 0.08800000   -7.111 -0.94536  4.39600

Bonds 

     1      1      2      1
     2      2      3      2
     3      3      4      3
     4      4      5      3
     5      5      6      5
     6      6      7      6
     7      7      8      7
     8      8      9      8
     9      9     10      9
    10     10     11     10
    11     11     12      8
    12     12     13     12
    13     13     14      1
    14     14     15      1
    15     15     16      1
    16     16     17      2
    17     17     18      2
    18     18     19      3
    19     19     20      4
    20     20     21      4
    21     21     22      4
    22     22     23      5
    23     23     24      5
    24     24     25      6
    25     25     26      6
    26     26     27      7
    27     27     28      7
    28     28     29      8
    29     29     30      9
    30     30     31     10
    31     31     32     10
    32     32     33     11
    33     33     34     11
    34     34     35     13
    35     35     36     13
    36     36     37     13
    37     37     12      9
    38     38     12     11

Angles 

     1      1      1      2      3
     2      2      2      3      4
     3      3      2      3      5
     4      4      3      5      6
     5      5      5      6      7
     6      6      6      7      8
     7      7      7      8      9
     8      8      8      9     10
     9      9      9     10     11
    10     10      7      8     12
    11     11      8     12     13
    12     12      2      1     14
    13     13      2      1     15
    14     14      2      1     16
    15     15      1      2     17
    16     16      1      2     18
    17     17      2      3     19
    18     18      3      4     20
    19     19      3      4     21
    20     20      3      4     22
    21     21      3      5     23
    22     22      3      5     24
    23     23      5      6     25
    24     24      5      6     26
    25     25      6      7     27
    26     26      6      7     28
    27     27      7      8     29
    28     28      8      9     30
    29     29      9     10     31
    30     30      9     10     32
    31     31     10     11     33
    32     32     10     11     34
    33     33     12     13     35
    34     34     12     13     36
    35     35     12     13     37
    36     36     25      6     26
    37     37      5      3     19
    38     38      8      7     27
    39     39      6      5     24
    40     40     33     11     34
    41     41      3      2     18
    42     42     27      7     28
    43     43     35     13     36
    44     44      8      9     12
    45     45      9      8     29
    46     46      9      8     12
    47     47     10      9     30
    48     48      3      2     17
    49     49      8     12     11
    50     50      7      6     25
    51     51      4      3     19
    52     52     23      5     24
    53     53      8     12      9
    54     54     21      4     22
    55     55      4      3      5
    56     56      7      6     26
    57     57     35     13     37
    58     58      8      7     28
    59     59      9     12     13
    60     60     12      8     29
    61     61     15      1     16
    62     62     14      1     15
    63     63     10     11     12
    64     64     20      4     22
    65     65     12     11     34
    66     66     17      2     18
    67     67     11     10     31
    68     68     12      9     30
    69     69      9     12     11
    70     70     31     10     32
    71     71      6      5     23
    72     72     14      1     16
    73     73     11     10     32
    74     74     11     12     13
    75     75     10      9     12
    76     76     12     11     33
    77     77     20      4     21
    78     78     36     13     37

Dihedrals

     1      1      4      3      2      1 
     2      2      6      5      3      2 
     3      3      7      6      5      3 
     4      4      8      7      6      5 
     5      5      9      8      7      6 
     6      6     10      9      8      7 
     7      7     11     10      9      8 
     8      8     12      8      7      9 
     9      9     13     12      8      9 
    10     10     14      1      2      3 
    11     11     20      4      3      2 
    12     12     35     13     12      8 
    13     13     23      5      3      2 
    14     14     19      3      5      6 
    15     15     28      7      8      9 
    16     16     28      7      6     25 
    17     17     37     13     12      8 
    18     18     28      7      6     26 
    19     19     26      6      5     23 
    20     20     31     10      9     12 
    21     21     10      9     12      8 
    22     22     22      4      3      2 
    23     23     31     10     11     12 
    24     24     30      9     12     11 
    25     25     28      7      6      5 
    26     26     29      8     12     11 
    27     27     25      6      7      8 
    28     28     36     13     12     11 
    29     29     30      9      8      7 
    30     30     17      2      1     16 
    31     31     18      2      1     15 
    32     32     17      2      3      4 
    33     33     23      5      6      7 
    34     34     29      8     12     13 
    35     35     29      8      7     28 
    36     36     34     11     10     32 
    37     37     27      7      8      9 
    38     38     32     10     11     12 
    39     39     19      3      2      1 
    40     40     36     13     12      9 
    41     41     34     11     12     13 
    42     42     34     11     12      9 
    43     43     13     12      9      8 
    44     44     27      7      6     26 
    45     45      6      5      3      4 
    46     46     32     10      9      8 
    47     47     29      8     12      9 
    48     48     21      4      3     19 
    49     49     32     10      9     30 
    50     50     13     12      8      7 
    51     51     18      2      1     14 
    52     52     17      2      1     15 
    53     53     23      5      3     19 
    54     54     27      7      8     12 
    55     55     12      8      7      6 
    56     56     36     13     12      8 
    57     57     30      9      8     12 
    58     58     35     13     12      9 
    59     59     10     11     12      8 
    60     60     37     13     12     11 
    61     61     30      9      8     29 
    62     62     24      5      3      4 
    63     63     11     12      8      7 
    64     64     20      4      3      5 
    65     65     24      5      6      7 
    66     66     11     12      8      9 
    67     67     29      8      7     27 
    68     68     21      4      3      2 
    69     69     29      8      9     10 
    70     70     26      6      5     24 
    71     71     25      6      5      3 
    72     72     23      5      3      4 
    73     73     30      9     12     13 
    74     74     30      9     10     11 
    75     75     21      4      3      5 
    76     76     24      5      3      2 
    77     77     34     11     10      9 
    78     78     29      8      9     12 
    79     79     32     10      9     12 
    80     80     33     11     10     31 
    81     81     25      6      5     24 
    82     82     22      4      3     19 
    83     83     27      7      6     25 
    84     84     30      9     12      8 
    85     85     13     12     11     10 
    86     86     15      1      2      3 
    87     87     33     11     10      9 
    88     88     27      7      6      5 
    89     89     26      6      5      3 
    90     90     11     12      9      8 
    91     91     25      6      5     23 
    92     92     24      5      3     19 
    93     93      5      3      2      1 
    94     94     35     13     12     11 
    95     95     37     13     12      9 
    96     96     13     12      9     10 
    97     97     18      2      3      5 
    98     98     29      8      7      6 
    99     99     33     11     12      9 
   100    100     34     11     12      8 
   101    101     26      6      7      8 
   102    102     19      3      2     18 
   103    103     31     10      9      8 
   104    104     19      3      2     17 
   105    105     20      4      3     19 
   106    106     18      2      3      4 
   107    107     17      2      3      5 
   108    108     28      7      8     12 
   109    109     34     11     10     31 
   110    110     33     11     10     32 
   111    111     33     11     12      8 
   112    112     22      4      3      5 
   113    113     33     11     12     13 
   114    114     31     10      9     30 
   115    115     16      1      2      3 
   116    116     17      2      1     14 
   117    117     18      2      1     16 

Impropers

     1      1      3      2      4      5 
     2      2      1      2     14     15 
     3      3      1      2     14     16 
     4      4      2     17      3      1 
     5      5      2      1     18      3 
     6      6      3      2     19      4 
     7      7      4     20      3     21 
     8      8      4     20      3     22 
     9      9      5      3      6     23 
    10     10      5      3      6     24 
    11     11      6     25      5      7 
    12     12      6     26      5      7 
    13     13      7     27      6      8 
    14     14      7     28      6      8 
    15     15      8      9     29      7 
    16     16      9     10     30      8 
    17     17     10      9     11     31 
    18     18     10      9     11     32 
    19     19     11     33     10     12 
    20     20     11     34     12     10 
    21     21     13     12     35     36 
    22     22     13     35     12     37 
    23     23      9     10     11     12 
    24     24      9     10     11     12 
    25     25      9     10     11     12 
    26     26      9     12      8     10 
    27     27      9     10     11     12 
    28     28      8      9     12      7 
    29     29      8      9     12      7 

