LAMMPS data file Created by LigParGen - (Written by Leela S. Dodda)

      45 atoms
      44 bonds
      84 angles
     117 dihedrals
      28 impropers
 
      45 atom types
      44 bond types
      84 angle types
     117 dihedral types
      28 improper types
 
   -7.696690    42.303310 xlo xhi
   -2.411920    47.588080 ylo yhi
   -1.269640    48.730360 zlo zhi

Masses

       1     12.011  
       2     12.011  
       3     12.011  
       4     12.011  
       5     12.011  
       6     15.999  
       7     12.011  
       8     12.011  
       9     12.011  
      10     12.011  
      11     12.011  
      12     12.011  
      13     12.011  
      14     12.011  
      15     12.011  
      16     12.011  
      17     15.999  
      18      1.008  
      19      1.008  
      20      1.008  
      21      1.008  
      22      1.008  
      23      1.008  
      24      1.008  
      25      1.008  
      26      1.008  
      27      1.008  
      28      1.008  
      29      1.008  
      30      1.008  
      31      1.008  
      32      1.008  
      33      1.008  
      34      1.008  
      35      1.008  
      36      1.008  
      37      1.008  
      38      1.008  
      39      1.008  
      40      1.008  
      41      1.008  
      42      1.008  
      43      1.008  
      44      1.008  
      45      1.008  

Pair Coeffs 

       1      0.066  3.5000000 
       2      0.066  3.5000000 
       3      0.066  3.5000000 
       4      0.066  3.5000000 
       5      0.070  3.5500000 
       6      0.210  2.9600000 
       7      0.066  3.5000000 
       8      0.066  3.5000000 
       9      0.066  3.5000000 
      10      0.066  3.5000000 
      11      0.066  3.5000000 
      12      0.066  3.5000000 
      13      0.066  3.5000000 
      14      0.066  3.5000000 
      15      0.066  3.5000000 
      16      0.070  3.5500000 
      17      0.210  2.9600000 
      18      0.030  2.5000000 
      19      0.030  2.5000000 
      20      0.030  2.5000000 
      21      0.030  2.5000000 
      22      0.030  2.5000000 
      23      0.030  2.5000000 
      24      0.030  2.5000000 
      25      0.030  2.5000000 
      26      0.030  2.5000000 
      27      0.030  2.5000000 
      28      0.030  2.5000000 
      29      0.030  2.5000000 
      30      0.030  2.5000000 
      31      0.030  2.5000000 
      32      0.030  2.5000000 
      33      0.030  2.5000000 
      34      0.030  2.5000000 
      35      0.030  2.5000000 
      36      0.030  2.5000000 
      37      0.030  2.5000000 
      38      0.030  2.5000000 
      39      0.030  2.5000000 
      40      0.030  2.5000000 
      41      0.030  2.5000000 
      42      0.030  2.5000000 
      43      0.030  2.5000000 
      44      0.030  2.5000000 
      45      0.030  2.5000000 

Bond Coeffs 

       1   268.0000     1.5290 
       2   268.0000     1.5290 
       3   268.0000     1.5290 
       4   317.0000     1.5220 
       5   570.0000     1.2290 
       6   317.0000     1.5220 
       7   268.0000     1.5290 
       8   268.0000     1.5290 
       9   268.0000     1.5290 
      10   268.0000     1.5290 
      11   268.0000     1.5290 
      12   268.0000     1.5290 
      13   268.0000     1.5290 
      14   268.0000     1.5290 
      15   317.0000     1.5220 
      16   570.0000     1.2290 
      17   340.0000     1.0900 
      18   340.0000     1.0900 
      19   340.0000     1.0900 
      20   340.0000     1.0900 
      21   340.0000     1.0900 
      22   340.0000     1.0900 
      23   340.0000     1.0900 
      24   340.0000     1.0900 
      25   340.0000     1.0900 
      26   340.0000     1.0900 
      27   340.0000     1.0900 
      28   340.0000     1.0900 
      29   340.0000     1.0900 
      30   340.0000     1.0900 
      31   340.0000     1.0900 
      32   340.0000     1.0900 
      33   340.0000     1.0900 
      34   340.0000     1.0900 
      35   340.0000     1.0900 
      36   340.0000     1.0900 
      37   340.0000     1.0900 
      38   340.0000     1.0900 
      39   340.0000     1.0900 
      40   340.0000     1.0900 
      41   340.0000     1.0900 
      42   340.0000     1.0900 
      43   340.0000     1.0900 
      44   340.0000     1.0900 

Angle Coeffs 

       1     58.350    112.700
       2     58.350    112.700
       3     63.000    111.100
       4     80.000    120.400
       5     70.000    116.000
       6     63.000    111.100
       7     58.350    112.700
       8     63.000    111.100
       9     58.350    112.700
      10     58.350    112.700
      11     58.350    112.700
      12     58.350    112.700
      13     58.350    112.700
      14     63.000    111.100
      15     80.000    120.400
      16     37.500    110.700
      17     37.500    110.700
      18     37.500    110.700
      19     37.500    110.700
      20     37.500    110.700
      21     37.500    110.700
      22     37.500    110.700
      23     37.500    110.700
      24     35.000    109.500
      25     37.500    110.700
      26     37.500    110.700
      27     37.500    110.700
      28     37.500    110.700
      29     37.500    110.700
      30     37.500    110.700
      31     37.500    110.700
      32     37.500    110.700
      33     37.500    110.700
      34     37.500    110.700
      35     37.500    110.700
      36     37.500    110.700
      37     37.500    110.700
      38     37.500    110.700
      39     37.500    110.700
      40     37.500    110.700
      41     37.500    110.700
      42     37.500    110.700
      43     35.000    115.000
      44     37.500    110.700
      45     33.000    107.800
      46     33.000    107.800
      47     63.000    111.100
      48     37.500    110.700
      49     33.000    107.800
      50     37.500    110.700
      51     37.500    110.700
      52     35.000    109.500
      53     33.000    107.800
      54     33.000    107.800
      55     58.350    112.700
      56     37.500    110.700
      57     37.500    110.700
      58     37.500    110.700
      59     33.000    107.800
      60     37.500    110.700
      61     37.500    110.700
      62     37.500    110.700
      63     33.000    107.800
      64     33.000    107.800
      65     63.000    111.100
      66     33.000    107.800
      67     33.000    107.800
      68     80.000    120.400
      69     33.000    107.800
      70     37.500    110.700
      71     35.000    109.500
      72     33.000    107.800
      73     33.000    107.800
      74     35.000    123.000
      75     33.000    107.800
      76     33.000    107.800
      77     58.350    112.700
      78     37.500    110.700
      79     37.500    110.700
      80     33.000    107.800
      81     33.000    107.800
      82     33.000    107.800
      83     37.500    110.700
      84     33.000    107.800

Dihedral Coeffs  

       1      1.300     -0.200      0.200      0.000 
       2     -2.060     -0.313      0.315      0.000 
       3      0.000      0.000      0.000      0.000 
       4      1.454     -0.144     -0.775      0.000 
       5     -2.060     -0.313      0.315      0.000 
       6     -2.060     -0.313      0.315      0.000 
       7      1.300     -0.200      0.200      0.000 
       8      1.300     -0.200      0.200      0.000 
       9      0.000      0.000      0.000      0.000 
      10      0.000      0.000      0.300      0.000 
      11      0.000      0.000      0.300      0.000 
      12      0.000      0.000      0.300      0.000 
      13      0.000      0.000      0.300      0.000 
      14      0.000      0.000      0.300      0.000 
      15     -2.060     -0.313      0.315      0.000 
      16      0.000      0.000      0.300      0.000 
      17      1.300     -0.200      0.200      0.000 
      18      0.000      0.000      0.300      0.000 
      19      1.300     -0.200      0.200      0.000 
      20      0.000      0.000      0.300      0.000 
      21      0.000      0.000      0.300      0.000 
      22      0.000      0.000     -0.100      0.000 
      23      0.000      0.000      0.300      0.000 
      24      0.000      0.000      0.300      0.000 
      25      0.000      0.000      0.300      0.000 
      26      0.000      0.000      0.300      0.000 
      27      0.000      0.000      0.300      0.000 
      28      0.000      0.000      0.300      0.000 
      29      0.000      0.000      0.300      0.000 
      30      0.000      0.000      0.000      0.000 
      31      0.000      0.000     -0.100      0.000 
      32      0.000      0.000      0.300      0.000 
      33      0.000      0.000      0.000      0.000 
      34      0.000      0.000      0.300      0.000 
      35      0.000      0.000      0.360      0.000 
      36      0.000      0.000      0.300      0.000 
      37      0.000      0.000      0.300      0.000 
      38      1.300     -0.200      0.200      0.000 
      39     -2.060     -0.313      0.315      0.000 
      40      0.000      0.000      0.300      0.000 
      41      0.000      0.000      0.000      0.000 
      42      0.000      0.000      0.300      0.000 
      43      0.000      0.000      0.300      0.000 
      44      0.000      0.000      0.275      0.000 
      45      0.000      0.000      0.300      0.000 
      46      0.000      0.000      0.300      0.000 
      47      0.000      0.000     -0.100      0.000 
      48      0.000      0.000      0.300      0.000 
      49      0.000      0.000      0.000      0.000 
      50      0.000      0.000      0.300      0.000 
      51      1.454     -0.144     -0.775      0.000 
      52      0.000      0.000      0.300      0.000 
      53      0.000      0.000      0.300      0.000 
      54      0.000      0.000      0.300      0.000 
      55      0.000      0.000      0.300      0.000 
      56      0.000      0.000      0.300      0.000 
      57      0.000      0.000     -0.100      0.000 
      58      0.000      0.000      0.300      0.000 
      59      0.000      0.000      0.300      0.000 
      60      0.000      0.000      0.300      0.000 
      61      0.000      0.000     -0.100      0.000 
      62      0.000      0.000      0.000      0.000 
      63      0.000      0.000      0.300      0.000 
      64      0.000      0.000      0.300      0.000 
      65      0.000      0.000      0.300      0.000 
      66      0.000      0.000      0.300      0.000 
      67      0.000      0.000     -0.100      0.000 
      68      0.000      0.000      0.300      0.000 
      69      0.000      0.000      0.300      0.000 
      70      0.000      0.000      0.300      0.000 
      71      0.000      0.000      0.300      0.000 
      72      0.000      0.000      0.300      0.000 
      73      0.000      0.000      0.300      0.000 
      74      0.000      0.000      0.300      0.000 
      75      0.000      0.000      0.300      0.000 
      76      0.000      0.000      0.300      0.000 
      77      0.000      0.000      0.300      0.000 
      78      0.000      0.000      0.300      0.000 
      79      0.000      0.000      0.300      0.000 
      80      0.000      0.000      0.300      0.000 
      81      0.000      0.000      0.300      0.000 
      82      0.000      0.000      0.300      0.000 
      83      0.000      0.000      0.300      0.000 
      84      0.000      0.000      0.300      0.000 
      85      0.000      0.000      0.300      0.000 
      86      0.000      0.000      0.300      0.000 
      87      0.000      0.000      0.300      0.000 
      88      0.000      0.000      0.300      0.000 
      89      0.000      0.000      0.300      0.000 
      90      0.000      0.000     -0.100      0.000 
      91      0.000      0.000     -0.100      0.000 
      92      0.000      0.000      0.300      0.000 
      93      0.000      0.000     -0.100      0.000 
      94      0.000      0.000      0.000      0.000 
      95      0.000      0.000      0.300      0.000 
      96      1.300     -0.200      0.200      0.000 
      97      0.000      0.000      0.300      0.000 
      98      0.000      0.000      0.300      0.000 
      99      0.000      0.000      0.275      0.000 
     100      0.000      0.000      0.000      0.000 
     101      1.454     -0.144     -0.775      0.000 
     102      1.454     -0.144     -0.775      0.000 
     103      0.000      0.000      0.300      0.000 
     104      0.000      0.000      0.300      0.000 
     105      0.000      0.000      0.300      0.000 
     106      0.000      0.000      0.300      0.000 
     107      0.000      0.000      0.300      0.000 
     108      0.000      0.000      0.300      0.000 
     109      0.000      0.000      0.300      0.000 
     110      0.000      0.000      0.300      0.000 
     111      0.000      0.000      0.300      0.000 
     112      0.000      0.000      0.000      0.000 
     113      0.000      0.000     -0.100      0.000 
     114      0.000      0.000      0.300      0.000 
     115     -0.550      0.000      1.000      0.000 
     116      0.000      0.000     -0.100      0.000 
     117      0.000      0.000      0.000      0.000 

Improper Coeffs 

       1     10.500      -1       2 
       2      0.000      -1       2 
       3      0.000      -1       2 
       4      0.000      -1       2 
       5      0.000      -1       2 
       6      0.000      -1       2 
       7      0.000      -1       2 
       8      0.000      -1       2 
       9      0.000      -1       2 
      10      0.000      -1       2 
      11      0.000      -1       2 
      12      0.000      -1       2 
      13      0.000      -1       2 
      14      0.000      -1       2 
      15      0.000      -1       2 
      16      0.000      -1       2 
      17      0.000      -1       2 
      18      0.000      -1       2 
      19      0.000      -1       2 
      20      0.000      -1       2 
      21      0.000      -1       2 
      22      0.000      -1       2 
      23      0.000      -1       2 
      24      0.000      -1       2 
      25      0.000      -1       2 
      26      0.000      -1       2 
      27      0.000      -1       2 
      28     10.500      -1       2 

Atoms 

     1      1      1 -0.23940000    1.000  1.00000  0.00000
     2      1      2 -0.18630000   -0.522  1.00000  0.00000
     3      1      3 -0.15880000   -1.130  1.00000  1.41385
     4      1      4 -0.14300000   -2.684  0.93531  1.46735
     5      1      5 0.37120000   -3.307  2.27603  0.99186
     6      1      6 -0.45420000   -3.090  2.65841 -0.15799
     7      1      7 -0.15430000   -4.227  3.06173  1.94336
     8      1      8 -0.16650000   -3.501  3.45490  3.25413
     9      1      9 -0.24370000   -2.308  4.38847  3.07955
    10      1     10 -0.15710000   -4.841  4.34362  1.30724
    11      1     11 -0.11930000   -5.744  4.22350  0.06021
    12      1     12 -0.23430000   -6.955  3.31816  0.26077
    13      1     13 -0.23640000   -6.210  5.63296 -0.33563
    14      1     14 -0.17850000   -3.257 -0.23801  0.63431
    15      1     15 -0.22960000   -2.754 -1.60629  1.10225
    16      1     16 0.31510000   -4.769 -0.28849  0.66945
    17      1     17 -0.44740000   -5.439  0.03086  1.64297
    18      1     18 0.08080000    1.365  0.95249 -1.03279
    19      1     19 0.08080000    1.398  0.13350  0.53578
    20      1     20 0.08080000    1.397  1.91217  0.45403
    21      1     21 0.10130000   -0.847  0.11667 -0.55684
    22      1     22 0.10130000   -0.855  1.88027 -0.55637
    23      1     23 0.09310000   -0.779  1.88829  1.94921
    24      1     24 0.09310000   -0.725  0.14197  1.96607
    25      1     25 0.12590000   -2.970  0.79174  2.51456
    26      1     26 0.14580000   -5.056  2.39912  2.21204
    27      1     27 0.09390000   -3.172  2.56293  3.79161
    28      1     28 0.09390000   -4.226  3.95350  3.91710
    29      1     29 0.08510000   -1.499  3.89925  2.53112
    30      1     30 0.08510000   -1.917  4.68077  4.05930
    31      1     31 0.08510000   -2.569  5.30802  2.55038
    32      1     32 0.09220000   -4.027  5.02249  1.03462
    33      1     33 0.09220000   -5.424  4.85292  2.08806
    34      1     34 0.11760000   -5.161  3.83290 -0.78117
    35      1     35 0.08080000   -7.449  3.50849  1.21711
    36      1     36 0.08080000   -6.664  2.26556  0.22165
    37      1     37 0.08080000   -7.697  3.48141 -0.53466
    38      1     38 0.08000000   -6.847  6.07400  0.43998
    39      1     39 0.08000000   -6.782  5.61157 -1.26964
    40      1     40 0.08000000   -5.354  6.30037 -0.48586
    41      1     41 0.13490000   -3.001 -0.09899 -0.42262
    42      1     42 0.09440000   -2.984 -1.76919  2.16123
    43      1     43 0.09440000   -1.674 -1.71186  0.96869
    44      1     44 0.09440000   -3.237 -2.41192  0.53825
    45      1     45 0.11380000   -5.247 -0.71390 -0.23303

Bonds 

     1      1      2      1
     2      2      3      2
     3      3      4      3
     4      4      5      4
     5      5      6      5
     6      6      7      5
     7      7      8      7
     8      8      9      8
     9      9     10      7
    10     10     11     10
    11     11     12     11
    12     12     13     11
    13     13     14      4
    14     14     15     14
    15     15     16     14
    16     16     17     16
    17     17     18      1
    18     18     19      1
    19     19     20      1
    20     20     21      2
    21     21     22      2
    22     22     23      3
    23     23     24      3
    24     24     25      4
    25     25     26      7
    26     26     27      8
    27     27     28      8
    28     28     29      9
    29     29     30      9
    30     30     31      9
    31     31     32     10
    32     32     33     10
    33     33     34     11
    34     34     35     12
    35     35     36     12
    36     36     37     12
    37     37     38     13
    38     38     39     13
    39     39     40     13
    40     40     41     14
    41     41     42     15
    42     42     43     15
    43     43     44     15
    44     44     45     16

Angles 

     1      1      1      2      3
     2      2      2      3      4
     3      3      3      4      5
     4      4      4      5      6
     5      5      4      5      7
     6      6      5      7      8
     7      7      7      8      9
     8      8      5      7     10
     9      9      7     10     11
    10     10     10     11     12
    11     11     10     11     13
    12     12      3      4     14
    13     13      4     14     15
    14     14      4     14     16
    15     15     14     16     17
    16     16      2      1     18
    17     17      2      1     19
    18     18      2      1     20
    19     19      1      2     21
    20     20      1      2     22
    21     21      2      3     23
    22     22      2      3     24
    23     23      3      4     25
    24     24      5      7     26
    25     25      7      8     27
    26     26      7      8     28
    27     27      8      9     29
    28     28      8      9     30
    29     29      8      9     31
    30     30      7     10     32
    31     31      7     10     33
    32     32     10     11     34
    33     33     11     12     35
    34     34     11     12     36
    35     35     11     12     37
    36     36     11     13     38
    37     37     11     13     39
    38     38     11     13     40
    39     39      4     14     41
    40     40     14     15     42
    41     41     14     15     43
    42     42     14     15     44
    43     43     14     16     45
    44     44      9      8     28
    45     45     30      9     31
    46     46     29      9     30
    47     47      5      4     14
    48     48     11     10     33
    49     49     27      8     28
    50     50      8      7     26
    51     51      3      2     21
    52     52     16     14     41
    53     53     38     13     39
    54     54     29      9     31
    55     55      8      7     10
    56     56     13     11     34
    57     57     11     10     32
    58     58     14      4     25
    59     59     19      1     20
    60     60      4      3     23
    61     61      3      2     22
    62     62     15     14     41
    63     63     23      3     24
    64     64     38     13     40
    65     65     15     14     16
    66     66     36     12     37
    67     67     35     12     37
    68     68      6      5      7
    69     69     39     13     40
    70     70      4      3     24
    71     71      5      4     25
    72     72     35     12     36
    73     73     42     15     43
    74     74     17     16     45
    75     75     43     15     44
    76     76     18      1     20
    77     77     12     11     13
    78     78     10      7     26
    79     79     12     11     34
    80     80     18      1     19
    81     81     42     15     44
    82     82     21      2     22
    83     83      9      8     27
    84     84     32     10     33

Dihedrals

     1      1      4      3      2      1 
     2      2      5      4      3      2 
     3      3      6      5      4      3 
     4      4      8      7      5      4 
     5      5      9      8      7      5 
     6      6     11     10      7      5 
     7      7     12     11     10      7 
     8      8     15     14      4      3 
     9      9     17     16     14      4 
    10     10     18      1      2      3 
    11     11     29      9      8      7 
    12     12     35     12     11     10 
    13     13     38     13     11     10 
    14     14     42     15     14      4 
    15     15     15     14      4      5 
    16     16     36     12     11     34 
    17     17     14      4      3      2 
    18     18     39     13     11     12 
    19     19     10      7      8      9 
    20     20     34     11     10     33 
    21     21     36     12     11     13 
    22     22     44     15     14     16 
    23     23     40     13     11     34 
    24     24     25      4      3     24 
    25     25     43     15     14      4 
    26     26     33     10      7      8 
    27     27     19      1      2      3 
    28     28     33     10     11     13 
    29     29     34     11     10     32 
    30     30     25      4      5      6 
    31     31     23      3      4      5 
    32     32     24      3      2     22 
    33     33     26      7      5      6 
    34     34     32     10      7     26 
    35     35     45     16     14     41 
    36     36     27      8      7     26 
    37     37     22      2      1     20 
    38     38     11     10      7      8 
    39     39     16     14      4      3 
    40     40     32     10     11     12 
    41     41     10      7      5      6 
    42     42     40     13     11     10 
    43     43     39     13     11     10 
    44     44     26      7      5      4 
    45     45     24      3      2     21 
    46     46     27      8      7     10 
    47     47     33     10      7      5 
    48     48     28      8      7     26 
    49     49     45     16     14     15 
    50     50     34     11     10      7 
    51     51     14      4      5      7 
    52     52     40     13     11     12 
    53     53     37     12     11     13 
    54     54     43     15     14     41 
    55     55     38     13     11     12 
    56     56     21      2      1     18 
    57     57     28      8      7      5 
    58     58     30      9      8     27 
    59     59     29      9      8     28 
    60     60     41     14      4     25 
    61     61     25      4     14     16 
    62     62     41     14     16     17 
    63     63     30      9      8      7 
    64     64     31      9      8     28 
    65     65     44     15     14     41 
    66     66     44     15     14      4 
    67     67     24      3      4      5 
    68     68     32     10      7      8 
    69     69     32     10     11     13 
    70     70     42     15     14     41 
    71     71     21      2      1     20 
    72     72     22      2      1     19 
    73     73     31      9      8     27 
    74     74     30      9      8     28 
    75     75     23      3      4     14 
    76     76     28      8      7     10 
    77     77     33     10     11     12 
    78     78     26      7     10     11 
    79     79     33     10      7     26 
    80     80     25      4      3     23 
    81     81     37     12     11     34 
    82     82     29      9      8     27 
    83     83     37     12     11     10 
    84     84     23      3      2      1 
    85     85     24      3      4     14 
    86     86     35     12     11     34 
    87     87     23      3      2     21 
    88     88     38     13     11     34 
    89     89     21      2      3      4 
    90     90     32     10      7      5 
    91     91     43     15     14     16 
    92     92     24      3      2      1 
    93     93     27      8      7      5 
    94     94     45     16     14      4 
    95     95     20      1      2      3 
    96     96     13     11     10      7 
    97     97     26      7      8      9 
    98     98     41     14      4      3 
    99     99     25      4      5      7 
   100    100      8      7      5      6 
   101    101      7      5      4      3 
   102    102     10      7      5      4 
   103    103     39     13     11     34 
   104    104     31      9      8      7 
   105    105     22      2      3      4 
   106    106     22      2      1     18 
   107    107     21      2      1     19 
   108    108     35     12     11     13 
   109    109     25      4      3      2 
   110    110     36     12     11     10 
   111    111     23      3      2     22 
   112    112     17     16     14     15 
   113    113     41     14      4      5 
   114    114     25      4     14     15 
   115    115     16     14      4      5 
   116    116     42     15     14     16 
   117    117     14      4      5      6 

Impropers

     1      1      5      4      6      7 
     2      2      7     10      5      8 
     3      3     11     10     12     13 
     4      4      4      3      5     14 
     5      5     14      4     15     16 
     6      6      1      2     19     18 
     7      7      1      2     20     18 
     8      8      2      1      3     21 
     9      9      2      1      3     22 
    10     10      3      2      4     23 
    11     11      3      2      4     24 
    12     12      4     25      3      5 
    13     13      7     26      5      8 
    14     14      8      9     27      7 
    15     15      8      9     28      7 
    16     16      9     29     30      8 
    17     17      9     29     31      8 
    18     18     10     11      7     32 
    19     19     10     33     11      7 
    20     20     11     34     12     10 
    21     21     12     11     36     35 
    22     22     12     11     37     35 
    23     23     13     11     38     39 
    24     24     13     11     38     40 
    25     25     14     41      4     15 
    26     26     15     42     43     14 
    27     27     15     42     44     14 
    28     28     16     17     45     14 

