LAMMPS data file Created by LigParGen - (Written by Leela S. Dodda)

      32 atoms
      32 bonds
      61 angles
      86 dihedrals
      20 impropers
 
      32 atom types
      32 bond types
      61 angle types
      86 dihedral types
      20 improper types
 
   -5.439590    44.560410 xlo xhi
   -2.164440    47.835560 ylo yhi
   -5.401750    44.598250 zlo zhi

Masses

       1     12.011  
       2     12.011  
       3     15.999  
       4     12.011  
       5     12.011  
       6     15.999  
       7     15.999  
       8     12.011  
       9     12.011  
      10     12.011  
      11     12.011  
      12     12.011  
      13     32.060  
      14     12.011  
      15     15.999  
      16     15.999  
      17      1.008  
      18      1.008  
      19      1.008  
      20      1.008  
      21      1.008  
      22      1.008  
      23      1.008  
      24      1.008  
      25      1.008  
      26      1.008  
      27      1.008  
      28      1.008  
      29      1.008  
      30      1.008  
      31      1.008  
      32      1.008  

Pair Coeffs 

       1      0.066  3.5000000 
       2      0.070  3.5500000 
       3      0.210  2.9600000 
       4      0.066  3.5000000 
       5      0.070  3.5500000 
       6      0.210  2.9600000 
       7      0.140  2.9000000 
       8      0.066  3.5000000 
       9      0.066  3.5000000 
      10      0.066  3.5000000 
      11      0.066  3.5000000 
      12      0.066  3.5000000 
      13      0.250  3.5500000 
      14      0.066  3.5000000 
      15      0.170  2.9600000 
      16      0.170  2.9600000 
      17      0.030  2.5000000 
      18      0.030  2.5000000 
      19      0.030  2.5000000 
      20      0.030  2.5000000 
      21      0.030  2.5000000 
      22      0.030  2.5000000 
      23      0.030  2.5000000 
      24      0.030  2.5000000 
      25      0.030  2.5000000 
      26      0.030  2.5000000 
      27      0.030  2.5000000 
      28      0.030  2.5000000 
      29      0.030  2.5000000 
      30      0.030  2.5000000 
      31      0.030  2.5000000 
      32      0.030  2.5000000 

Bond Coeffs 

       1   317.0000     1.5220 
       2   570.0000     1.2290 
       3   317.0000     1.5220 
       4   317.0000     1.5220 
       5   570.0000     1.2290 
       6   214.0000     1.3270 
       7   320.0000     1.4100 
       8   268.0000     1.5290 
       9   268.0000     1.5290 
      10   268.0000     1.5290 
      11   268.0000     1.5290 
      12   340.0000     1.7700 
      13   340.0000     1.7700 
      14   700.0000     1.4400 
      15   700.0000     1.4400 
      16   340.0000     1.0900 
      17   340.0000     1.0900 
      18   340.0000     1.0900 
      19   340.0000     1.0900 
      20   340.0000     1.0900 
      21   340.0000     1.0900 
      22   340.0000     1.0900 
      23   340.0000     1.0900 
      24   340.0000     1.0900 
      25   340.0000     1.0900 
      26   340.0000     1.0900 
      27   340.0000     1.0900 
      28   340.0000     1.0900 
      29   340.0000     1.0900 
      30   340.0000     1.0900 
      31   340.0000     1.0900 
      32   268.0000     1.5290 

Angle Coeffs 

       1     80.000    120.400
       2     70.000    116.000
       3     63.000    111.100
       4     80.000    120.400
       5     81.000    111.400
       6     83.000    116.900
       7     50.000    109.500
       8     63.000    111.100
       9     58.350    112.700
      10     58.350    112.700
      11     50.000    108.600
      12     62.000    102.000
      13     74.000    108.900
      14     74.000    108.900
      15     35.000    109.500
      16     35.000    109.500
      17     35.000    109.500
      18     35.000    109.500
      19     35.000    109.500
      20     35.000    109.500
      21     37.500    110.700
      22     37.500    110.700
      23     37.500    110.700
      24     37.500    110.700
      25     37.500    110.700
      26     37.500    110.700
      27     37.500    110.700
      28     35.000    109.500
      29     35.000    109.500
      30     35.000    109.500
      31     37.500    110.700
      32     35.000    109.500
      33     33.000    107.800
      34    104.000    119.000
      35     33.000    107.800
      36     33.000    107.800
      37     33.000    107.800
      38     33.000    107.800
      39     37.500    110.700
      40     37.500    110.700
      41     74.000    108.900
      42     58.350    112.700
      43     33.000    107.800
      44     33.000    107.800
      45     33.000    107.800
      46     33.000    107.800
      47     33.000    107.800
      48     33.000    107.800
      49     83.000    123.400
      50     80.000    120.400
      51     37.500    110.700
      52     74.000    108.900
      53     35.000    109.500
      54     50.000    108.600
      55     58.350    112.700
      56     37.500    110.700
      57     37.500    110.700
      58     37.500    110.700
      59     58.350    112.700
      60     63.000    111.100
      61     37.500    110.700

Dihedral Coeffs  

       1      1.454     -0.144     -0.775      0.000 
       2      0.000      0.000      0.000      0.000 
       3      4.669      5.124      0.000      0.000 
       4     -1.220     -0.126      0.422      0.000 
       5      1.300     -0.200      0.200      0.000 
       6      0.000      0.000      0.000      0.000 
       7      0.000      0.000      0.000      0.000 
       8      0.000      0.000      0.300      0.000 
       9      0.000      0.000      0.350      0.000 
      10      0.000      0.000     -0.100      0.000 
      11      0.000      0.000      0.300      0.000 
      12     -2.060     -0.313      0.315      0.000 
      13      0.000      0.000      0.452      0.000 
      14      0.000      0.000      0.452      0.000 
      15      1.262     -0.198      0.465      0.000 
      16      0.000      0.000      0.300      0.000 
      17      0.000      0.000      0.275      0.000 
      18      1.711     -0.500      0.663      0.000 
      19      0.000      0.000      0.000      0.000 
      20      0.000      0.000      0.300      0.000 
      21      0.000      0.000      0.300      0.000 
      22     -2.060     -0.313      0.315      0.000 
      23      0.000      0.000     -0.100      0.000 
      24      1.300     -0.200      0.200      0.000 
      25      0.000      0.000      0.300      0.000 
      26      0.000      0.000      0.300      0.000 
      27      0.000      0.000      0.350      0.000 
      28      0.000      0.000      0.300      0.000 
      29      0.000      0.000      0.000      0.000 
      30      0.000      0.000      0.300      0.000 
      31      0.000      0.000      0.300      0.000 
      32      0.000      0.000      0.300      0.000 
      33      0.000      0.000      0.350      0.000 
      34      0.000      0.000      0.000      0.000 
      35      0.000      0.000      0.000      0.000 
      36      0.000      0.000      0.300      0.000 
      37      0.000      0.000      0.300      0.000 
      38      1.262     -0.198      0.465      0.000 
      39      0.000      0.000      0.468      0.000 
      40      0.000      0.000      0.350      0.000 
      41      0.000      0.000      0.350      0.000 
      42      1.300     -0.200      0.200      0.000 
      43      0.000      0.000      0.198      0.000 
      44      0.000      0.000      0.468      0.000 
      45      0.000      0.000      0.300      0.000 
      46      0.000      0.000      0.350      0.000 
      47      0.000      0.000      0.350      0.000 
      48      0.000      0.000      0.300      0.000 
      49      0.000      0.000      0.275      0.000 
      50      0.000      0.000      0.000      0.000 
      51      0.000      0.000      0.000      0.000 
      52      0.000      0.000      0.300      0.000 
      53      0.000      0.000      0.300      0.000 
      54      0.000      0.000     -0.553      0.000 
      55      1.300     -0.200      0.200      0.000 
      56      0.000      0.000      0.300      0.000 
      57      0.000      0.000      0.000      0.000 
      58      0.000      0.000      0.000      0.000 
      59      0.000      0.000      0.000      0.000 
      60      0.000      0.000      0.000      0.000 
      61      0.000      0.000      0.350      0.000 
      62      0.000      0.000      0.000      0.000 
      63      1.454     -0.144     -0.775      0.000 
      64      0.000      0.000      0.300      0.000 
      65      0.000      0.000      0.300      0.000 
      66      0.000      0.000      0.300      0.000 
      67      0.000      0.000      0.198      0.000 
      68     -2.060     -0.313      0.315      0.000 
      69      0.000      0.000      0.300      0.000 
      70      0.000      0.000      0.350      0.000 
      71      0.000      0.000     -0.553      0.000 
      72      0.000      0.000      0.452      0.000 
      73      0.000      0.000      0.350      0.000 
      74      0.000      0.000      0.300      0.000 
      75      0.000      0.000      0.275      0.000 
      76      0.000      0.000      0.350      0.000 
      77     -2.060     -0.313      0.315      0.000 
      78      0.000      5.124      0.000      0.000 
      79      0.000      0.000      0.452      0.000 
      80      0.000      0.000      0.300      0.000 
      81      0.000      0.000      0.132      0.000 
      82      0.000      0.000      0.300      0.000 
      83      0.000      0.000      0.350      0.000 
      84      0.000      0.000      0.275      0.000 
      85      0.000      0.000      0.300      0.000 
      86      0.000      0.000      0.000      0.000 

Improper Coeffs 

       1     10.500      -1       2 
       2     10.500      -1       2 
       3      0.000      -1       2 
       4      0.000      -1       2 
       5      0.000      -1       2 
       6      0.000      -1       2 
       7      0.000      -1       2 
       8      0.000      -1       2 
       9      0.000      -1       2 
      10      0.000      -1       2 
      11      0.000      -1       2 
      12      0.000      -1       2 
      13      0.000      -1       2 
      14      0.000      -1       2 
      15      0.000      -1       2 
      16      0.000      -1       2 
      17      0.000      -1       2 
      18      0.000      -1       2 
      19      0.000      -1       2 
      20      0.000      -1       2 

Atoms 

     1      1      1 -0.29790000    1.000  1.00000  0.00000
     2      1      2 0.38740000   -0.512  1.00000  0.00000
     3      1      3 -0.44200000   -1.132  1.00000  1.06462
     4      1      4 -0.25500000   -1.209  1.08772 -1.35816
     5      1      5 0.47410000   -0.829 -0.09193 -2.21373
     6      1      6 -0.37330000    0.135 -0.06828 -2.97043
     7      1      7 -0.36930000   -1.513 -1.23862 -1.99523
     8      1      8 0.03600000   -2.918 -1.20750 -1.70978
     9      1      9 -0.22500000   -3.331 -0.06706 -0.79902
    10      1     10 -0.05500000   -2.746  1.26766 -1.27799
    11      1     11 -0.41380000   -3.431  1.74839 -2.61506
    12      1     12 -0.22920000   -4.950  1.89765 -2.43119
    13      1     13 1.27880000   -2.757  3.32544 -3.23538
    14      1     14 -0.56940000   -3.660  3.67668 -4.72707
    15      1     15 -0.56250000   -3.060  4.35734 -2.26665
    16      1     16 -0.56250000   -1.388  3.08930 -3.66011
    17      1     17 0.13020000    1.365  0.84750  1.02010
    18      1     18 0.13020000    1.362  1.96373 -0.36589
    19      1     19 0.13020000    1.386  0.18864 -0.62037
    20      1     20 0.18440000   -0.768  1.98336 -1.79511
    21      1     21 0.11160000   -3.177 -2.16444 -1.24476
    22      1     22 0.11160000   -3.445 -1.16559 -2.66862
    23      1     23 0.12960000   -2.969 -0.28777  0.21059
    24      1     24 0.12960000   -4.419 -0.03593 -0.70608
    25      1     25 0.14720000   -2.964  2.02209 -0.50979
    26      1     26 0.15280000   -3.236  1.02632 -3.41532
    27      1     27 0.10500000   -5.180  2.61758 -1.63750
    28      1     28 0.10500000   -5.431  0.94868 -2.18425
    29      1     29 0.10500000   -5.440  2.24595 -3.34309
    30      1     30 0.16880000   -4.704  3.87743 -4.49570
    31      1     31 0.16880000   -3.559  2.82359 -5.40175
    32      1     32 0.16880000   -3.217  4.56422 -5.18379

Bonds 

     1      1      2      1
     2      2      3      2
     3      3      4      2
     4      4      5      4
     5      5      6      5
     6      6      7      5
     7      7      8      7
     8      8      9      8
     9      9     10      4
    10     10     11     10
    11     11     12     11
    12     12     13     11
    13     13     14     13
    14     14     15     13
    15     15     16     13
    16     16     17      1
    17     17     18      1
    18     18     19      1
    19     19     20      4
    20     20     21      8
    21     21     22      8
    22     22     23      9
    23     23     24      9
    24     24     25     10
    25     25     26     11
    26     26     27     12
    27     27     28     12
    28     28     29     12
    29     29     30     14
    30     30     31     14
    31     31     32     14
    32     32     10      9

Angles 

     1      1      1      2      3
     2      2      1      2      4
     3      3      2      4      5
     4      4      4      5      6
     5      5      4      5      7
     6      6      5      7      8
     7      7      7      8      9
     8      8      2      4     10
     9      9      4     10     11
    10     10     10     11     12
    11     11     10     11     13
    12     12     11     13     14
    13     13     11     13     15
    14     14     11     13     16
    15     15      2      1     17
    16     16      2      1     18
    17     17      2      1     19
    18     18      2      4     20
    19     19      7      8     21
    20     20      7      8     22
    21     21      8      9     23
    22     22      8      9     24
    23     23      4     10     25
    24     24     10     11     26
    25     25     11     12     27
    26     26     11     12     28
    27     27     11     12     29
    28     28     13     14     30
    29     29     13     14     31
    30     30     13     14     32
    31     31      9     10     25
    32     32     13     11     26
    33     33     17      1     19
    34     34     15     13     16
    35     35     21      8     22
    36     36     28     12     29
    37     37     31     14     32
    38     38     30     14     31
    39     39     10      4     20
    40     40     10      9     23
    41     41     14     13     15
    42     42      4     10      9
    43     43     23      9     24
    44     44     17      1     18
    45     45     27     12     29
    46     46     27     12     28
    47     47     18      1     19
    48     48     30     14     32
    49     49      6      5      7
    50     50      3      2      4
    51     51     11     10     25
    52     52     14     13     16
    53     53      5      4     20
    54     54     12     11     13
    55     55      9     10     11
    56     56     10      9     24
    57     57      9      8     21
    58     58     12     11     26
    59     59      8      9     10
    60     60      5      4     10
    61     61      9      8     22

Dihedrals

     1      1      5      4      2      1 
     2      2      6      5      4      2 
     3      3      8      7      5      4 
     4      4      9      8      7      5 
     5      5     12     11     10      4 
     6      6     14     13     11     10 
     7      7     17      1      2      3 
     8      8     27     12     11     10 
     9      9     30     14     13     11 
    10     10     25     10      4      2 
    11     11     21      8      9     10 
    12     12      9     10      4      2 
    13     13     28     12     11     13 
    14     14     25     10     11     13 
    15     15     13     11     10      4 
    16     16     28     12     11     26 
    17     17     18      1      2      4 
    18     18     10      9      8      7 
    19     19     19      1      2      3 
    20     20     23      9     10      4 
    21     21     23      9     10     11 
    22     22     11     10      4      5 
    23     23     25     10      4      5 
    24     24      8      9     10      4 
    25     25     25     10      9      8 
    26     26     24      9      8     22 
    27     27     32     14     13     16 
    28     28     28     12     11     10 
    29     29     16     13     11     12 
    30     30     29     12     11     10 
    31     31     26     11     10     25 
    32     32     29     12     11     26 
    33     33     31     14     13     11 
    34     34      5      4      2      3 
    35     35     15     13     11     10 
    36     36     23      9      8     22 
    37     37     24      9      8     21 
    38     38     13     11     10      9 
    39     39     23      9      8      7 
    40     40     31     14     13     15 
    41     41     30     14     13     16 
    42     42     11     10      9      8 
    43     43     21      8      7      5 
    44     44     24      9      8      7 
    45     45     26     11     10      9 
    46     46     26     11     13     14 
    47     47     30     14     13     15 
    48     48     26     11     10      4 
    49     49     17      1      2      4 
    50     50     18      1      2      3 
    51     51     20      4      2      3 
    52     52     25     10      9     24 
    53     53     25     10     11     12 
    54     54      7      5      4      2 
    55     55     12     11     10      9 
    56     56     22      8      9     10 
    57     57     20      4      5      6 
    58     58     10      4      2      3 
    59     59     16     13     11     10 
    60     60     14     13     11     12 
    61     61     26     11     13     15 
    62     62     15     13     11     12 
    63     63     10      4      2      1 
    64     64     24      9     10     11 
    65     65     20      4     10     11 
    66     66     25     10      9     23 
    67     67     22      8      7      5 
    68     68      9     10      4      5 
    69     69     24      9     10      4 
    70     70     32     14     13     15 
    71     71     10      4      5      7 
    72     72     27     12     11     13 
    73     73     32     14     13     11 
    74     74     23      9      8     21 
    75     75     19      1      2      4 
    76     76     31     14     13     16 
    77     77     11     10      4      2 
    78     78      8      7      5      6 
    79     79     29     12     11     13 
    80     80     20      4     10      9 
    81     81     20      4      5      7 
    82     82     27     12     11     26 
    83     83     26     11     13     16 
    84     84     20      4      2      1 
    85     85     25     10      4     20 
    86     86     10      4      5      6 

Impropers

     1      1      2      1      3      4 
     2      2      5      4      6      7 
     3      3      4     10      5      2 
     4      4     10      9     11      4 
     5      5     11     10     12     13 
     6      6     13     11     14     15 
     7      7     13     11     14     16 
     8      8      1     18     17      2 
     9      9      1      2     19     17 
    10     10      4      2     20      5 
    11     11      8      9     21      7 
    12     12      8      9     22      7 
    13     13      9     10     23      8 
    14     14      9     10      8     24 
    15     15     10     25      4      9 
    16     16     11     26     12     10 
    17     17     12     11     28     27 
    18     18     12     11     29     27 
    19     19     14     13     31     30 
    20     20     14     30     13     32 

