LAMMPS data file Created by LigParGen - (Written by Leela S. Dodda)

      41 atoms
      40 bonds
      76 angles
     108 dihedrals
      25 impropers
 
      41 atom types
      40 bond types
      76 angle types
     108 dihedral types
      25 improper types
 
   -7.295960    42.704040 xlo xhi
   -1.036190    48.963810 ylo yhi
   -1.011000    48.989000 zlo zhi

Masses

       1     12.011  
       2     12.011  
       3     12.011  
       4     12.011  
       5     12.011  
       6     14.007  
       7     12.011  
       8     12.011  
       9     12.011  
      10     12.011  
      11     12.011  
      12     12.011  
      13     12.011  
      14     12.011  
      15     12.011  
      16     15.999  
      17      1.008  
      18      1.008  
      19      1.008  
      20      1.008  
      21      1.008  
      22      1.008  
      23      1.008  
      24      1.008  
      25      1.008  
      26      1.008  
      27      1.008  
      28      1.008  
      29      1.008  
      30      1.008  
      31      1.008  
      32      1.008  
      33      1.008  
      34      1.008  
      35      1.008  
      36      1.008  
      37      1.008  
      38      1.008  
      39      1.008  
      40      1.008  
      41      1.008  

Pair Coeffs 

       1      0.066  3.5000000 
       2      0.066  3.5000000 
       3      0.066  3.5000000 
       4      0.066  3.5000000 
       5      0.066  3.3000000 
       6      0.170  3.2000000 
       7      0.066  3.5000000 
       8      0.066  3.5000000 
       9      0.066  3.5000000 
      10      0.066  3.5000000 
      11      0.066  3.5000000 
      12      0.066  3.5000000 
      13      0.066  3.5000000 
      14      0.066  3.5000000 
      15      0.070  3.5500000 
      16      0.210  2.9600000 
      17      0.030  2.5000000 
      18      0.030  2.5000000 
      19      0.030  2.5000000 
      20      0.030  2.5000000 
      21      0.030  2.5000000 
      22      0.030  2.5000000 
      23      0.030  2.5000000 
      24      0.030  2.5000000 
      25      0.030  2.5000000 
      26      0.030  2.5000000 
      27      0.030  2.5000000 
      28      0.030  2.5000000 
      29      0.030  2.5000000 
      30      0.030  2.5000000 
      31      0.030  2.5000000 
      32      0.030  2.5000000 
      33      0.030  2.5000000 
      34      0.030  2.5000000 
      35      0.030  2.5000000 
      36      0.030  2.5000000 
      37      0.030  2.5000000 
      38      0.030  2.5000000 
      39      0.030  2.5000000 
      40      0.030  2.5000000 
      41      0.030  2.5000000 

Bond Coeffs 

       1   268.0000     1.5290 
       2   268.0000     1.5290 
       3   268.0000     1.5290 
       4   390.0000     1.4700 
       5   650.0000     1.1570 
       6   268.0000     1.5290 
       7   268.0000     1.5290 
       8   268.0000     1.5290 
       9   268.0000     1.5290 
      10   268.0000     1.5290 
      11   268.0000     1.5290 
      12   268.0000     1.5290 
      13   268.0000     1.5290 
      14   317.0000     1.5220 
      15   570.0000     1.2290 
      16   340.0000     1.0900 
      17   340.0000     1.0900 
      18   340.0000     1.0900 
      19   340.0000     1.0900 
      20   340.0000     1.0900 
      21   340.0000     1.0900 
      22   340.0000     1.0900 
      23   340.0000     1.0900 
      24   340.0000     1.0900 
      25   340.0000     1.0900 
      26   340.0000     1.0900 
      27   340.0000     1.0900 
      28   340.0000     1.0900 
      29   340.0000     1.0900 
      30   340.0000     1.0900 
      31   340.0000     1.0900 
      32   340.0000     1.0900 
      33   340.0000     1.0900 
      34   340.0000     1.0900 
      35   340.0000     1.0900 
      36   340.0000     1.0900 
      37   340.0000     1.0900 
      38   340.0000     1.0900 
      39   340.0000     1.0900 
      40   340.0000     1.0900 

Angle Coeffs 

       1     58.350    112.700
       2     58.350    112.700
       3     58.350    112.700
       4    150.000    180.000
       5     58.350    112.700
       6     58.350    112.700
       7     58.350    112.700
       8     58.350    112.700
       9     58.350    112.700
      10     58.350    112.700
      11     58.350    112.700
      12     58.350    112.700
      13     63.000    111.100
      14     80.000    120.400
      15     37.500    110.700
      16     37.500    110.700
      17     37.500    110.700
      18     37.500    110.700
      19     37.500    110.700
      20     37.500    110.700
      21     37.500    110.700
      22     37.500    110.700
      23     37.500    110.700
      24     37.500    110.700
      25     37.500    110.700
      26     37.500    110.700
      27     37.500    110.700
      28     37.500    110.700
      29     37.500    110.700
      30     37.500    110.700
      31     37.500    110.700
      32     37.500    110.700
      33     37.500    110.700
      34     37.500    110.700
      35     37.500    110.700
      36     37.500    110.700
      37     37.500    110.700
      38     37.500    110.700
      39     35.000    115.000
      40     33.000    107.800
      41     37.500    110.700
      42     35.000    123.000
      43     33.000    107.800
      44     33.000    107.800
      45     37.500    110.700
      46     33.000    107.800
      47     58.350    112.700
      48     33.000    107.800
      49     37.500    110.700
      50     37.500    110.700
      51     37.500    110.700
      52     35.000    108.500
      53     33.000    107.800
      54     37.500    110.700
      55     37.500    110.700
      56     37.500    110.700
      57     58.350    112.700
      58     37.500    110.700
      59     58.350    112.700
      60     33.000    107.800
      61     33.000    107.800
      62     35.000    108.500
      63     33.000    107.800
      64     37.500    110.700
      65     33.000    107.800
      66     33.000    107.800
      67     33.000    107.800
      68     33.000    107.800
      69     35.000    109.500
      70     37.500    110.700
      71     37.500    110.700
      72     37.500    110.700
      73     33.000    107.800
      74     37.500    110.700
      75     33.000    107.800
      76     35.000    109.500

Dihedral Coeffs  

       1      1.300     -0.200      0.200      0.000 
       2      0.000     -0.650      0.000      0.000 
       3      0.000      0.000      0.000      0.000 
       4      1.300     -0.200      0.200      0.000 
       5      1.300     -0.200      0.200      0.000 
       6      1.300     -0.200      0.200      0.000 
       7      1.300     -0.200      0.200      0.000 
       8      1.300     -0.200      0.200      0.000 
       9     -2.060     -0.313      0.315      0.000 
      10      0.000      0.000      0.000      0.000 
      11      0.000      0.000      0.300      0.000 
      12      0.000      0.000      0.300      0.000 
      13      0.000      0.000      0.300      0.000 
      14      0.000      0.000      0.300      0.000 
      15      0.000      0.000      0.300      0.000 
      16      0.000      0.000      0.000      0.000 
      17      0.000      0.000      0.300      0.000 
      18      0.000      0.000      0.300      0.000 
      19      1.300     -0.200      0.200      0.000 
      20      0.000      0.000      0.300      0.000 
      21      0.000      0.000      0.300      0.000 
      22      0.000      0.000      0.300      0.000 
      23      0.000      0.000      0.300      0.000 
      24      0.000      0.000      0.300      0.000 
      25      0.000      0.000      0.000      0.000 
      26      0.000      0.000      0.300      0.000 
      27      0.000      0.000      0.300      0.000 
      28      1.300     -0.200      0.200      0.000 
      29      0.000      0.000      0.300      0.000 
      30      0.000      0.000      0.300      0.000 
      31      0.000      0.000      0.300      0.000 
      32      0.000      0.000      0.300      0.000 
      33      0.000      0.000      0.300      0.000 
      34      0.000      0.000      0.300      0.000 
      35      0.000      0.000      0.300      0.000 
      36      0.000      0.000      0.300      0.000 
      37      0.000      0.000      0.300      0.000 
      38      0.000      0.000      0.000      0.000 
      39      0.000      0.000      0.300      0.000 
      40      0.000      0.000      0.300      0.000 
      41      0.000      0.000      0.300      0.000 
      42      0.000      0.000      0.300      0.000 
      43      0.000      0.000      0.300      0.000 
      44      0.000      0.000      0.300      0.000 
      45      0.000      0.000      0.300      0.000 
      46      0.000      0.000      0.300      0.000 
      47      0.000      0.000      0.300      0.000 
      48      0.000      0.000      0.300      0.000 
      49      0.000      0.000      0.300      0.000 
      50      0.000      0.000      0.300      0.000 
      51      0.000      0.000      0.300      0.000 
      52      0.000      0.000      0.300      0.000 
      53      0.000      0.000      0.300      0.000 
      54      0.000      0.000      0.300      0.000 
      55      1.300     -0.200      0.200      0.000 
      56      0.000      0.000      0.300      0.000 
      57      0.000      0.000      0.300      0.000 
      58      0.000      0.000      0.300      0.000 
      59      0.000      0.000      0.000      0.000 
      60      0.000      0.000      0.300      0.000 
      61      0.000      0.000      0.300      0.000 
      62      0.000      0.000      0.300      0.000 
      63      0.000      0.000      0.300      0.000 
      64      0.000      0.000      0.300      0.000 
      65      0.000      0.000      0.360      0.000 
      66      0.000      0.000      0.300      0.000 
      67      0.000      0.000      0.360      0.000 
      68      0.000      0.000      0.300      0.000 
      69      0.000      0.000      0.300      0.000 
      70      0.000      0.000      0.300      0.000 
      71      0.000      0.000      0.300      0.000 
      72      0.000      0.000      0.300      0.000 
      73      0.000      0.000      0.300      0.000 
      74      1.300     -0.200      0.200      0.000 
      75      0.000      0.000      0.300      0.000 
      76      0.000      0.000      0.300      0.000 
      77      0.000      0.000      0.300      0.000 
      78      0.000      0.000      0.000      0.000 
      79      0.000      0.000      0.300      0.000 
      80      0.000      0.000      0.300      0.000 
      81      0.000     -0.650      0.000      0.000 
      82      0.000      0.000      0.300      0.000 
      83      0.000      0.000      0.300      0.000 
      84      0.000      0.000      0.300      0.000 
      85      0.000      0.000      0.300      0.000 
      86      0.000      0.000     -0.100      0.000 
      87      0.000      0.000      0.300      0.000 
      88      0.000      0.000      0.300      0.000 
      89      0.000      0.000      0.300      0.000 
      90      0.000      0.000      0.300      0.000 
      91      0.000      0.000      0.300      0.000 
      92      0.000      0.000      0.300      0.000 
      93      0.000      0.000      0.300      0.000 
      94      0.000      0.000      0.300      0.000 
      95      0.000      0.000      0.300      0.000 
      96      0.000      0.000      0.300      0.000 
      97      0.000      0.000      0.300      0.000 
      98      0.000      0.000      0.366      0.000 
      99      0.000      0.000      0.300      0.000 
     100      0.000      0.000      0.300      0.000 
     101      0.000      0.000      0.300      0.000 
     102      0.000      0.000      0.300      0.000 
     103      0.000      0.000      0.300      0.000 
     104      0.000      0.000      0.300      0.000 
     105      0.000      0.000      0.300      0.000 
     106      0.000      0.000      0.300      0.000 
     107      1.300     -0.200      0.200      0.000 
     108     -2.060     -0.313      0.315      0.000 

Improper Coeffs 

       1      0.000      -1       2 
       2      0.000      -1       2 
       3      0.000      -1       2 
       4      0.000      -1       2 
       5      0.000      -1       2 
       6      0.000      -1       2 
       7      0.000      -1       2 
       8      0.000      -1       2 
       9      0.000      -1       2 
      10      0.000      -1       2 
      11      0.000      -1       2 
      12      0.000      -1       2 
      13      0.000      -1       2 
      14      0.000      -1       2 
      15      0.000      -1       2 
      16      0.000      -1       2 
      17      0.000      -1       2 
      18      0.000      -1       2 
      19      0.000      -1       2 
      20      0.000      -1       2 
      21      0.000      -1       2 
      22      0.000      -1       2 
      23      0.000      -1       2 
      24      0.000      -1       2 
      25     10.500      -1       2 

Atoms 

     1      1      1 -0.24090000    1.000  1.00000  0.00000
     2      1      2 -0.18070000   -0.519  1.00000  0.00000
     3      1      3 -0.11040000   -1.180  1.00000  1.40674
     4      1      4 -0.03550000   -0.763  2.19223  2.30073
     5      1      5 0.13870000   -1.192  3.48283  1.62243
     6      1      6 -0.40920000   -1.548  4.55331  1.05842
     7      1      7 -0.18210000   -2.710  0.93607  1.18414
     8      1      8 -0.17650000   -3.523  0.99230  2.47610
     9      1      9 -0.10810000   -5.038  1.09663  2.23813
    10      1     10 -0.23790000   -5.575 -0.12172  1.47869
    11      1     11 -0.17130000   -5.791  1.22715  3.57876
    12      1     12 -0.10500000   -5.442  2.46197  4.44987
    13      1     13 -0.23900000   -5.737  3.77029  3.70792
    14      1     14 -0.25300000   -6.224  2.41237  5.76910
    15      1     15 0.31130000   -5.802  1.27136  6.66879
    16      1     16 -0.44720000   -4.700  0.72299  6.62302
    17      1     17 0.08390000    1.366  0.78823 -1.01100
    18      1     18 0.08390000    1.398  0.23461  0.67134
    19      1     19 0.08390000    1.399  1.97593  0.29357
    20      1     20 0.09620000   -0.854  0.10514 -0.53944
    21      1     21 0.09620000   -0.869  1.85498 -0.58895
    22      1     22 0.10910000   -0.870  0.08109  1.92162
    23      1     23 0.13100000    0.326  2.20726  2.42389
    24      1     24 0.13100000   -1.185  2.12743  3.30726
    25      1     25 0.09680000   -2.931  0.00758  0.64609
    26      1     26 0.09680000   -3.026  1.75733  0.52680
    27      1     27 0.09400000   -3.222  1.87827  3.03660
    28      1     28 0.09400000   -3.287  0.11985  3.09603
    29      1     29 0.10210000   -5.237  1.98288  1.62404
    30      1     30 0.08220000   -5.467 -1.03619  2.07238
    31      1     31 0.08220000   -5.058 -0.27292  0.52675
    32      1     32 0.08220000   -6.637  0.01082  1.24787
    33      1     33 0.09000000   -5.605  0.31553  4.15865
    34      1     34 0.09000000   -6.872  1.24105  3.37205
    35      1     35 0.11720000   -4.374  2.45265  4.69692
    36      1     36 0.08570000   -6.715  3.73663  3.21611
    37      1     37 0.08570000   -4.978  3.96321  2.94240
    38      1     38 0.08570000   -5.733  4.62433  4.39300
    39      1     39 0.12120000   -7.296  2.30451  5.57059
    40      1     40 0.12120000   -6.085  3.33750  6.34718
    41      1     41 0.10440000   -6.535  0.98647  7.43596

Bonds 

     1      1      2      1
     2      2      3      2
     3      3      4      3
     4      4      5      4
     5      5      6      5
     6      6      7      3
     7      7      8      7
     8      8      9      8
     9      9     10      9
    10     10     11      9
    11     11     12     11
    12     12     13     12
    13     13     14     12
    14     14     15     14
    15     15     16     15
    16     16     17      1
    17     17     18      1
    18     18     19      1
    19     19     20      2
    20     20     21      2
    21     21     22      3
    22     22     23      4
    23     23     24      4
    24     24     25      7
    25     25     26      7
    26     26     27      8
    27     27     28      8
    28     28     29      9
    29     29     30     10
    30     30     31     10
    31     31     32     10
    32     32     33     11
    33     33     34     11
    34     34     35     12
    35     35     36     13
    36     36     37     13
    37     37     38     13
    38     38     39     14
    39     39     40     14
    40     40     41     15

Angles 

     1      1      1      2      3
     2      2      2      3      4
     3      3      3      4      5
     4      4      4      5      6
     5      5      2      3      7
     6      6      3      7      8
     7      7      7      8      9
     8      8      8      9     10
     9      9      8      9     11
    10     10      9     11     12
    11     11     11     12     13
    12     12     11     12     14
    13     13     12     14     15
    14     14     14     15     16
    15     15      2      1     17
    16     16      2      1     18
    17     17      2      1     19
    18     18      1      2     20
    19     19      1      2     21
    20     20      2      3     22
    21     21      3      4     23
    22     22      3      4     24
    23     23      3      7     25
    24     24      3      7     26
    25     25      7      8     27
    26     26      7      8     28
    27     27      8      9     29
    28     28      9     10     30
    29     29      9     10     31
    30     30      9     10     32
    31     31      9     11     33
    32     32      9     11     34
    33     33     11     12     35
    34     34     12     13     36
    35     35     12     13     37
    36     36     12     13     38
    37     37     12     14     39
    38     38     12     14     40
    39     39     14     15     41
    40     40     37     13     38
    41     41      9      8     28
    42     42     16     15     41
    43     43     17      1     19
    44     44     39     14     40
    45     45      3      2     20
    46     46     33     11     34
    47     47     13     12     14
    48     48     23      4     24
    49     49     11      9     29
    50     50      3      2     21
    51     51     10      9     29
    52     52      5      4     24
    53     53     36     13     38
    54     54      8      7     25
    55     55      4      3     22
    56     56     14     12     35
    57     57     10      9     11
    58     58      8      7     26
    59     59      4      3      7
    60     60     27      8     28
    61     61     17      1     18
    62     62      5      4     23
    63     63     18      1     19
    64     64      9      8     27
    65     65     31     10     32
    66     66     30     10     31
    67     67     25      7     26
    68     68     20      2     21
    69     69     15     14     40
    70     70     13     12     35
    71     71      7      3     22
    72     72     12     11     34
    73     73     30     10     32
    74     74     12     11     33
    75     75     36     13     37
    76     76     15     14     39

Dihedrals

     1      1      4      3      2      1 
     2      2      5      4      3      2 
     3      3      6      5      4      3 
     4      4      8      7      3      2 
     5      5      9      8      7      3 
     6      6     10      9      8      7 
     7      7     12     11      9      8 
     8      8     13     12     11      9 
     9      9     15     14     12     11 
    10     10     16     15     14     12 
    11     11     17      1      2      3 
    12     12     30     10      9      8 
    13     13     36     13     12     11 
    14     14     27      8      9     11 
    15     15     28      8      9     10 
    16     16     39     14     15     16 
    17     17     32     10      9     11 
    18     18     38     13     12     35 
    19     19      7      3      2      1 
    20     20     39     14     12     35 
    21     21     21      2      1     17 
    22     22     20      2      1     18 
    23     23     37     13     12     35 
    24     24     19      1      2      3 
    25     25     41     15     14     12 
    26     26     22      3      2     21 
    27     27     25      7      3      2 
    28     28     11      9      8      7 
    29     29     28      8      7      3 
    30     30     29      9      8      7 
    31     31     40     14     12     11 
    32     32     26      7      3      2 
    33     33     35     12     11     33 
    34     34     27      8      7     26 
    35     35     28      8      7     25 
    36     36     34     11     12     13 
    37     37     33     11     12     14 
    38     38     23      4      5      6 
    39     39     28      8      7     26 
    40     40     36     13     12     35 
    41     41     20      2      3      7 
    42     42     32     10      9      8 
    43     43     20      2      3      4 
    44     44     38     13     12     14 
    45     45     20      2      1     19 
    46     46     21      2      1     18 
    47     47     29      9      8     28 
    48     48     34     11      9      8 
    49     49     24      4      3      7 
    50     50     21      2      3      7 
    51     51     24      4      3     22 
    52     52     27      8      9     10 
    53     53     30     10      9     29 
    54     54     37     13     12     11 
    55     55     14     12     11      9 
    56     56     18      1      2      3 
    57     57     25      7      3     22 
    58     58     33     11      9     29 
    59     59     40     14     15     16 
    60     60     23      4      3      2 
    61     61     23      4      3     22 
    62     62     35     12     11      9 
    63     63     31     10      9     11 
    64     64     38     13     12     11 
    65     65     41     15     14     40 
    66     66     28      8      9     11 
    67     67     41     15     14     39 
    68     68     20      2      1     17 
    69     69     22      3      2     20 
    70     70     30     10      9     11 
    71     71     33     11      9      8 
    72     72     24      4      3      2 
    73     73     29      9     11     12 
    74     74     12     11      9     10 
    75     75     26      7      3     22 
    76     76     29      9      8     27 
    77     77     39     14     12     13 
    78     78     24      4      5      6 
    79     79     35     12     11     34 
    80     80     21      2      3      4 
    81     81      7      3      4      5 
    82     82     26      7      3      4 
    83     83     39     14     12     11 
    84     84     27      8      7      3 
    85     85     37     13     12     14 
    86     86     35     12     14     15 
    87     87     26      7      8      9 
    88     88     25      7      3      4 
    89     89     22      3      2      1 
    90     90     34     11      9     29 
    91     91     31     10      9      8 
    92     92     27      8      7     25 
    93     93     22      3      7      8 
    94     94     40     14     12     35 
    95     95     23      4      3      7 
    96     96     21      2      1     19 
    97     97     34     11     12     14 
    98     98     22      3      4      5 
    99     99     33     11     12     13 
   100    100     32     10      9     29 
   101    101     36     13     12     14 
   102    102     33     11      9     10 
   103    103     25      7      8      9 
   104    104     40     14     12     13 
   105    105     31     10      9     29 
   106    106     34     11      9     10 
   107    107      8      7      3      4 
   108    108     15     14     12     13 

Impropers

     1      1      3      2      4      7 
     2      2      9     10     11      8 
     3      3     12     11     13     14 
     4      4      1     18     17      2 
     5      5      1      2     19     17 
     6      6      2      1      3     20 
     7      7      2      1      3     21 
     8      8      3      2      4     22 
     9      9      4      3      5     23 
    10     10      4      3      5     24 
    11     11      7     25      3      8 
    12     12      7     26      3      8 
    13     13      8      9     27      7 
    14     14      8      9     28      7 
    15     15      9     10     29      8 
    16     16     10      9     30     31 
    17     17     10      9     30     32 
    18     18     11     33      9     12 
    19     19     11      9     34     12 
    20     20     12     35     13     11 
    21     21     13     12     37     36 
    22     22     13     36     12     38 
    23     23     14     15     12     39 
    24     24     14     12     15     40 
    25     25     15     41     14     16 

