LAMMPS data file Created by LigParGen - (Written by Leela S. Dodda)

      37 atoms
      39 bonds
      81 angles
     131 dihedrals
      27 impropers
 
      37 atom types
      39 bond types
      81 angle types
     131 dihedral types
      27 improper types
 
   -9.656540    40.343460 xlo xhi
   -3.000340    46.999660 ylo yhi
   -1.021260    48.978740 zlo zhi

Masses

       1     12.011  
       2     12.011  
       3     12.011  
       4     15.999  
       5     12.011  
       6     12.011  
       7     12.011  
       8     12.011  
       9     12.011  
      10     12.011  
      11     12.011  
      12     12.011  
      13     12.011  
      14     12.011  
      15     12.011  
      16      1.008  
      17      1.008  
      18      1.008  
      19      1.008  
      20      1.008  
      21      1.008  
      22      1.008  
      23      1.008  
      24      1.008  
      25      1.008  
      26      1.008  
      27      1.008  
      28      1.008  
      29      1.008  
      30      1.008  
      31      1.008  
      32      1.008  
      33      1.008  
      34      1.008  
      35      1.008  
      36      1.008  
      37      1.008  

Pair Coeffs 

       1      0.066  3.5000000 
       2      0.066  3.5000000 
       3      0.070  3.5500000 
       4      0.210  2.9600000 
       5      0.066  3.5000000 
       6      0.066  3.5000000 
       7      0.066  3.5000000 
       8      0.066  3.5000000 
       9      0.066  3.5000000 
      10      0.066  3.5000000 
      11      0.066  3.5000000 
      12      0.066  3.5000000 
      13      0.083  3.4500000 
      14      0.083  3.4500000 
      15      0.083  3.4500000 
      16      0.030  2.5000000 
      17      0.030  2.5000000 
      18      0.030  2.5000000 
      19      0.030  2.5000000 
      20      0.030  2.5000000 
      21      0.030  2.5000000 
      22      0.030  2.5000000 
      23      0.030  2.5000000 
      24      0.030  2.5000000 
      25      0.030  2.5000000 
      26      0.030  2.5000000 
      27      0.030  2.5000000 
      28      0.030  2.5000000 
      29      0.030  2.5000000 
      30      0.030  2.5000000 
      31      0.030  2.5000000 
      32      0.030  2.5000000 
      33      0.030  2.5000000 
      34      0.030  2.5000000 
      35      0.030  2.5000000 
      36      0.030  2.5000000 
      37      0.030  2.5000000 

Bond Coeffs 

       1   268.0000     1.5290 
       2   317.0000     1.5220 
       3   570.0000     1.2290 
       4   317.0000     1.5220 
       5   268.0000     1.5290 
       6   268.0000     1.5290 
       7   268.0000     1.5290 
       8   268.0000     1.5290 
       9   268.0000     1.5290 
      10   268.0000     1.5290 
      11   268.0000     1.5290 
      12   280.0000     1.5100 
      13   260.0000     1.5200 
      14   280.0000     1.5100 
      15   340.0000     1.0900 
      16   340.0000     1.0900 
      17   340.0000     1.0900 
      18   340.0000     1.0900 
      19   340.0000     1.0900 
      20   340.0000     1.0900 
      21   340.0000     1.0900 
      22   340.0000     1.0900 
      23   340.0000     1.0900 
      24   340.0000     1.0900 
      25   340.0000     1.0900 
      26   340.0000     1.0900 
      27   340.0000     1.0900 
      28   340.0000     1.0900 
      29   340.0000     1.0900 
      30   340.0000     1.0900 
      31   340.0000     1.0900 
      32   340.0000     1.0900 
      33   340.0000     1.0880 
      34   340.0000     1.0880 
      35   340.0000     1.0880 
      36   340.0000     1.0880 
      37   268.0000     1.5290 
      38   260.0000     1.5200 
      39   260.0000     1.5200 

Angle Coeffs 

       1     63.000    111.100
       2     80.000    120.400
       3     70.000    116.000
       4     63.000    111.100
       5     58.350    112.700
       6     58.350    112.700
       7     58.350    112.700
       8     58.350    112.700
       9     58.350    112.700
      10     58.350    112.700
      11     58.350    112.700
      12     37.500    117.200
      13     58.350    112.700
      14     37.500    110.700
      15     37.500    110.700
      16     37.500    110.700
      17     37.500    110.700
      18     37.500    110.700
      19     35.000    109.500
      20     35.000    109.500
      21     37.500    110.700
      22     37.500    110.700
      23     37.500    110.700
      24     37.500    110.700
      25     37.500    110.700
      26     37.500    110.700
      27     37.500    110.700
      28     37.500    110.700
      29     37.500    110.700
      30     37.500    110.700
      31     37.500    110.700
      32     35.000    114.300
      33     37.500    117.200
      34     37.500    117.200
      35     35.000    114.300
      36     58.350    112.700
      37     37.500    110.700
      38     35.000    109.500
      39     37.500    110.700
      40     37.500    110.700
      41     37.500    117.200
      42     37.500    117.200
      43     37.500    117.200
      44     30.000     83.000
      45     37.500    110.700
      46     33.000    107.800
      47     37.500    117.200
      48     37.500    110.700
      49     33.000    107.800
      50     37.500    110.700
      51     30.000     83.000
      52     30.000     83.000
      53     37.500    110.700
      54     80.000    120.400
      55     37.500    110.700
      56     33.000    107.800
      57     58.350    112.700
      58     37.500    110.700
      59     35.000    109.500
      60     37.500    117.200
      61     58.350    112.700
      62     35.000    114.300
      63     33.000    107.800
      64     33.000    107.800
      65     37.500    110.700
      66     37.500    110.700
      67     33.000    107.800
      68     37.500    117.200
      69     33.000    107.800
      70     37.500    117.200
      71     58.350    112.700
      72     37.500    110.700
      73     58.350    112.700
      74     37.500    110.700
      75     37.500    110.700
      76     37.500    117.200
      77     37.500    117.200
      78     33.000    107.800
      79     37.500    110.700
      80     37.500    110.700
      81     33.000    107.800

Dihedral Coeffs  

       1      0.000      0.000      0.000      0.000 
       2      1.454     -0.144     -0.775      0.000 
       3     -2.060     -0.313      0.315      0.000 
       4      1.300     -0.200      0.200      0.000 
       5      1.300     -0.200      0.200      0.000 
       6      1.300     -0.200      0.200      0.000 
       7      1.300     -0.200      0.200      0.000 
       8      0.000      0.000      0.000      0.000 
       9      0.000      0.000     -0.100      0.000 
      10      0.000      0.000      0.000      0.000 
      11      0.000      0.000      0.000      0.000 
      12      0.000      0.000      0.300      0.000 
      13      0.000      0.000     -0.100      0.000 
      14      0.000      0.000      0.000      0.000 
      15      0.000      0.000      0.000      0.000 
      16      0.000      0.000      0.300      0.000 
      17      0.000      0.000      0.300      0.000 
      18      0.000      0.000      0.000      0.000 
      19      0.000      0.000      0.300      0.000 
      20      0.000      0.000      0.275      0.000 
      21      0.000      0.000      0.300      0.000 
      22      0.000      0.000     -0.100      0.000 
      23      0.000      0.000      0.000      0.000 
      24      0.000      0.000      0.000      0.000 
      25      0.000      0.000      0.300      0.000 
      26      0.000      0.000      0.275      0.000 
      27      0.000      0.000      0.000      0.000 
      28      0.000      0.000      0.000      0.000 
      29      0.000      0.000      0.300      0.000 
      30      0.000      0.000      0.300      0.000 
      31      0.000      0.000      0.300      0.000 
      32      0.000      0.000      0.300      0.000 
      33      0.000      0.000      0.000      0.000 
      34      0.000      0.000      0.300      0.000 
      35      0.000      0.000      0.300      0.000 
      36      0.000      0.000      0.000      0.000 
      37      0.000      0.000      0.300      0.000 
      38      0.000      0.000      0.300      0.000 
      39      0.000      0.000      0.300      0.000 
      40      0.000      0.000      0.300      0.000 
      41      0.000      0.000      0.275      0.000 
      42      0.000      0.000      0.300      0.000 
      43      0.000      0.000      0.000      0.000 
      44      0.000      0.000      0.300      0.000 
      45      1.300     -0.200      0.200      0.000 
      46      0.000      0.000      0.000      0.000 
      47      0.000      0.000      0.000      0.000 
      48      0.000      0.000      0.300      0.000 
      49      0.000      0.000      0.300      0.000 
      50      0.000      0.000      0.000      0.000 
      51      0.000      0.000      0.300      0.000 
      52      0.000      0.000      0.300      0.000 
      53      0.000      0.000      0.300      0.000 
      54      0.000      0.000      0.000      0.000 
      55      1.300     -0.200      0.200      0.000 
      56      0.000      0.000      0.300      0.000 
      57      0.000      0.000      0.300      0.000 
      58      1.300     -0.200      0.200      0.000 
      59      0.000      0.000      0.300      0.000 
      60      1.300     -0.200      0.200      0.000 
      61      0.000      0.000      0.300      0.000 
      62      0.000      0.000      0.300      0.000 
      63      0.000      0.000      0.300      0.000 
      64      1.300     -0.200      0.200      0.000 
      65      0.000      0.000      0.000      0.000 
      66      0.000      0.000      0.300      0.000 
      67      1.300     -0.200      0.200      0.000 
      68      0.000      0.000      0.300      0.000 
      69      0.000      0.000      0.300      0.000 
      70      0.000      0.000      0.000      0.000 
      71      0.000      0.000      0.300      0.000 
      72      0.000      0.000      0.300      0.000 
      73      0.000      0.000      0.300      0.000 
      74      0.000      0.000      0.300      0.000 
      75      0.000      0.000      0.300      0.000 
      76      0.000      0.000      0.300      0.000 
      77      0.000      0.000      0.300      0.000 
      78      0.000      0.000      0.000      0.000 
      79      0.000      0.000      0.300      0.000 
      80      0.000      0.000      0.000      0.000 
      81      0.000      0.000      0.300      0.000 
      82      0.000      0.000      0.300      0.000 
      83      0.000      0.000      0.300      0.000 
      84      0.000      0.000      0.000      0.000 
      85      0.000      0.000      0.300      0.000 
      86      0.000      0.000      0.300      0.000 
      87      1.300     -0.200      0.200      0.000 
      88      0.000      0.000      0.300      0.000 
      89      0.000      0.000      0.000      0.000 
      90      0.000      0.000      0.000      0.000 
      91      0.000      0.000      0.300      0.000 
      92      0.000      0.000      0.300      0.000 
      93      0.000      0.000      0.300      0.000 
      94      1.300     -0.200      0.200      0.000 
      95      0.000      0.000      0.300      0.000 
      96      0.000      0.000      0.000      0.000 
      97      0.000      0.000     -0.100      0.000 
      98      0.000      0.000      0.300      0.000 
      99      0.000      0.000      0.275      0.000 
     100      1.300     -0.200      0.200      0.000 
     101      0.000      0.000      0.300      0.000 
     102      0.000      0.000      0.000      0.000 
     103      0.000      0.000      0.300      0.000 
     104      1.454     -0.144     -0.775      0.000 
     105      0.000      0.000      0.300      0.000 
     106      0.000      0.000      0.300      0.000 
     107      0.000      0.000      0.000      0.000 
     108      0.000      0.000      0.300      0.000 
     109      0.000      0.000      0.000      0.000 
     110      0.000      0.000      0.300      0.000 
     111      0.000      0.000      0.300      0.000 
     112      0.000      0.000      0.300      0.000 
     113      0.000      0.000      0.000      0.000 
     114      0.000      0.000      0.300      0.000 
     115      0.000      0.000      0.300      0.000 
     116      0.000      0.000     -0.100      0.000 
     117      0.000      0.000      0.000      0.000 
     118      1.300     -0.200      0.200      0.000 
     119      0.000      0.000      0.300      0.000 
     120      1.300     -0.200      0.200      0.000 
     121      0.000      0.000      0.300      0.000 
     122      0.000      0.000      0.300      0.000 
     123      1.300     -0.200      0.200      0.000 
     124      0.000      0.000      0.300      0.000 
     125      0.000      0.000      0.000      0.000 
     126      0.000      0.000      0.300      0.000 
     127      0.000      0.000      0.300      0.000 
     128      0.000      0.000      0.300      0.000 
     129      0.000      0.000      0.300      0.000 
     130      0.000      0.000      0.300      0.000 
     131      0.000      0.000      0.300      0.000 

Improper Coeffs 

       1     10.500      -1       2 
       2      0.000      -1       2 
       3      0.000      -1       2 
       4      0.000      -1       2 
       5      0.000      -1       2 
       6      0.000      -1       2 
       7      0.000      -1       2 
       8      0.000      -1       2 
       9      0.000      -1       2 
      10      0.000      -1       2 
      11      0.000      -1       2 
      12      0.000      -1       2 
      13      0.000      -1       2 
      14      0.000      -1       2 
      15      0.000      -1       2 
      16      0.000      -1       2 
      17      0.000      -1       2 
      18      0.000      -1       2 
      19      0.000      -1       2 
      20      0.000      -1       2 
      21      0.000      -1       2 
      22      0.000      -1       2 
      23      0.000      -1       2 
      24      0.000      -1       2 
      25      0.000      -1       2 
      26      0.000      -1       2 
      27      0.000      -1       2 

Atoms 

     1      1      1 -0.23120000    1.000  1.00000  0.00000
     2      1      2 -0.23110000   -0.516  1.00000  0.00000
     3      1      3 0.36060000   -1.130  1.00000  1.42489
     4      1      4 -0.44070000   -0.421  0.91895  2.42089
     5      1      5 -0.23630000   -2.649  0.98176  1.47325
     6      1      6 -0.12940000   -3.297  1.08820  2.85183
     7      1      7 -0.17550000   -4.605  0.26177  2.91498
     8      1      8 -0.05020000   -5.381 -0.12175  4.19631
     9      1      9 -0.23220000   -6.205 -1.23157  3.53202
    10      1     10 -0.17280000   -5.516 -1.60449  2.12387
    11      1     11 -0.10420000   -5.546 -0.18222  1.63309
    12      1     12 -0.11520000   -7.230 -0.10296  1.42818
    13      1     13 -0.23550000   -8.053 -1.42036  2.03621
    14      1     14 -0.17480000   -8.901 -1.42896  3.27146
    15      1     15 -0.14130000   -7.487 -1.93302  3.42768
    16      1     16 0.09250000    1.379  1.08055 -1.02126
    17      1     17 0.09250000    1.394  0.09332  0.44690
    18      1     18 0.09250000    1.386  1.86245  0.57455
    19      1     19 0.11310000   -0.874  0.11292 -0.53475
    20      1     20 0.11310000   -0.883  1.88586 -0.50638
    21      1     21 0.11900000   -2.920  0.02210  0.99452
    22      1     22 0.11900000   -3.045  1.77358  0.82349
    23      1     23 0.10260000   -3.385  2.11079  3.19710
    24      1     24 0.10260000   -2.587  0.61388  3.57344
    25      1     25 0.07700000   -3.930 -0.60993  2.99030
    26      1     26 0.09210000   -5.968  0.75635  4.58161
    27      1     27 0.09210000   -4.752 -0.49509  5.00029
    28      1     28 0.09730000   -6.869 -0.35017  3.47029
    29      1     29 0.09460000   -6.038 -2.28051  1.43926
    30      1     30 0.09460000   -4.535 -2.07917  2.22342
    31      1     31 0.11180000   -5.069  0.04192  0.67884
    32      1     32 0.09350000   -7.428 -0.14426  0.34784
    33      1     33 0.09350000   -7.661  0.82816  1.81640
    34      1     34 0.13530000   -8.221 -2.18752  1.28364
    35      1     35 0.12720000   -9.657 -2.21579  3.36921
    36      1     36 0.12720000   -9.203 -0.50427  3.74056
    37      1     37 0.12650000   -7.342 -3.00034  3.57257

Bonds 

     1      1      2      1
     2      2      3      2
     3      3      4      3
     4      4      5      3
     5      5      6      5
     6      6      7      6
     7      7      8      7
     8      8      9      8
     9      9     10      9
    10     10     11      7
    11     11     12     11
    12     12     13     12
    13     13     14     13
    14     14     15      9
    15     15     16      1
    16     16     17      1
    17     17     18      1
    18     18     19      2
    19     19     20      2
    20     20     21      5
    21     21     22      5
    22     22     23      6
    23     23     24      6
    24     24     25      7
    25     25     26      8
    26     26     27      8
    27     27     28      9
    28     28     29     10
    29     29     30     10
    30     30     31     11
    31     31     32     12
    32     32     33     12
    33     33     34     13
    34     34     35     14
    35     35     36     14
    36     36     37     15
    37     37     11     10
    38     38     15     13
    39     39     15     14

Angles 

     1      1      1      2      3
     2      2      2      3      4
     3      3      2      3      5
     4      4      3      5      6
     5      5      5      6      7
     6      6      6      7      8
     7      7      7      8      9
     8      8      8      9     10
     9      9      6      7     11
    10     10      7     11     12
    11     11     11     12     13
    12     12     12     13     14
    13     13      8      9     15
    14     14      2      1     16
    15     15      2      1     17
    16     16      2      1     18
    17     17      1      2     19
    18     18      1      2     20
    19     19      3      5     21
    20     20      3      5     22
    21     21      5      6     23
    22     22      5      6     24
    23     23      6      7     25
    24     24      7      8     26
    25     25      7      8     27
    26     26      8      9     28
    27     27      9     10     29
    28     28      9     10     30
    29     29      7     11     31
    30     30     11     12     32
    31     31     11     12     33
    32     32     12     13     34
    33     33     13     14     35
    34     34     13     14     36
    35     35      9     15     37
    36     36      8      7     11
    37     37     12     11     31
    38     38      3      2     20
    39     39      7      6     24
    40     40     10      9     28
    41     41     14     15     37
    42     42      9     15     13
    43     43     15     14     35
    44     44     13     14     15
    45     45      6      5     22
    46     46     21      5     22
    47     47      9     15     14
    48     48     11     10     29
    49     49     16      1     18
    50     50      7      6     23
    51     51     13     15     14
    52     52     14     13     15
    53     53     13     12     33
    54     54      4      3      5
    55     55     11      7     25
    56     56     32     12     33
    57     57     10      9     15
    58     58      8      7     25
    59     59      3      2     19
    60     60     12     13     15
    61     61     10     11     12
    62     62     35     14     36
    63     63     19      2     20
    64     64     23      6     24
    65     65     15      9     28
    66     66      6      5     21
    67     67     16      1     17
    68     68     14     13     34
    69     69     17      1     18
    70     70     13     15     37
    71     71      9     10     11
    72     72      9      8     26
    73     73      7     11     10
    74     74     13     12     32
    75     75     10     11     31
    76     76     15     14     36
    77     77     15     13     34
    78     78     26      8     27
    79     79      9      8     27
    80     80     11     10     30
    81     81     29     10     30

Dihedrals

     1      1      4      3      2      1 
     2      2      6      5      3      2 
     3      3      7      6      5      3 
     4      4      8      7      6      5 
     5      5      9      8      7      6 
     6      6     10      9      8      7 
     7      7     13     12     11      7 
     8      8     14     13     12     11 
     9      9     16      1      2      3 
    10     10     35     14     13     15 
    11     11     36     14     13     15 
    12     12     23      6      7      8 
    13     13     24      6      5      3 
    14     14     21      5      3      4 
    15     15     36     14     15     13 
    16     16     24      6      7     11 
    17     17     32     12     13     14 
    18     18     14     15      9     10 
    19     19     24      6      5     22 
    20     20     21      5      3      2 
    21     21     20      2      1     18 
    22     22     23      6      5      3 
    23     23     36     14     15      9 
    24     24     14     15      9      8 
    25     25     28      9      8     26 
    26     26     19      2      3      5 
    27     27     37     15     14     13 
    28     28     34     13     15     14 
    29     29     26      8      7     11 
    30     30     32     12     13     15 
    31     31     25      7      6     23 
    32     32     33     12     13     14 
    33     33     35     14     15     13 
    34     34     28      9     15     14 
    35     35     26      8      9     10 
    36     36     12     13     15      9 
    37     37     33     12     13     15 
    38     38     23      6      7     11 
    39     39     26      8      7     25 
    40     40     30     10      9     28 
    41     41     22      5      3      2 
    42     42     28      9      8     27 
    43     43     37     15     13     14 
    44     44     28      9     15     13 
    45     45      9     10     11      7 
    46     46      6      5      3      4 
    47     47     36     14     13     12 
    48     48     33     12     11     10 
    49     49     30     10      9      8 
    50     50     37     15     14     36 
    51     51     29     10     11     12 
    52     52     32     12     11      7 
    53     53     29     10      9      8 
    54     54     13     15      9     10 
    55     55     11     10      9      8 
    56     56     27      8      7      6 
    57     57     27      8      9     15 
    58     58     12     11      7      8 
    59     59     27      8      9     10 
    60     60     10     11      7      6 
    61     61     21      5      6      7 
    62     62     25      7      6     24 
    63     63     29     10      9     15 
    64     64     11      7      6      5 
    65     65     34     13     15      9 
    66     66     37     15      9     28 
    67     67     12     11     10      9 
    68     68     25      7      6      5 
    69     69     31     11     10     30 
    70     70     37     15     13     12 
    71     71     26      8      9     15 
    72     72     31     11     12     13 
    73     73     19      2      1     16 
    74     74     31     11      7      6 
    75     75     20      2      1     17 
    76     76     19      2      1     18 
    77     77     33     12     11      7 
    78     78     37     15     13     34 
    79     79     27      8      7     11 
    80     80     22      5      3      4 
    81     81     28      9      8      7 
    82     82     30     10     11      7 
    83     83     31     11     10      9 
    84     84     20      2      3      4 
    85     85     25      7     11     10 
    86     86     19      2      1     17 
    87     87     15      9      8      7 
    88     88     31     11      7     25 
    89     89     35     14     13     34 
    90     90     35     14     15      9 
    91     91     34     13     12     33 
    92     92     25      7     11     12 
    93     93     26      8      7      6 
    94     94     13     12     11     10 
    95     95     30     10     11     12 
    96     96     35     14     13     12 
    97     97     17      1      2      3 
    98     98     24      6      7      8 
    99     99     20      2      3      5 
   100    100     11      7      8      9 
   101    101     34     13     12     32 
   102    102     36     14     13     34 
   103    103     22      5      6      7 
   104    104      5      3      2      1 
   105    105     30     10      9     15 
   106    106     31     11      7      8 
   107    107     19      2      3      4 
   108    108     23      6      5     22 
   109    109     15     13     12     11 
   110    110     31     11     10     29 
   111    111     33     12     11     31 
   112    112     32     12     11     10 
   113    113     34     13     14     15 
   114    114     37     15      9     10 
   115    115     27      8      7     25 
   116    116     18      1      2      3 
   117    117     37     15     14     35 
   118    118     12     11      7      6 
   119    119     20      2      1     16 
   120    120     10     11      7      8 
   121    121     24      6      5     21 
   122    122     29     10     11      7 
   123    123     15      9     10     11 
   124    124     23      6      5     21 
   125    125     13     15      9      8 
   126    126     29     10      9     28 
   127    127     25      7      8      9 
   128    128     32     12     11     31 
   129    129     28      9     10     11 
   130    130     34     13     12     11 
   131    131     37     15      9      8 

Impropers

     1      1      3      2      4      5 
     2      2      7     11      6      8 
     3      3     11     10     12      7 
     4      4      9     10     15      8 
     5      5      1     17     16      2 
     6      6      1     18     16      2 
     7      7      2      1     19      3 
     8      8      2      1      3     20 
     9      9      5      3     21      6 
    10     10      5      3     22      6 
    11     11      6      7      5     23 
    12     12      6      5      7     24 
    13     13      7     25      6      8 
    14     14      8      9     26      7 
    15     15      8      9     27      7 
    16     16      9     10     28      8 
    17     17     10      9     11     29 
    18     18     10      9     11     30 
    19     19     11     10      7     31 
    20     20     12     11     13     32 
    21     21     12     33     11     13 
    22     22     13     34     12     14 
    23     23     15      9     13     37 
    24     24     13     14     15     12 
    25     25     15     13     14      9 
    26     26     13     14     15     12 
    27     27     15     13     14      9 

