LAMMPS data file Created by LigParGen - (Written by Leela S. Dodda)

      47 atoms
      46 bonds
      86 angles
     109 dihedrals
      28 impropers
 
      47 atom types
      46 bond types
      86 angle types
     109 dihedral types
      28 improper types
 
   -6.459200    43.540800 xlo xhi
   -8.755190    41.244810 ylo yhi
   -1.038460    48.961540 zlo zhi

Masses

       1     12.011  
       2     15.999  
       3     12.011  
       4     15.999  
       5     15.999  
       6     12.011  
       7     12.011  
       8     12.011  
       9     12.011  
      10     12.011  
      11     12.011  
      12     12.011  
      13     12.011  
      14     12.011  
      15     12.011  
      16     14.007  
      17     12.011  
      18     12.011  
      19      1.008  
      20      1.008  
      21      1.008  
      22      1.008  
      23      1.008  
      24      1.008  
      25      1.008  
      26      1.008  
      27      1.008  
      28      1.008  
      29      1.008  
      30      1.008  
      31      1.008  
      32      1.008  
      33      1.008  
      34      1.008  
      35      1.008  
      36      1.008  
      37      1.008  
      38      1.008  
      39      1.008  
      40      1.008  
      41      1.008  
      42      1.008  
      43      1.008  
      44      1.008  
      45      1.008  
      46      1.008  
      47      1.008  

Pair Coeffs 

       1      0.066  3.5000000 
       2      0.140  2.9000000 
       3      0.070  3.5500000 
       4      0.210  2.9600000 
       5      0.140  2.9000000 
       6      0.066  3.5000000 
       7      0.066  3.5000000 
       8      0.066  3.5000000 
       9      0.066  3.5000000 
      10      0.066  3.5000000 
      11      0.066  3.5000000 
      12      0.066  3.5000000 
      13      0.066  3.5000000 
      14      0.066  3.5000000 
      15      0.066  3.5000000 
      16      0.170  3.3000000 
      17      0.066  3.5000000 
      18      0.066  3.5000000 
      19      0.030  2.5000000 
      20      0.030  2.5000000 
      21      0.030  2.5000000 
      22      0.030  2.5000000 
      23      0.030  2.5000000 
      24      0.030  2.5000000 
      25      0.030  2.5000000 
      26      0.030  2.5000000 
      27      0.030  2.5000000 
      28      0.030  2.5000000 
      29      0.030  2.5000000 
      30      0.030  2.5000000 
      31      0.030  2.5000000 
      32      0.030  2.5000000 
      33      0.030  2.5000000 
      34      0.030  2.5000000 
      35      0.030  2.5000000 
      36      0.030  2.5000000 
      37      0.030  2.5000000 
      38      0.030  2.5000000 
      39      0.030  2.5000000 
      40      0.030  2.5000000 
      41      0.030  2.5000000 
      42      0.030  2.5000000 
      43      0.030  2.5000000 
      44      0.030  2.5000000 
      45      0.030  2.5000000 
      46      0.030  2.5000000 
      47      0.030  2.5000000 

Bond Coeffs 

       1   320.0000     1.4100 
       2   214.0000     1.3270 
       3   570.0000     1.2290 
       4   214.0000     1.3270 
       5   320.0000     1.4100 
       6   268.0000     1.5290 
       7   268.0000     1.5290 
       8   268.0000     1.5290 
       9   268.0000     1.5290 
      10   268.0000     1.5290 
      11   268.0000     1.5290 
      12   268.0000     1.5290 
      13   268.0000     1.5290 
      14   268.0000     1.5290 
      15   382.0000     1.4480 
      16   382.0000     1.4480 
      17   382.0000     1.4480 
      18   340.0000     1.0900 
      19   340.0000     1.0900 
      20   340.0000     1.0900 
      21   340.0000     1.0900 
      22   340.0000     1.0900 
      23   340.0000     1.0900 
      24   340.0000     1.0900 
      25   340.0000     1.0900 
      26   340.0000     1.0900 
      27   340.0000     1.0900 
      28   340.0000     1.0900 
      29   340.0000     1.0900 
      30   340.0000     1.0900 
      31   340.0000     1.0900 
      32   340.0000     1.0900 
      33   340.0000     1.0900 
      34   340.0000     1.0900 
      35   340.0000     1.0900 
      36   340.0000     1.0900 
      37   340.0000     1.0900 
      38   340.0000     1.0900 
      39   340.0000     1.0900 
      40   340.0000     1.0900 
      41   340.0000     1.0900 
      42   340.0000     1.0900 
      43   340.0000     1.0900 
      44   340.0000     1.0900 
      45   340.0000     1.0900 
      46   340.0000     1.0900 

Angle Coeffs 

       1     83.000    116.900
       2     83.000    123.400
       3     69.900    118.180
       4     83.000    116.900
       5     50.000    109.500
       6     58.350    112.700
       7     58.350    112.700
       8     58.350    112.700
       9     58.350    112.700
      10     58.350    112.700
      11     58.350    112.700
      12     58.350    112.700
      13     58.350    112.700
      14     56.200    109.470
      15     51.800    107.200
      16     51.800    107.200
      17     35.000    109.500
      18     35.000    109.500
      19     35.000    109.500
      20     35.000    109.500
      21     35.000    109.500
      22     37.500    110.700
      23     37.500    110.700
      24     37.500    110.700
      25     37.500    110.700
      26     37.500    110.700
      27     37.500    110.700
      28     37.500    110.700
      29     37.500    110.700
      30     37.500    110.700
      31     37.500    110.700
      32     37.500    110.700
      33     37.500    110.700
      34     37.500    110.700
      35     37.500    110.700
      36     37.500    110.700
      37     37.500    110.700
      38     37.500    110.700
      39     37.500    110.700
      40     35.000    109.500
      41     35.000    109.500
      42     35.000    109.500
      43     35.000    109.500
      44     35.000    109.500
      45     35.000    109.500
      46     33.000    107.800
      47     58.350    112.700
      48     33.000    107.800
      49     33.000    107.800
      50     33.000    107.800
      51     37.500    110.700
      52     33.000    107.800
      53     33.000    107.800
      54     33.000    107.800
      55     33.000    107.800
      56     33.000    107.800
      57     37.500    110.700
      58     56.200    109.470
      59     37.500    110.700
      60     33.000    107.800
      61     37.500    110.700
      62     33.000    107.800
      63     83.000    123.400
      64     33.000    107.800
      65     37.500    110.700
      66     33.000    107.800
      67     33.000    107.800
      68     33.000    107.800
      69     37.500    110.700
      70     51.800    107.200
      71     33.000    107.800
      72     37.500    110.700
      73     37.500    110.700
      74     37.500    110.700
      75     37.500    110.700
      76     37.500    110.700
      77     37.500    110.700
      78     33.000    107.800
      79     33.000    107.800
      80     35.000    109.500
      81     37.500    110.700
      82     37.500    110.700
      83     33.000    107.800
      84     37.500    110.700
      85     33.000    107.800
      86     33.000    107.800

Dihedral Coeffs  

       1      0.000      5.124      0.000      0.000 
       2      4.669      5.124      0.000      0.000 
       3     -1.220     -0.126      0.422      0.000 
       4      1.711     -0.500      0.663      0.000 
       5      1.300     -0.200      0.200      0.000 
       6      1.300     -0.200      0.200      0.000 
       7      1.300     -0.200      0.200      0.000 
       8      1.300     -0.200      0.200      0.000 
       9      1.300     -0.200      0.200      0.000 
      10      1.300     -0.200      0.200      0.000 
      11      0.416     -0.128      0.695      0.000 
      12      0.000      0.000      0.198      0.000 
      13      0.000      0.000      0.300      0.000 
      14      0.000      0.000      0.300      0.000 
      15      0.000      0.000      0.560      0.000 
      16      0.000      0.000      0.560      0.000 
      17      0.000      0.000      0.300      0.000 
      18      0.000      0.000      0.300      0.000 
      19     -1.013     -0.709      0.473      0.000 
      20      0.000      0.000      0.300      0.000 
      21      0.416     -0.128      0.695      0.000 
      22      0.000      0.000      0.300      0.000 
      23      0.000      0.000      0.560      0.000 
      24      0.000      0.000      0.560      0.000 
      25      0.000      0.000      0.198      0.000 
      26      0.000      0.000      0.300      0.000 
      27      1.300     -0.200      0.200      0.000 
      28      0.000      0.000      0.300      0.000 
      29      0.000      0.000      0.300      0.000 
      30      0.000      0.000      0.300      0.000 
      31      0.000      0.000      0.560      0.000 
      32      0.000      0.000      0.300      0.000 
      33      0.000      0.000      0.300      0.000 
      34      0.000      0.000      0.300      0.000 
      35      0.000      0.000      0.468      0.000 
      36      0.000      0.000      0.300      0.000 
      37      0.000      0.000      0.300      0.000 
      38      0.000      0.000      0.300      0.000 
      39      0.416     -0.128      0.695      0.000 
      40      0.000      0.000      0.560      0.000 
      41      0.000      0.000      0.300      0.000 
      42      0.000      0.000      0.300      0.000 
      43      0.000      0.000      0.560      0.000 
      44      0.000      0.000      0.300      0.000 
      45      0.000      0.000      0.300      0.000 
      46      0.000      0.000      0.560      0.000 
      47      0.000      5.124      0.000      0.000 
      48      0.000      0.000      0.560      0.000 
      49      0.000      0.000      0.300      0.000 
      50      0.000      0.000      0.300      0.000 
      51      0.000      0.000      0.300      0.000 
      52      0.000      0.000      0.300      0.000 
      53      0.000      0.000      0.300      0.000 
      54      0.000      0.000      0.300      0.000 
      55      0.000      0.000      0.300      0.000 
      56      0.000      0.000      0.300      0.000 
      57      0.000      0.000      0.300      0.000 
      58      0.000      0.000      0.300      0.000 
      59      0.000      0.000      0.300      0.000 
      60      0.000      0.000      0.300      0.000 
      61      0.000      0.000      0.300      0.000 
      62      0.000      0.000      0.300      0.000 
      63      0.000      0.000      0.300      0.000 
      64      0.000      0.000      0.198      0.000 
      65     -1.013     -0.709      0.473      0.000 
      66     -1.013     -0.709      0.473      0.000 
      67      0.000      0.000      0.300      0.000 
      68      0.000      0.000      0.468      0.000 
      69      0.000      0.000      0.300      0.000 
      70      0.000      0.000      0.560      0.000 
      71      0.000      0.000      0.560      0.000 
      72      2.392     -0.674      0.550      0.000 
      73      0.000      0.000      0.300      0.000 
      74      0.000      0.000      0.300      0.000 
      75      0.000      0.000      0.300      0.000 
      76      0.000      0.000      0.300      0.000 
      77      0.000      0.000      0.300      0.000 
      78      0.000      0.000      0.560      0.000 
      79      0.000      0.000      0.300      0.000 
      80      0.000      0.000      0.300      0.000 
      81      0.000      0.000      0.300      0.000 
      82      0.000      0.000      0.300      0.000 
      83      4.669      5.124      0.000      0.000 
      84      0.000      0.000      0.300      0.000 
      85      0.000      0.000      0.300      0.000 
      86      0.000      0.000      0.300      0.000 
      87      0.000      0.000      0.300      0.000 
      88      0.000      0.000      0.300      0.000 
      89      0.000      0.000      0.300      0.000 
      90      0.000      0.000      0.300      0.000 
      91      0.000      0.000      0.560      0.000 
      92      0.000      0.000      0.300      0.000 
      93      0.000      0.000      0.198      0.000 
      94      0.000      0.000      0.300      0.000 
      95      0.000      0.000      0.300      0.000 
      96      0.000      0.000      0.198      0.000 
      97      0.000      0.000      0.300      0.000 
      98     -1.013     -0.709      0.473      0.000 
      99     -1.013     -0.709      0.473      0.000 
     100      0.000      0.000      0.300      0.000 
     101      1.300     -0.200      0.200      0.000 
     102      0.000      0.000      0.560      0.000 
     103      0.000      0.000      0.300      0.000 
     104      0.000      0.000      0.300      0.000 
     105      0.416     -0.128      0.695      0.000 
     106      0.000      0.000      0.300      0.000 
     107      0.000      0.000      0.300      0.000 
     108      0.000      0.000      0.300      0.000 
     109      0.000      0.000      0.300      0.000 

Improper Coeffs 

       1     10.500      -1       2 
       2      0.000      -1       2 
       3      0.000      -1       2 
       4      0.000      -1       2 
       5      0.000      -1       2 
       6      0.000      -1       2 
       7      0.000      -1       2 
       8      0.000      -1       2 
       9      0.000      -1       2 
      10      0.000      -1       2 
      11      0.000      -1       2 
      12      0.000      -1       2 
      13      0.000      -1       2 
      14      0.000      -1       2 
      15      0.000      -1       2 
      16      0.000      -1       2 
      17      0.000      -1       2 
      18      0.000      -1       2 
      19      0.000      -1       2 
      20      0.000      -1       2 
      21      0.000      -1       2 
      22      0.000      -1       2 
      23      0.000      -1       2 
      24      0.000      -1       2 
      25      0.000      -1       2 
      26      0.000      -1       2 
      27      0.000      -1       2 
      28      0.000      -1       2 

Atoms 

     1      1      1 -0.04470000    1.000  1.00000  0.00000
     2      1      2 -0.31480000   -0.426  1.00000  0.00000
     3      1      3 0.56750000   -0.965  1.00000  1.24284
     4      1      4 -0.49640000   -0.339  1.00000  2.29363
     5      1      5 -0.32230000   -2.318  0.99837  1.11794
     6      1      6 0.01900000   -3.046  0.93854  2.35204
     7      1      7 -0.21800000   -3.111 -0.50182  2.84672
     8      1      8 -0.17020000   -3.877 -0.61376  4.16282
     9      1      9 -0.16850000   -3.953 -2.05369  4.68070
    10      1     10 -0.11610000   -2.595 -2.73967  4.94507
    11      1     11 -0.23590000   -1.781 -1.97937  5.99959
    12      1     12 -0.16970000   -2.776 -4.20440  5.39767
    13      1     13 -0.16990000   -3.386 -5.10048  4.30629
    14      1     14 0.07950000   -3.587 -6.58089  4.72021
    15      1     15 -0.23730000   -2.204 -7.23038  4.91581
    16      1     16 -0.57850000   -4.471 -6.73716  5.90384
    17      1     17 -0.05100000   -5.805 -6.16218  5.67221
    18      1     18 -0.04940000   -4.634 -8.14210  6.29361
    19      1     19 0.10740000    1.339  1.04777 -1.03846
    20      1     20 0.10740000    1.381  0.07568  0.44570
    21      1     21 0.10740000    1.387  1.87614  0.53074
    22      1     22 0.12150000   -4.056  1.31107  2.14909
    23      1     23 0.12150000   -2.598  1.60501  3.09833
    24      1     24 0.10910000   -2.092 -0.88210  2.96240
    25      1     25 0.10910000   -3.581 -1.13129  2.07979
    26      1     26 0.08990000   -4.901 -0.24895  4.01070
    27      1     27 0.08990000   -3.426  0.03801  4.91954
    28      1     28 0.08900000   -4.524 -2.62492  3.94172
    29      1     29 0.08900000   -4.548 -2.06085  5.60310
    30      1     30 0.09570000   -2.008 -2.75734  4.01946
    31      1     31 0.08330000   -2.316 -1.93141  6.95389
    32      1     32 0.08330000   -1.562 -0.95629  5.67920
    33      1     33 0.08330000   -0.818 -2.47229  6.17674
    34      1     34 0.10030000   -3.389 -4.23174  6.30613
    35      1     35 0.10030000   -1.790 -4.60277  5.66761
    36      1     36 0.08680000   -2.738 -5.06212  3.42010
    37      1     37 0.08680000   -4.347 -4.70039  3.97184
    38      1     38 0.06720000   -4.053 -7.08662  3.86328
    39      1     39 0.08760000   -1.706 -6.86019  5.81838
    40      1     40 0.08760000   -1.554 -7.01752  4.06017
    41      1     41 0.08760000   -2.275 -8.31946  4.99116
    42      1     42 0.08090000   -5.760 -5.07425  5.56414
    43      1     43 0.08090000   -6.459 -6.33908  6.53430
    44      1     44 0.08090000   -6.286 -6.58696  4.78416
    45      1     45 0.08090000   -3.692 -8.56616  6.65381
    46      1     46 0.08090000   -5.009 -8.75519  5.46663
    47      1     47 0.08090000   -5.333 -8.23276  7.13320

Bonds 

     1      1      2      1
     2      2      3      2
     3      3      4      3
     4      4      5      3
     5      5      6      5
     6      6      7      6
     7      7      8      7
     8      8      9      8
     9      9     10      9
    10     10     11     10
    11     11     12     10
    12     12     13     12
    13     13     14     13
    14     14     15     14
    15     15     16     14
    16     16     17     16
    17     17     18     16
    18     18     19      1
    19     19     20      1
    20     20     21      1
    21     21     22      6
    22     22     23      6
    23     23     24      7
    24     24     25      7
    25     25     26      8
    26     26     27      8
    27     27     28      9
    28     28     29      9
    29     29     30     10
    30     30     31     11
    31     31     32     11
    32     32     33     11
    33     33     34     12
    34     34     35     12
    35     35     36     13
    36     36     37     13
    37     37     38     14
    38     38     39     15
    39     39     40     15
    40     40     41     15
    41     41     42     17
    42     42     43     17
    43     43     44     17
    44     44     45     18
    45     45     46     18
    46     46     47     18

Angles 

     1      1      1      2      3
     2      2      2      3      4
     3      3      2      3      5
     4      4      3      5      6
     5      5      5      6      7
     6      6      6      7      8
     7      7      7      8      9
     8      8      8      9     10
     9      9      9     10     11
    10     10      9     10     12
    11     11     10     12     13
    12     12     12     13     14
    13     13     13     14     15
    14     14     13     14     16
    15     15     14     16     17
    16     16     14     16     18
    17     17      2      1     19
    18     18      2      1     20
    19     19      2      1     21
    20     20      5      6     22
    21     21      5      6     23
    22     22      6      7     24
    23     23      6      7     25
    24     24      7      8     26
    25     25      7      8     27
    26     26      8      9     28
    27     27      8      9     29
    28     28      9     10     30
    29     29     10     11     31
    30     30     10     11     32
    31     31     10     11     33
    32     32     10     12     34
    33     33     10     12     35
    34     34     12     13     36
    35     35     12     13     37
    36     36     13     14     38
    37     37     14     15     39
    38     38     14     15     40
    39     39     14     15     41
    40     40     16     17     42
    41     41     16     17     43
    42     42     16     17     44
    43     43     16     18     45
    44     44     16     18     46
    45     45     16     18     47
    46     46     39     15     41
    47     47     11     10     12
    48     48     19      1     21
    49     49     32     11     33
    50     50     39     15     40
    51     51      9      8     27
    52     52     34     12     35
    53     53     28      9     29
    54     54     20      1     21
    55     55     42     17     43
    56     56     36     13     37
    57     57     11     10     30
    58     58     15     14     16
    59     59     10      9     29
    60     60     42     17     44
    61     61     13     12     34
    62     62     45     18     46
    63     63      4      3      5
    64     64     22      6     23
    65     65     14     13     36
    66     66     24      7     25
    67     67     43     17     44
    68     68     45     18     47
    69     69      7      6     22
    70     70     17     16     18
    71     71     46     18     47
    72     72      8      7     25
    73     73      9      8     26
    74     74      8      7     24
    75     75     10      9     28
    76     76     14     13     37
    77     77     12     10     30
    78     78     31     11     32
    79     79     40     15     41
    80     80     16     14     38
    81     81     13     12     35
    82     82     15     14     38
    83     83     19      1     20
    84     84      7      6     23
    85     85     26      8     27
    86     86     31     11     33

Dihedrals

     1      1      4      3      2      1 
     2      2      6      5      3      2 
     3      3      7      6      5      3 
     4      4      8      7      6      5 
     5      5      9      8      7      6 
     6      6     10      9      8      7 
     7      7     11     10      9      8 
     8      8     13     12     10      9 
     9      9     14     13     12     10 
    10     10     15     14     13     12 
    11     11     17     16     14     13 
    12     12     19      1      2      3 
    13     13     31     11     10      9 
    14     14     39     15     14     13 
    15     15     42     17     16     14 
    16     16     45     18     16     14 
    17     17     23      6      7      8 
    18     18     37     13     12     35 
    19     19     39     15     14     16 
    20     20     31     11     10     12 
    21     21     18     16     14     15 
    22     22     38     14     13     37 
    23     23     43     17     16     18 
    24     24     46     18     16     14 
    25     25     23      6      5      3 
    26     26     40     15     14     13 
    27     27     13     12     10     11 
    28     28     24      7      6     23 
    29     29     25      7      6     22 
    30     30     25      7      6     23 
    31     31     38     14     16     17 
    32     32     29      9      8      7 
    33     33     26      8      9     10 
    34     34     37     13     12     10 
    35     35     24      7      6      5 
    36     36     26      8      7     25 
    37     37     34     12     10     11 
    38     38     32     11     10     12 
    39     39     18     16     14     13 
    40     40     46     18     16     17 
    41     41     28      9      8     27 
    42     42     29      9      8     26 
    43     43     44     17     16     14 
    44     44     37     13     12     34 
    45     45     35     12     10     11 
    46     46     38     14     16     18 
    47     47      6      5      3      4 
    48     48     43     17     16     14 
    49     49     32     11     10     30 
    50     50     32     11     10      9 
    51     51     30     10     12     13 
    52     52     24      7      8      9 
    53     53     41     15     14     38 
    54     54     27      8      7      6 
    55     55     22      6      7      8 
    56     56     36     13     12     34 
    57     57     24      7      6     22 
    58     58     30     10      9     28 
    59     59     27      8      9     10 
    60     60     30     10      9     29 
    61     61     34     12     13     14 
    62     62     28      9     10     12 
    63     63     29      9     10     11 
    64     64     21      1      2      3 
    65     65     37     13     14     16 
    66     66     40     15     14     16 
    67     67     34     12     10      9 
    68     68     25      7      6      5 
    69     69     31     11     10     30 
    70     70     47     18     16     17 
    71     71     47     18     16     14 
    72     72     16     14     13     12 
    73     73     35     12     13     14 
    74     74     26      8      7     24 
    75     75     41     15     14     13 
    76     76     29      9     10     12 
    77     77     28      9      8      7 
    78     78     42     17     16     18 
    79     79     36     13     14     15 
    80     80     27      8      7     24 
    81     81     28      9      8     26 
    82     82     29      9      8     27 
    83     83      5      3      2      1 
    84     84     35     12     10      9 
    85     85     34     12     10     30 
    86     86     40     15     14     38 
    87     87     33     11     10      9 
    88     88     39     15     14     38 
    89     89     38     14     13     36 
    90     90     35     12     10     30 
    91     91     44     17     16     18 
    92     92     33     11     10     12 
    93     93     22      6      5      3 
    94     94     26      8      7      6 
    95     95     36     13     12     10 
    96     96     20      1      2      3 
    97     97     37     13     14     15 
    98     98     36     13     14     16 
    99     99     41     15     14     16 
   100    100     38     14     13     12 
   101    101     12     10      9      8 
   102    102     45     18     16     17 
   103    103     27      8      7     25 
   104    104     30     10      9      8 
   105    105     17     16     14     15 
   106    106     25      7      8      9 
   107    107     28      9     10     11 
   108    108     33     11     10     30 
   109    109     36     13     12     35 

Impropers

     1      1      3      2      4      5 
     2      2     10      9     11     12 
     3      3     14     13     15     16 
     4      4     16     17     18     14 
     5      5      1      2     19     20 
     6      6      1      2     19     21 
     7      7      6      5     22      7 
     8      8      6      7      5     23 
     9      9      7      8      6     24 
    10     10      7     25      6      8 
    11     11      8      9     26      7 
    12     12      8      9     27      7 
    13     13      9     10     28      8 
    14     14      9     10     29      8 
    15     15     10      9     11     30 
    16     16     11     10     31     32 
    17     17     11     33     10     31 
    18     18     12     34     13     10 
    19     19     12     10     35     13 
    20     20     13     12     36     14 
    21     21     13     12     37     14 
    22     22     14     13     38     15 
    23     23     15     39     14     40 
    24     24     15     41     39     14 
    25     25     17     42     43     16 
    26     26     17     42     44     16 
    27     27     18     45     46     16 
    28     28     18     45     47     16 

