LAMMPS data file Created by LigParGen - (Written by Leela S. Dodda)

      58 atoms
      57 bonds
     111 angles
     159 dihedrals
      37 impropers
 
      58 atom types
      57 bond types
     111 angle types
     159 dihedral types
      37 improper types
 
  -15.112350    34.887650 xlo xhi
   -7.634460    42.365540 ylo yhi
   -4.167960    45.832040 zlo zhi

Masses

       1     12.011  
       2     12.011  
       3     12.011  
       4     12.011  
       5     12.011  
       6     12.011  
       7     12.011  
       8     12.011  
       9     12.011  
      10     12.011  
      11     12.011  
      12     12.011  
      13     12.011  
      14     12.011  
      15     12.011  
      16     12.011  
      17     12.011  
      18     12.011  
      19     12.011  
      20     15.999  
      21      1.008  
      22      1.008  
      23      1.008  
      24      1.008  
      25      1.008  
      26      1.008  
      27      1.008  
      28      1.008  
      29      1.008  
      30      1.008  
      31      1.008  
      32      1.008  
      33      1.008  
      34      1.008  
      35      1.008  
      36      1.008  
      37      1.008  
      38      1.008  
      39      1.008  
      40      1.008  
      41      1.008  
      42      1.008  
      43      1.008  
      44      1.008  
      45      1.008  
      46      1.008  
      47      1.008  
      48      1.008  
      49      1.008  
      50      1.008  
      51      1.008  
      52      1.008  
      53      1.008  
      54      1.008  
      55      1.008  
      56      1.008  
      57      1.008  
      58      1.008  

Pair Coeffs 

       1      0.066  3.5000000 
       2      0.066  3.5000000 
       3      0.066  3.5000000 
       4      0.066  3.5000000 
       5      0.066  3.5000000 
       6      0.066  3.5000000 
       7      0.066  3.5000000 
       8      0.066  3.5000000 
       9      0.066  3.5000000 
      10      0.066  3.5000000 
      11      0.066  3.5000000 
      12      0.066  3.5000000 
      13      0.066  3.5000000 
      14      0.066  3.5000000 
      15      0.066  3.5000000 
      16      0.066  3.5000000 
      17      0.066  3.5000000 
      18      0.066  3.5000000 
      19      0.070  3.5500000 
      20      0.210  2.9600000 
      21      0.030  2.5000000 
      22      0.030  2.5000000 
      23      0.030  2.5000000 
      24      0.030  2.5000000 
      25      0.030  2.5000000 
      26      0.030  2.5000000 
      27      0.030  2.5000000 
      28      0.030  2.5000000 
      29      0.030  2.5000000 
      30      0.030  2.5000000 
      31      0.030  2.5000000 
      32      0.030  2.5000000 
      33      0.030  2.5000000 
      34      0.030  2.5000000 
      35      0.030  2.5000000 
      36      0.030  2.5000000 
      37      0.030  2.5000000 
      38      0.030  2.5000000 
      39      0.030  2.5000000 
      40      0.030  2.5000000 
      41      0.030  2.5000000 
      42      0.030  2.5000000 
      43      0.030  2.5000000 
      44      0.030  2.5000000 
      45      0.030  2.5000000 
      46      0.030  2.5000000 
      47      0.030  2.5000000 
      48      0.030  2.5000000 
      49      0.030  2.5000000 
      50      0.030  2.5000000 
      51      0.030  2.5000000 
      52      0.030  2.5000000 
      53      0.030  2.5000000 
      54      0.030  2.5000000 
      55      0.030  2.5000000 
      56      0.030  2.5000000 
      57      0.030  2.5000000 
      58      0.030  2.5000000 

Bond Coeffs 

       1   268.0000     1.5290 
       2   268.0000     1.5290 
       3   268.0000     1.5290 
       4   268.0000     1.5290 
       5   268.0000     1.5290 
       6   268.0000     1.5290 
       7   268.0000     1.5290 
       8   268.0000     1.5290 
       9   268.0000     1.5290 
      10   268.0000     1.5290 
      11   268.0000     1.5290 
      12   268.0000     1.5290 
      13   268.0000     1.5290 
      14   268.0000     1.5290 
      15   268.0000     1.5290 
      16   268.0000     1.5290 
      17   268.0000     1.5290 
      18   317.0000     1.5220 
      19   570.0000     1.2290 
      20   340.0000     1.0900 
      21   340.0000     1.0900 
      22   340.0000     1.0900 
      23   340.0000     1.0900 
      24   340.0000     1.0900 
      25   340.0000     1.0900 
      26   340.0000     1.0900 
      27   340.0000     1.0900 
      28   340.0000     1.0900 
      29   340.0000     1.0900 
      30   340.0000     1.0900 
      31   340.0000     1.0900 
      32   340.0000     1.0900 
      33   340.0000     1.0900 
      34   340.0000     1.0900 
      35   340.0000     1.0900 
      36   340.0000     1.0900 
      37   340.0000     1.0900 
      38   340.0000     1.0900 
      39   340.0000     1.0900 
      40   340.0000     1.0900 
      41   340.0000     1.0900 
      42   340.0000     1.0900 
      43   340.0000     1.0900 
      44   340.0000     1.0900 
      45   340.0000     1.0900 
      46   340.0000     1.0900 
      47   340.0000     1.0900 
      48   340.0000     1.0900 
      49   340.0000     1.0900 
      50   340.0000     1.0900 
      51   340.0000     1.0900 
      52   340.0000     1.0900 
      53   340.0000     1.0900 
      54   340.0000     1.0900 
      55   340.0000     1.0900 
      56   340.0000     1.0900 
      57   340.0000     1.0900 

Angle Coeffs 

       1     58.350    112.700
       2     58.350    112.700
       3     58.350    112.700
       4     58.350    112.700
       5     58.350    112.700
       6     58.350    112.700
       7     58.350    112.700
       8     58.350    112.700
       9     58.350    112.700
      10     58.350    112.700
      11     58.350    112.700
      12     58.350    112.700
      13     58.350    112.700
      14     58.350    112.700
      15     58.350    112.700
      16     58.350    112.700
      17     63.000    111.100
      18     80.000    120.400
      19     37.500    110.700
      20     37.500    110.700
      21     37.500    110.700
      22     37.500    110.700
      23     37.500    110.700
      24     37.500    110.700
      25     37.500    110.700
      26     37.500    110.700
      27     37.500    110.700
      28     37.500    110.700
      29     37.500    110.700
      30     37.500    110.700
      31     37.500    110.700
      32     37.500    110.700
      33     37.500    110.700
      34     37.500    110.700
      35     37.500    110.700
      36     37.500    110.700
      37     37.500    110.700
      38     37.500    110.700
      39     37.500    110.700
      40     37.500    110.700
      41     37.500    110.700
      42     37.500    110.700
      43     37.500    110.700
      44     37.500    110.700
      45     37.500    110.700
      46     37.500    110.700
      47     37.500    110.700
      48     37.500    110.700
      49     37.500    110.700
      50     37.500    110.700
      51     37.500    110.700
      52     37.500    110.700
      53     37.500    110.700
      54     37.500    110.700
      55     37.500    110.700
      56     35.000    115.000
      57     37.500    110.700
      58     37.500    110.700
      59     33.000    107.800
      60     33.000    107.800
      61     37.500    110.700
      62     37.500    110.700
      63     33.000    107.800
      64     33.000    107.800
      65     33.000    107.800
      66     33.000    107.800
      67     37.500    110.700
      68     33.000    107.800
      69     33.000    107.800
      70     37.500    110.700
      71     33.000    107.800
      72     37.500    110.700
      73     58.350    112.700
      74     37.500    110.700
      75     33.000    107.800
      76     37.500    110.700
      77     37.500    110.700
      78     58.350    112.700
      79     37.500    110.700
      80     37.500    110.700
      81     33.000    107.800
      82     33.000    107.800
      83     37.500    110.700
      84     33.000    107.800
      85     37.500    110.700
      86     37.500    110.700
      87     33.000    107.800
      88     33.000    107.800
      89     37.500    110.700
      90     35.000    123.000
      91     37.500    110.700
      92     37.500    110.700
      93     37.500    110.700
      94     33.000    107.800
      95     33.000    107.800
      96     33.000    107.800
      97     37.500    110.700
      98     33.000    107.800
      99     33.000    107.800
     100     37.500    110.700
     101     33.000    107.800
     102     35.000    109.500
     103     63.000    111.100
     104     37.500    110.700
     105     58.350    112.700
     106     37.500    110.700
     107     33.000    107.800
     108     37.500    110.700
     109     37.500    110.700
     110     33.000    107.800
     111     33.000    107.800

Dihedral Coeffs  

       1      1.300     -0.200      0.200      0.000 
       2      1.300     -0.200      0.200      0.000 
       3      1.300     -0.200      0.200      0.000 
       4      1.300     -0.200      0.200      0.000 
       5      1.300     -0.200      0.200      0.000 
       6      1.300     -0.200      0.200      0.000 
       7      1.300     -0.200      0.200      0.000 
       8      1.300     -0.200      0.200      0.000 
       9      1.300     -0.200      0.200      0.000 
      10      1.300     -0.200      0.200      0.000 
      11      1.300     -0.200      0.200      0.000 
      12      1.300     -0.200      0.200      0.000 
      13      1.300     -0.200      0.200      0.000 
      14      0.000      0.000      0.000      0.000 
      15      0.000      0.000      0.300      0.000 
      16      0.000      0.000      0.300      0.000 
      17      0.000      0.000      0.300      0.000 
      18      0.000      0.000      0.300      0.000 
      19      0.000      0.000      0.300      0.000 
      20      0.000      0.000      0.300      0.000 
      21      0.000      0.000      0.300      0.000 
      22      0.000      0.000      0.300      0.000 
      23      0.000      0.000      0.300      0.000 
      24      0.000      0.000      0.300      0.000 
      25      0.000      0.000      0.300      0.000 
      26      0.000      0.000      0.300      0.000 
      27      0.000      0.000      0.300      0.000 
      28      0.000      0.000      0.300      0.000 
      29      0.000      0.000      0.300      0.000 
      30      1.300     -0.200      0.200      0.000 
      31      0.000      0.000      0.300      0.000 
      32      0.000      0.000      0.300      0.000 
      33      0.000      0.000      0.300      0.000 
      34      0.000      0.000      0.300      0.000 
      35      0.000      0.000      0.300      0.000 
      36      0.000      0.000      0.300      0.000 
      37      0.000      0.000      0.300      0.000 
      38      0.000      0.000      0.300      0.000 
      39      0.000      0.000      0.300      0.000 
      40      0.000      0.000      0.300      0.000 
      41      0.000      0.000      0.300      0.000 
      42      0.000      0.000     -0.100      0.000 
      43      0.000      0.000      0.300      0.000 
      44      0.000      0.000      0.300      0.000 
      45      0.000      0.000      0.300      0.000 
      46      0.000      0.000      0.300      0.000 
      47      0.000      0.000      0.300      0.000 
      48      0.000      0.000     -0.100      0.000 
      49      0.000      0.000      0.300      0.000 
      50      0.000      0.000      0.300      0.000 
      51      0.000      0.000     -0.100      0.000 
      52      0.000      0.000      0.300      0.000 
      53      0.000      0.000      0.300      0.000 
      54      0.000      0.000      0.300      0.000 
      55      0.000      0.000      0.300      0.000 
      56      0.000      0.000      0.300      0.000 
      57      0.000      0.000      0.300      0.000 
      58      0.000      0.000      0.300      0.000 
      59      0.000      0.000      0.300      0.000 
      60      0.000      0.000      0.360      0.000 
      61      0.000      0.000      0.300      0.000 
      62      0.000      0.000      0.300      0.000 
      63      0.000      0.000      0.300      0.000 
      64      0.000      0.000      0.300      0.000 
      65      0.000      0.000      0.300      0.000 
      66      0.000      0.000      0.300      0.000 
      67      0.000      0.000      0.300      0.000 
      68      0.000      0.000      0.300      0.000 
      69      0.000      0.000      0.300      0.000 
      70      0.000      0.000      0.300      0.000 
      71      0.000      0.000      0.300      0.000 
      72      0.000      0.000      0.300      0.000 
      73      0.000      0.000      0.300      0.000 
      74      0.000      0.000      0.300      0.000 
      75      0.000      0.000      0.300      0.000 
      76      0.000      0.000      0.300      0.000 
      77      0.000      0.000      0.300      0.000 
      78      0.000      0.000      0.300      0.000 
      79      0.000      0.000      0.300      0.000 
      80      0.000      0.000      0.300      0.000 
      81      0.000      0.000      0.300      0.000 
      82      0.000      0.000     -0.100      0.000 
      83      0.000      0.000      0.300      0.000 
      84      0.000      0.000      0.300      0.000 
      85      0.000      0.000      0.300      0.000 
      86      0.000      0.000      0.300      0.000 
      87      0.000      0.000     -0.100      0.000 
      88      0.000      0.000      0.300      0.000 
      89      0.000      0.000      0.300      0.000 
      90      0.000      0.000      0.300      0.000 
      91      0.000      0.000      0.300      0.000 
      92      0.000      0.000      0.300      0.000 
      93      0.000      0.000      0.000      0.000 
      94      0.000      0.000      0.300      0.000 
      95      0.000      0.000      0.300      0.000 
      96      0.000      0.000      0.300      0.000 
      97      0.000      0.000      0.300      0.000 
      98      0.000      0.000      0.300      0.000 
      99      0.000      0.000      0.300      0.000 
     100      0.000      0.000      0.300      0.000 
     101      0.000      0.000      0.300      0.000 
     102      0.000      0.000      0.300      0.000 
     103      0.000      0.000      0.300      0.000 
     104      0.000      0.000      0.300      0.000 
     105      0.000      0.000      0.300      0.000 
     106      0.000      0.000      0.300      0.000 
     107      0.000      0.000      0.300      0.000 
     108      0.000      0.000      0.300      0.000 
     109      1.300     -0.200      0.200      0.000 
     110      0.000      0.000      0.300      0.000 
     111      0.000      0.000      0.300      0.000 
     112      0.000      0.000      0.300      0.000 
     113      0.000      0.000      0.000      0.000 
     114      0.000      0.000      0.300      0.000 
     115      0.000      0.000      0.300      0.000 
     116      0.000      0.000      0.000      0.000 
     117      0.000      0.000      0.300      0.000 
     118      0.000      0.000      0.300      0.000 
     119      0.000      0.000      0.300      0.000 
     120      0.000      0.000      0.300      0.000 
     121      0.000      0.000      0.300      0.000 
     122      1.300     -0.200      0.200      0.000 
     123      0.000      0.000      0.300      0.000 
     124      0.000      0.000      0.300      0.000 
     125      0.000      0.000      0.300      0.000 
     126      0.000      0.000      0.300      0.000 
     127      0.000      0.000      0.300      0.000 
     128      0.000      0.000      0.300      0.000 
     129      0.000      0.000      0.300      0.000 
     130      0.000      0.000      0.300      0.000 
     131      0.000      0.000      0.300      0.000 
     132      0.000      0.000      0.300      0.000 
     133      0.000      0.000      0.300      0.000 
     134      0.000      0.000      0.300      0.000 
     135      0.000      0.000      0.300      0.000 
     136      0.000      0.000      0.300      0.000 
     137      0.000      0.000      0.300      0.000 
     138      0.000      0.000      0.300      0.000 
     139      0.000      0.000      0.300      0.000 
     140      0.000      0.000      0.300      0.000 
     141      0.000      0.000      0.300      0.000 
     142      0.000      0.000      0.300      0.000 
     143      0.000      0.000      0.300      0.000 
     144      0.000      0.000      0.300      0.000 
     145      0.000      0.000      0.300      0.000 
     146      0.000      0.000      0.300      0.000 
     147      0.000      0.000      0.300      0.000 
     148      0.000      0.000      0.000      0.000 
     149      0.000      0.000      0.300      0.000 
     150      1.300     -0.200      0.200      0.000 
     151     -2.060     -0.313      0.315      0.000 
     152      0.000      0.000      0.300      0.000 
     153      0.000      0.000      0.300      0.000 
     154      0.000      0.000      0.300      0.000 
     155      0.000      0.000      0.300      0.000 
     156      0.000      0.000      0.300      0.000 
     157      0.000      0.000      0.300      0.000 
     158      0.000      0.000      0.300      0.000 
     159      0.000      0.000      0.300      0.000 

Improper Coeffs 

       1      0.000      -1       2 
       2      0.000      -1       2 
       3      0.000      -1       2 
       4      0.000      -1       2 
       5      0.000      -1       2 
       6      0.000      -1       2 
       7      0.000      -1       2 
       8      0.000      -1       2 
       9      0.000      -1       2 
      10      0.000      -1       2 
      11      0.000      -1       2 
      12      0.000      -1       2 
      13      0.000      -1       2 
      14      0.000      -1       2 
      15      0.000      -1       2 
      16      0.000      -1       2 
      17      0.000      -1       2 
      18      0.000      -1       2 
      19      0.000      -1       2 
      20      0.000      -1       2 
      21      0.000      -1       2 
      22      0.000      -1       2 
      23      0.000      -1       2 
      24      0.000      -1       2 
      25      0.000      -1       2 
      26      0.000      -1       2 
      27      0.000      -1       2 
      28      0.000      -1       2 
      29      0.000      -1       2 
      30      0.000      -1       2 
      31      0.000      -1       2 
      32      0.000      -1       2 
      33      0.000      -1       2 
      34      0.000      -1       2 
      35      0.000      -1       2 
      36      0.000      -1       2 
      37     10.500      -1       2 

Atoms 

     1      1      1 -0.23620000    1.000  1.00000  0.00000
     2      1      2 -0.16940000   -0.523  1.00000  0.00000
     3      1      3 -0.04690000   -1.208  1.00000  1.39991
     4      1      4 -0.22780000   -0.797 -0.25802  2.18781
     5      1      5 -0.22740000   -0.815  2.25688  2.19300
     6      1      6 -0.16970000   -2.741  0.98787  1.14553
     7      1      7 -0.17510000   -3.631  0.98409  2.39727
     8      1      8 -0.17790000   -5.122  0.97029  2.05972
     9      1      9 -0.18120000   -5.517 -0.28006  1.28239
    10      1     10 -0.18090000   -7.010 -0.31642  1.00750
    11      1     11 -0.18080000   -7.341 -1.54789  0.17484
    12      1     12 -0.18010000   -8.831 -1.60523 -0.11485
    13      1     13 -0.18020000   -9.158 -2.83747 -0.94502
    14      1     14 -0.18070000  -10.651 -2.90141 -1.23721
    15      1     15 -0.17770000  -10.967 -4.13911 -2.06691
    16      1     16 -0.16710000  -12.459 -4.22901 -2.37302
    17      1     17 -0.18810000  -12.816 -5.46571 -3.21106
    18      1     18 -0.22770000  -12.458 -6.77513 -2.51412
    19      1     19 0.31390000  -14.294 -5.40019 -3.53996
    20      1     20 -0.43930000  -15.112 -6.26614 -3.24369
    21      1     21 0.08080000    1.368  1.00130 -1.03112
    22      1     22 0.08080000    1.404  0.10936  0.48885
    23      1     23 0.08080000    1.404  1.88803  0.49299
    24      1     24 0.08540000   -0.858  0.12019 -0.56636
    25      1     25 0.08540000   -0.862  1.87622 -0.56848
    26      1     26 0.08110000    0.282 -0.29059  2.36447
    27      1     27 0.08110000   -1.079 -1.16840  1.64672
    28      1     28 0.08110000   -1.270 -0.29369  3.17447
    29      1     29 0.08120000    0.264  2.30698  2.36666
    30      1     30 0.08120000   -1.287  2.27526  3.18061
    31      1     31 0.08120000   -1.115  3.16545  1.65858
    32      1     32 0.08760000   -2.960  0.10037  0.54063
    33      1     33 0.08760000   -3.016  1.85489  0.52950
    34      1     34 0.08960000   -3.435  1.87507  3.00194
    35      1     35 0.08960000   -3.412  0.11150  3.02103
    36      1     36 0.08870000   -5.381  1.86835  1.48643
    37      1     37 0.08870000   -5.693  1.01119  2.99596
    38      1     38 0.09080000   -5.218 -1.17466  1.84248
    39      1     39 0.09080000   -4.997 -0.30850  0.31910
    40      1     40 0.09050000   -7.309  0.58861  0.46583
    41      1     41 0.09050000   -7.567 -0.33754  1.95142
    42      1     42 0.09030000   -7.028 -2.45295  0.70986
    43      1     43 0.09030000   -6.783 -1.52034 -0.76942
    44      1     44 0.09090000   -9.139 -0.70148 -0.65368
    45      1     45 0.09090000   -9.391 -1.63229  0.82803
    46      1     46 0.09080000   -8.845 -3.73922 -0.40366
    47      1     47 0.09080000   -8.595 -2.81190 -1.88647
    48      1     48 0.09140000  -10.965 -1.99803 -1.77392
    49      1     49 0.09140000  -11.209 -2.93398 -0.29355
    50      1     50 0.09370000  -10.639 -5.02233 -1.50852
    51      1     51 0.09370000  -10.397 -4.11201 -3.00375
    52      1     52 0.09380000  -12.767 -3.32244 -2.91045
    53      1     53 0.09380000  -13.028 -4.23736 -1.43455
    54      1     54 0.12350000  -12.281 -5.41896 -4.16796
    55      1     55 0.09230000  -12.909 -6.83033 -1.51727
    56      1     56 0.09230000  -11.375 -6.88831 -2.40491
    57      1     57 0.09230000  -12.817 -7.63446 -3.09019
    58      1     58 0.10290000  -14.614 -4.49473 -4.08521

Bonds 

     1      1      2      1
     2      2      3      2
     3      3      4      3
     4      4      5      3
     5      5      6      3
     6      6      7      6
     7      7      8      7
     8      8      9      8
     9      9     10      9
    10     10     11     10
    11     11     12     11
    12     12     13     12
    13     13     14     13
    14     14     15     14
    15     15     16     15
    16     16     17     16
    17     17     18     17
    18     18     19     17
    19     19     20     19
    20     20     21      1
    21     21     22      1
    22     22     23      1
    23     23     24      2
    24     24     25      2
    25     25     26      4
    26     26     27      4
    27     27     28      4
    28     28     29      5
    29     29     30      5
    30     30     31      5
    31     31     32      6
    32     32     33      6
    33     33     34      7
    34     34     35      7
    35     35     36      8
    36     36     37      8
    37     37     38      9
    38     38     39      9
    39     39     40     10
    40     40     41     10
    41     41     42     11
    42     42     43     11
    43     43     44     12
    44     44     45     12
    45     45     46     13
    46     46     47     13
    47     47     48     14
    48     48     49     14
    49     49     50     15
    50     50     51     15
    51     51     52     16
    52     52     53     16
    53     53     54     17
    54     54     55     18
    55     55     56     18
    56     56     57     18
    57     57     58     19

Angles 

     1      1      1      2      3
     2      2      2      3      4
     3      3      2      3      5
     4      4      2      3      6
     5      5      3      6      7
     6      6      6      7      8
     7      7      7      8      9
     8      8      8      9     10
     9      9      9     10     11
    10     10     10     11     12
    11     11     11     12     13
    12     12     12     13     14
    13     13     13     14     15
    14     14     14     15     16
    15     15     15     16     17
    16     16     16     17     18
    17     17     16     17     19
    18     18     17     19     20
    19     19      2      1     21
    20     20      2      1     22
    21     21      2      1     23
    22     22      1      2     24
    23     23      1      2     25
    24     24      3      4     26
    25     25      3      4     27
    26     26      3      4     28
    27     27      3      5     29
    28     28      3      5     30
    29     29      3      5     31
    30     30      3      6     32
    31     31      3      6     33
    32     32      6      7     34
    33     33      6      7     35
    34     34      7      8     36
    35     35      7      8     37
    36     36      8      9     38
    37     37      8      9     39
    38     38      9     10     40
    39     39      9     10     41
    40     40     10     11     42
    41     41     10     11     43
    42     42     11     12     44
    43     43     11     12     45
    44     44     12     13     46
    45     45     12     13     47
    46     46     13     14     48
    47     47     13     14     49
    48     48     14     15     50
    49     49     14     15     51
    50     50     15     16     52
    51     51     15     16     53
    52     52     16     17     54
    53     53     17     18     55
    54     54     17     18     56
    55     55     17     18     57
    56     56     17     19     58
    57     57     16     15     50
    58     58     12     11     42
    59     59     50     15     51
    60     60     44     12     45
    61     61     10      9     39
    62     62     18     17     54
    63     63     27      4     28
    64     64     26      4     27
    65     65     55     18     57
    66     66     32      6     33
    67     67      7      6     32
    68     68     56     18     57
    69     69     21      1     23
    70     70      3      2     25
    71     71     48     14     49
    72     72     12     11     43
    73     73      4      3      5
    74     74      9      8     37
    75     75     40     10     41
    76     76      9      8     36
    77     77     13     12     45
    78     78      5      3      6
    79     79     15     14     49
    80     80     11     10     40
    81     81     29      5     30
    82     82     52     16     53
    83     83     14     13     47
    84     84     36      8     37
    85     85     17     16     52
    86     86      8      7     35
    87     87     26      4     28
    88     88     24      2     25
    89     89     11     10     41
    90     90     20     19     58
    91     91     14     13     46
    92     92     17     16     53
    93     93      8      7     34
    94     94     29      5     31
    95     95     34      7     35
    96     96     55     18     56
    97     97     10      9     38
    98     98     42     11     43
    99     99     22      1     23
   100    100     16     15     51
   101    101     46     13     47
   102    102     19     17     54
   103    103     18     17     19
   104    104     15     14     48
   105    105      4      3      6
   106    106     13     12     44
   107    107     21      1     22
   108    108      3      2     24
   109    109      7      6     33
   110    110     30      5     31
   111    111     38      9     39

Dihedrals

     1      1      4      3      2      1 
     2      2      7      6      3      2 
     3      3      8      7      6      3 
     4      4      9      8      7      6 
     5      5     10      9      8      7 
     6      6     11     10      9      8 
     7      7     12     11     10      9 
     8      8     13     12     11     10 
     9      9     14     13     12     11 
    10     10     15     14     13     12 
    11     11     16     15     14     13 
    12     12     17     16     15     14 
    13     13     18     17     16     15 
    14     14     20     19     17     16 
    15     15     21      1      2      3 
    16     16     26      4      3      2 
    17     17     29      5      3      2 
    18     18     55     18     17     16 
    19     19     26      4      3      6 
    20     20     27      4      3      5 
    21     21     45     12     11     10 
    22     22     36      8      7     34 
    23     23     28      4      3      2 
    24     24     42     11     12     13 
    25     25     35      7      8      9 
    26     26     54     17     16     53 
    27     27     51     15     14     48 
    28     28     30      5      3      6 
    29     29     54     17     16     15 
    30     30      7      6      3      5 
    31     31     41     10     11     12 
    32     32     48     14     13     46 
    33     33     38      9      8      7 
    34     34     52     16     15     50 
    35     35     23      1      2      3 
    36     36     31      5      3      2 
    37     37     29      5      3      4 
    38     38     24      2      3      6 
    39     39     38      9     10     11 
    40     40     30      5      3      4 
    41     41     41     10      9      8 
    42     42     52     16     17     19 
    43     43     55     18     17     54 
    44     44     28      4      3      6 
    45     45     32      6      7      8 
    46     46     46     13     12     44 
    47     47     40     10      9     38 
    48     48     53     16     17     19 
    49     49     37      8      7     35 
    50     50     40     10      9      8 
    51     51     55     18     17     19 
    52     52     25      2      3      5 
    53     53     33      6      7      8 
    54     54     51     15     14     49 
    55     55     49     14     15     16 
    56     56     36      8      9     10 
    57     57     33      6      3      5 
    58     58     37      8      7      6 
    59     59     34      7      8      9 
    60     60     58     19     17     54 
    61     61     35      7      6      3 
    62     62     24      2      1     22 
    63     63     30      5      3      2 
    64     64     25      2      1     21 
    65     65     42     11     10     40 
    66     66     33      6      3      2 
    67     67     47     13     14     15 
    68     68     52     16     15     14 
    69     69     43     11     10      9 
    70     70     26      4      3      5 
    71     71     45     12     11     43 
    72     72     39      9      8      7 
    73     73     53     16     15     51 
    74     74     36      8      7     35 
    75     75     37      8      7     34 
    76     76     47     13     12     45 
    77     77     50     15     14     48 
    78     78     44     12     11     42 
    79     79     49     14     13     47 
    80     80     43     11     12     13 
    81     81     49     14     13     12 
    82     82     56     18     17     19 
    83     83     51     15     14     13 
    84     84     54     17     16     52 
    85     85     43     11     10     41 
    86     86     38      9      8     37 
    87     87     57     18     17     19 
    88     88     24      2      3      4 
    89     89     51     15     16     17 
    90     90     46     13     12     45 
    91     91     47     13     12     44 
    92     92     32      6      3      4 
    93     93     54     17     19     20 
    94     94     43     11     10     40 
    95     95     42     11     10     41 
    96     96     31      5      3      6 
    97     97     24      2      1     21 
    98     98     49     14     13     46 
    99     99     48     14     13     47 
   100    100     57     18     17     16 
   101    101     27      4      3      2 
   102    102     34      7      6      3 
   103    103     50     15     16     17 
   104    104     56     18     17     54 
   105    105     25      2      3      6 
   106    106     46     13     14     15 
   107    107     25      2      1     23 
   108    108     53     16     15     50 
   109    109      7      6      3      4 
   110    110     22      1      2      3 
   111    111     39      9     10     11 
   112    112     29      5      3      6 
   113    113     58     19     17     16 
   114    114     44     12     11     43 
   115    115     36      8      7      6 
   116    116     20     19     17     18 
   117    117     53     16     15     14 
   118    118     40     10     11     12 
   119    119     24      2      1     23 
   120    120     25      2      1     22 
   121    121     24      2      3      5 
   122    122      5      3      2      1 
   123    123     45     12     13     14 
   124    124     47     13     12     11 
   125    125     52     16     17     18 
   126    126     44     12     13     14 
   127    127     35      7      6     32 
   128    128     34      7      6     33 
   129    129     46     13     12     11 
   130    130     41     10      9     39 
   131    131     50     15     14     49 
   132    132     34      7      6     32 
   133    133     39      9      8     36 
   134    134     45     12     11     42 
   135    135     32      6      3      5 
   136    136     41     10      9     38 
   137    137     39      9      8     37 
   138    138     33      6      3      4 
   139    139     48     14     15     16 
   140    140     40     10      9     39 
   141    141     31      5      3      4 
   142    142     28      4      3      5 
   143    143     27      4      3      6 
   144    144     32      6      3      2 
   145    145     42     11     10      9 
   146    146     25      2      3      4 
   147    147     52     16     15     51 
   148    148     58     19     17     18 
   149    149     48     14     13     12 
   150    150      6      3      2      1 
   151    151     19     17     16     15 
   152    152     50     15     14     13 
   153    153     53     16     17     18 
   154    154     38      9      8     36 
   155    155     37      8      9     10 
   156    156     35      7      6     33 
   157    157     57     18     17     54 
   158    158     44     12     11     10 
   159    159     56     18     17     16 

Impropers

     1      1      3      2      4      5 
     2      2      3      2      4      6 
     3      3     17     18     19     16 
     4      4      1      2     21     22 
     5      5      1      2     21     23 
     6      6      2      1      3     24 
     7      7      2     25      3      1 
     8      8      4     26     27      3 
     9      9      4     26      3     28 
    10     10      5     29      3     30 
    11     11      5     29      3     31 
    12     12      6      3      7     32 
    13     13      6     33      3      7 
    14     14      7     34      6      8 
    15     15      7     35      6      8 
    16     16      8      9     36      7 
    17     17      8      9     37      7 
    18     18      9     10     38      8 
    19     19      9     10     39      8 
    20     20     10      9     11     40 
    21     21     10     41     11      9 
    22     22     11     42     12     10 
    23     23     11     10     43     12 
    24     24     12     11     44     13 
    25     25     12     13     11     45 
    26     26     13     12     46     14 
    27     27     13     12     14     47 
    28     28     14     13     15     48 
    29     29     14     49     13     15 
    30     30     15     50     14     16 
    31     31     15     51     14     16 
    32     32     16     17     52     15 
    33     33     16     17     53     15 
    34     34     17     18     54     16 
    35     35     18     17     55     56 
    36     36     18     57     55     17 
    37     37     19     17     58     20 

