LAMMPS data file Created by LigParGen - (Written by Leela S. Dodda)

      46 atoms
      47 bonds
      92 angles
     139 dihedrals
      29 impropers
 
      46 atom types
      47 bond types
      92 angle types
     139 dihedral types
      29 improper types
 
   -3.279410    46.720590 xlo xhi
   -4.448520    45.551480 ylo yhi
   -1.028840    48.971160 zlo zhi

Masses

       1     12.011  
       2     12.011  
       3     12.011  
       4     12.011  
       5     12.011  
       6     12.011  
       7     15.999  
       8     15.999  
       9     12.011  
      10     12.011  
      11     12.011  
      12     12.011  
      13     12.011  
      14     12.011  
      15     15.999  
      16     12.011  
      17     15.999  
      18     12.011  
      19     12.011  
      20     12.011  
      21      1.008  
      22      1.008  
      23      1.008  
      24      1.008  
      25      1.008  
      26      1.008  
      27      1.008  
      28      1.008  
      29      1.008  
      30      1.008  
      31      1.008  
      32      1.008  
      33      1.008  
      34      1.008  
      35      1.008  
      36      1.008  
      37      1.008  
      38      1.008  
      39      1.008  
      40      1.008  
      41      1.008  
      42      1.008  
      43      1.008  
      44      1.008  
      45      1.008  
      46      1.008  

Pair Coeffs 

       1      0.066  3.5000000 
       2      0.066  3.5000000 
       3      0.066  3.5000000 
       4      0.066  3.5000000 
       5      0.066  3.5000000 
       6      0.070  3.5500000 
       7      0.210  2.9600000 
       8      0.140  2.9000000 
       9      0.066  3.5000000 
      10      0.066  3.5000000 
      11      0.066  3.5000000 
      12      0.066  3.5000000 
      13      0.066  3.5000000 
      14      0.066  3.5000000 
      15      0.140  2.9000000 
      16      0.070  3.5500000 
      17      0.210  2.9600000 
      18      0.066  3.5000000 
      19      0.066  3.5000000 
      20      0.066  3.5000000 
      21      0.030  2.5000000 
      22      0.030  2.5000000 
      23      0.030  2.5000000 
      24      0.030  2.5000000 
      25      0.030  2.5000000 
      26      0.030  2.5000000 
      27      0.030  2.5000000 
      28      0.030  2.5000000 
      29      0.030  2.5000000 
      30      0.030  2.5000000 
      31      0.030  2.5000000 
      32      0.030  2.5000000 
      33      0.030  2.5000000 
      34      0.030  2.5000000 
      35      0.030  2.5000000 
      36      0.030  2.5000000 
      37      0.030  2.5000000 
      38      0.030  2.5000000 
      39      0.030  2.5000000 
      40      0.030  2.5000000 
      41      0.030  2.5000000 
      42      0.030  2.5000000 
      43      0.030  2.5000000 
      44      0.030  2.5000000 
      45      0.030  2.5000000 
      46      0.030  2.5000000 

Bond Coeffs 

       1   268.0000     1.5290 
       2   268.0000     1.5290 
       3   268.0000     1.5290 
       4   268.0000     1.5290 
       5   317.0000     1.5220 
       6   570.0000     1.2290 
       7   214.0000     1.3270 
       8   320.0000     1.4100 
       9   268.0000     1.5290 
      10   268.0000     1.5290 
      11   268.0000     1.5290 
      12   268.0000     1.5290 
      13   268.0000     1.5290 
      14   320.0000     1.4100 
      15   214.0000     1.3270 
      16   570.0000     1.2290 
      17   317.0000     1.5220 
      18   268.0000     1.5290 
      19   268.0000     1.5290 
      20   340.0000     1.0900 
      21   340.0000     1.0900 
      22   340.0000     1.0900 
      23   340.0000     1.0900 
      24   340.0000     1.0900 
      25   340.0000     1.0900 
      26   340.0000     1.0900 
      27   340.0000     1.0900 
      28   340.0000     1.0900 
      29   340.0000     1.0900 
      30   340.0000     1.0900 
      31   340.0000     1.0900 
      32   340.0000     1.0900 
      33   340.0000     1.0900 
      34   340.0000     1.0900 
      35   340.0000     1.0900 
      36   340.0000     1.0900 
      37   340.0000     1.0900 
      38   340.0000     1.0900 
      39   340.0000     1.0900 
      40   340.0000     1.0900 
      41   340.0000     1.0900 
      42   340.0000     1.0900 
      43   340.0000     1.0900 
      44   340.0000     1.0900 
      45   340.0000     1.0900 
      46   268.0000     1.5290 
      47   268.0000     1.5290 

Angle Coeffs 

       1     58.350    112.700
       2     58.350    112.700
       3     58.350    112.700
       4     63.000    111.100
       5     80.000    120.400
       6     81.000    111.400
       7     83.000    116.900
       8     50.000    109.500
       9     58.350    112.700
      10     58.350    112.700
      11     58.350    112.700
      12     50.000    109.500
      13     50.000    109.500
      14     83.000    116.900
      15     83.000    123.400
      16     81.000    111.400
      17     63.000    111.100
      18     58.350    112.700
      19     37.500    110.700
      20     37.500    110.700
      21     37.500    110.700
      22     37.500    110.700
      23     37.500    110.700
      24     37.500    110.700
      25     37.500    110.700
      26     37.500    110.700
      27     37.500    110.700
      28     37.500    110.700
      29     37.500    110.700
      30     35.000    109.500
      31     37.500    110.700
      32     37.500    110.700
      33     37.500    110.700
      34     37.500    110.700
      35     37.500    110.700
      36     37.500    110.700
      37     37.500    110.700
      38     37.500    110.700
      39     35.000    109.500
      40     37.500    110.700
      41     37.500    110.700
      42     37.500    110.700
      43     37.500    110.700
      44     37.500    110.700
      45     37.500    110.700
      46     37.500    110.700
      47     50.000    109.500
      48     33.000    107.800
      49     37.500    110.700
      50     33.000    107.800
      51     33.000    107.800
      52     33.000    107.800
      53     35.000    109.500
      54     33.000    107.800
      55     37.500    110.700
      56     37.500    110.700
      57     33.000    107.800
      58     33.000    107.800
      59     37.500    110.700
      60     37.500    110.700
      61     58.350    112.700
      62     37.500    110.700
      63     63.000    111.100
      64     37.500    110.700
      65     37.500    110.700
      66     58.350    112.700
      67     33.000    107.800
      68     33.000    107.800
      69     37.500    110.700
      70     37.500    110.700
      71     80.000    120.400
      72     37.500    110.700
      73     33.000    107.800
      74     33.000    107.800
      75     37.500    110.700
      76     58.350    112.700
      77     33.000    107.800
      78     58.350    112.700
      79     37.500    110.700
      80     37.500    110.700
      81     63.000    111.100
      82     33.000    107.800
      83     58.350    112.700
      84     58.350    112.700
      85     33.000    107.800
      86     33.000    107.800
      87     58.350    112.700
      88     83.000    123.400
      89     63.000    111.100
      90     37.500    110.700
      91     33.000    107.800
      92     33.000    107.800

Dihedral Coeffs  

       1      1.300     -0.200      0.200      0.000 
       2      0.000      0.000      0.000      0.000 
       3      4.669      5.124      0.000      0.000 
       4     -1.220     -0.126      0.422      0.000 
       5      1.711     -0.500      0.663      0.000 
       6      1.300     -0.200      0.200      0.000 
       7      1.300     -0.200      0.200      0.000 
       8     -1.220     -0.126      0.422      0.000 
       9      0.000      5.124      0.000      0.000 
      10      0.000      0.000     -0.553      0.000 
      11      0.000      0.000      0.300      0.000 
      12      0.000      0.000      0.300      0.000 
      13      0.000      0.000      0.300      0.000 
      14      0.000      0.000     -0.100      0.000 
      15      0.000      0.000     -0.100      0.000 
      16      0.000      0.000      0.300      0.000 
      17      0.000      0.000      0.300      0.000 
      18      0.000      0.000      0.300      0.000 
      19     -0.550      0.000      0.000      0.000 
      20      0.000      0.000     -0.100      0.000 
      21      0.000      0.000     -0.553      0.000 
      22      0.000      0.000      0.000      0.000 
      23      0.000      0.000      0.300      0.000 
      24      0.000      0.000      0.300      0.000 
      25      0.000      0.000      0.300      0.000 
      26      0.000      0.000      0.300      0.000 
      27      0.000      0.000      0.300      0.000 
      28      0.000      0.000      0.300      0.000 
      29      0.000      0.000      0.300      0.000 
      30      0.000      0.000      0.300      0.000 
      31      0.000      0.000      0.300      0.000 
      32      0.000      0.000      0.300      0.000 
      33      0.000      0.000      0.300      0.000 
      34     -1.220     -0.126      0.422      0.000 
      35      0.000      0.000     -0.100      0.000 
      36      1.300     -0.200      0.200      0.000 
      37      1.300     -0.200      0.200      0.000 
      38      0.000      0.000      0.300      0.000 
      39      0.000      0.000     -0.100      0.000 
      40      0.000      0.000      0.468      0.000 
      41      0.000      0.000      0.300      0.000 
      42      0.000      0.000      0.300      0.000 
      43      0.000      0.000      0.300      0.000 
      44      0.000      0.000     -0.100      0.000 
      45      1.711     -0.500      0.663      0.000 
      46      0.000      0.000     -0.100      0.000 
      47      0.000      0.000      0.300      0.000 
      48      0.000      0.000      0.300      0.000 
      49      0.000      0.000      0.468      0.000 
      50      0.000      0.000      0.300      0.000 
      51      0.000      5.124      0.000      0.000 
      52      0.000      0.000      0.300      0.000 
      53      0.000      0.000      0.300      0.000 
      54      0.000      0.000      0.300      0.000 
      55      0.000      0.000      0.300      0.000 
      56      0.000      0.000      0.300      0.000 
      57      0.000      0.000      0.300      0.000 
      58      0.000      0.000     -0.100      0.000 
      59      0.000      0.000      0.300      0.000 
      60      0.000      0.000      0.300      0.000 
      61      0.000      0.000      0.000      0.000 
      62      0.000      0.000      0.300      0.000 
      63      0.000      0.000      0.300      0.000 
      64      0.000      0.000      0.300      0.000 
      65      0.000      0.000      0.300      0.000 
      66      0.000      0.000      0.300      0.000 
      67      0.000      0.000      0.300      0.000 
      68      1.300     -0.200      0.200      0.000 
      69      0.000      0.000      0.300      0.000 
      70      0.000      0.000      0.468      0.000 
      71      1.711     -0.500      0.663      0.000 
      72      0.000      0.000      0.132      0.000 
      73      1.300     -0.200      0.200      0.000 
      74      0.000      0.000      0.198      0.000 
      75      0.000      0.000      0.300      0.000 
      76      0.000      0.000      0.300      0.000 
      77      0.000      0.000      0.300      0.000 
      78      1.300     -0.200      0.200      0.000 
      79      0.000      0.000      0.000      0.000 
      80      0.000      0.000      0.300      0.000 
      81      0.000      0.000      0.300      0.000 
      82      0.000      0.000      0.300      0.000 
      83      0.000      0.000      0.300      0.000 
      84      0.000      0.000      0.000      0.000 
      85      1.300     -0.200      0.200      0.000 
      86      0.000      0.000     -0.100      0.000 
      87      0.000      0.000      0.300      0.000 
      88      0.000      0.000      0.300      0.000 
      89      0.000      0.000      0.300      0.000 
      90      0.000      0.000      0.300      0.000 
      91      0.000      0.000      0.300      0.000 
      92      0.000      0.000     -0.100      0.000 
      93      0.000      0.000     -0.100      0.000 
      94      0.000      0.000     -0.100      0.000 
      95      0.000      0.000      0.300      0.000 
      96      0.000      0.000      0.300      0.000 
      97      0.000      0.000      0.300      0.000 
      98      0.000      0.000      0.300      0.000 
      99     -2.060     -0.313      0.315      0.000 
     100      1.711     -0.500      0.663      0.000 
     101      0.000      0.000      0.300      0.000 
     102      0.000      0.000      0.300      0.000 
     103      0.000      0.000      0.000      0.000 
     104      0.000      0.000      0.300      0.000 
     105      0.000      0.000      0.300      0.000 
     106      0.000      0.000     -0.100      0.000 
     107      4.669      5.124      0.000      0.000 
     108      1.300     -0.200      0.200      0.000 
     109      0.000      0.000      0.300      0.000 
     110      0.000      0.000      0.300      0.000 
     111      0.000      0.000      0.300      0.000 
     112      0.000      0.000      0.300      0.000 
     113      1.300     -0.200      0.200      0.000 
     114      0.000      0.000      0.300      0.000 
     115      0.000      0.000      0.300      0.000 
     116      0.000      0.000      0.468      0.000 
     117      0.000      0.000      0.300      0.000 
     118      1.300     -0.200      0.200      0.000 
     119      0.000      0.000      0.300      0.000 
     120      0.000      0.000      0.468      0.000 
     121      0.000      0.000      0.300      0.000 
     122      1.711     -0.500      0.663      0.000 
     123     -1.220     -0.126      0.422      0.000 
     124      0.000      0.000      0.300      0.000 
     125      0.000      0.000      0.300      0.000 
     126      0.000      0.000     -0.553      0.000 
     127      0.000      0.000      0.198      0.000 
     128      0.000      0.000      0.300      0.000 
     129      0.000      0.000      0.300      0.000 
     130      0.000      0.000      0.300      0.000 
     131     -2.060     -0.313      0.315      0.000 
     132      0.000      0.000     -0.553      0.000 
     133      0.000      0.000      0.300      0.000 
     134      1.300     -0.200      0.200      0.000 
     135      0.000      0.000      0.300      0.000 
     136      0.000      0.000     -0.553      0.000 
     137      0.000      0.000      0.300      0.000 
     138      0.000      0.000      0.300      0.000 
     139      0.000      0.000      0.300      0.000 

Improper Coeffs 

       1      0.000      -1       2 
       2      0.000      -1       2 
       3     10.500      -1       2 
       4      0.000      -1       2 
       5      0.000      -1       2 
       6     10.500      -1       2 
       7      0.000      -1       2 
       8      0.000      -1       2 
       9      0.000      -1       2 
      10      0.000      -1       2 
      11      0.000      -1       2 
      12      0.000      -1       2 
      13      0.000      -1       2 
      14      0.000      -1       2 
      15      0.000      -1       2 
      16      0.000      -1       2 
      17      0.000      -1       2 
      18      0.000      -1       2 
      19      0.000      -1       2 
      20      0.000      -1       2 
      21      0.000      -1       2 
      22      0.000      -1       2 
      23      0.000      -1       2 
      24      0.000      -1       2 
      25      0.000      -1       2 
      26      0.000      -1       2 
      27      0.000      -1       2 
      28      0.000      -1       2 
      29      0.000      -1       2 

Atoms 

     1      1      1 -0.24220000    1.000  1.00000  0.00000
     2      1      2 -0.16740000   -0.525  1.00000  0.00000
     3      1      3 -0.04390000   -1.174  1.00000  1.40881
     4      1      4 -0.22580000   -0.804  2.27278  2.18307
     5      1      5 -0.23770000   -2.706  0.93907  1.26992
     6      1      6 0.44640000   -0.779 -0.29142  2.11685
     7      1      7 -0.45750000   -0.917 -1.39603  1.60167
     8      1      8 -0.35010000   -0.316 -0.09598  3.38470
     9      1      9 0.01430000    0.001 -1.31221  4.07562
    10      1     10 -0.12500000   -1.243 -1.91951  4.75045
    11      1     11 -0.17300000   -0.859 -3.35267  5.16447
    12      1     12 -0.17890000    0.406 -3.40813  6.03755
    13      1     13 -0.17680000    1.567 -2.53099  5.53677
    14      1     14 0.10840000    1.116 -1.12175  5.11630
    15      1     15 -0.39740000    0.717 -0.42436  6.31087
    16      1     16 0.47840000   -0.050  0.67236  6.09433
    17      1     17 -0.39410000    0.414  1.80383  6.05965
    18      1     18 -0.14890000   -1.537  0.35225  6.02928
    19      1     19 -0.23480000   -2.203  0.95811  7.26745
    20      1     20 -0.16110000   -1.831 -1.14089  5.96083
    21      1     21 0.08650000    1.371  0.95267 -1.02884
    22      1     22 0.08650000    1.405  0.13610  0.53691
    23      1     23 0.08650000    1.404  1.91072  0.45201
    24      1     24 0.10480000   -0.859  0.11608 -0.56014
    25      1     25 0.10480000   -0.875  1.87352 -0.56378
    26      1     26 0.09680000   -1.120  3.16712  1.63364
    27      1     27 0.09680000    0.273  2.34737  2.36188
    28      1     28 0.09680000   -1.295  2.30119  3.16256
    29      1     29 0.09660000   -3.094  1.81125  0.73358
    30      1     30 0.09660000   -3.187  0.90163  2.25522
    31      1     31 0.09660000   -3.022  0.04108  0.72532
    32      1     32 0.14350000    0.401 -2.01724  3.33692
    33      1     33 0.11550000   -2.044 -1.97786  4.00177
    34      1     34 0.09810000   -0.681 -3.94034  4.25355
    35      1     35 0.09810000   -1.693 -3.83598  5.68571
    36      1     36 0.09810000    0.747 -4.44852  6.10075
    37      1     37 0.09810000    0.152 -3.10409  7.05853
    38      1     38 0.11070000    2.036 -3.02579  4.67597
    39      1     39 0.11070000    2.325 -2.46737  6.32603
    40      1     40 0.12150000    1.962 -0.57272  4.68594
    41      1     41 0.13720000   -1.944  0.83882  5.13608
    42      1     42 0.09510000   -1.772  0.55143  8.18978
    43      1     43 0.09510000   -3.279  0.75806  7.27655
    44      1     44 0.09510000   -2.062  2.04451  7.29460
    45      1     45 0.10060000   -2.921 -1.28266  5.94351
    46      1     46 0.10060000   -1.507 -1.60257  6.90195

Bonds 

     1      1      2      1
     2      2      3      2
     3      3      4      3
     4      4      5      3
     5      5      6      3
     6      6      7      6
     7      7      8      6
     8      8      9      8
     9      9     10      9
    10     10     11     10
    11     11     12     11
    12     12     13     12
    13     13     14      9
    14     14     15     14
    15     15     16     15
    16     16     17     16
    17     17     18     16
    18     18     19     18
    19     19     20     10
    20     20     21      1
    21     21     22      1
    22     22     23      1
    23     23     24      2
    24     24     25      2
    25     25     26      4
    26     26     27      4
    27     27     28      4
    28     28     29      5
    29     29     30      5
    30     30     31      5
    31     31     32      9
    32     32     33     10
    33     33     34     11
    34     34     35     11
    35     35     36     12
    36     36     37     12
    37     37     38     13
    38     38     39     13
    39     39     40     14
    40     40     41     18
    41     41     42     19
    42     42     43     19
    43     43     44     19
    44     44     45     20
    45     45     46     20
    46     46     14     13
    47     47     20     18

Angles 

     1      1      1      2      3
     2      2      2      3      4
     3      3      2      3      5
     4      4      2      3      6
     5      5      3      6      7
     6      6      3      6      8
     7      7      6      8      9
     8      8      8      9     10
     9      9      9     10     11
    10     10     10     11     12
    11     11     11     12     13
    12     12      8      9     14
    13     13      9     14     15
    14     14     14     15     16
    15     15     15     16     17
    16     16     15     16     18
    17     17     16     18     19
    18     18      9     10     20
    19     19      2      1     21
    20     20      2      1     22
    21     21      2      1     23
    22     22      1      2     24
    23     23      1      2     25
    24     24      3      4     26
    25     25      3      4     27
    26     26      3      4     28
    27     27      3      5     29
    28     28      3      5     30
    29     29      3      5     31
    30     30      8      9     32
    31     31      9     10     33
    32     32     10     11     34
    33     33     10     11     35
    34     34     11     12     36
    35     35     11     12     37
    36     36     12     13     38
    37     37     12     13     39
    38     38      9     14     40
    39     39     16     18     41
    40     40     18     19     42
    41     41     18     19     43
    42     42     18     19     44
    43     43     10     20     45
    44     44     10     20     46
    45     45     11     10     33
    46     46     13     12     37
    47     47     13     14     15
    48     48     45     20     46
    49     49     13     12     36
    50     50     27      4     28
    51     51     36     12     37
    52     52     26      4     27
    53     53     15     14     40
    54     54     38     13     39
    55     55     20     18     41
    56     56     18     20     46
    57     57     21      1     23
    58     58     42     19     44
    59     59      3      2     25
    60     60     14     13     39
    61     61      4      3      5
    62     62     20     10     33
    63     63      5      3      6
    64     64     18     20     45
    65     65     10      9     32
    66     66     10      9     14
    67     67     43     19     44
    68     68     29      5     30
    69     69     12     11     35
    70     70     14      9     32
    71     71     17     16     18
    72     72     13     14     40
    73     73     26      4     28
    74     74     34     11     35
    75     75     14     13     38
    76     76      9     14     13
    77     77     21      1     22
    78     78     19     18     20
    79     79     12     11     34
    80     80     19     18     41
    81     81     16     18     20
    82     82     29      5     31
    83     83     11     10     20
    84     84     10     20     18
    85     85     22      1     23
    86     86     24      2     25
    87     87     12     13     14
    88     88      7      6      8
    89     89      4      3      6
    90     90      3      2     24
    91     91     42     19     43
    92     92     30      5     31

Dihedrals

     1      1      4      3      2      1 
     2      2      7      6      3      2 
     3      3      9      8      6      3 
     4      4     10      9      8      6 
     5      5     11     10      9      8 
     6      6     12     11     10      9 
     7      7     13     12     11     10 
     8      8     16     15     14      9 
     9      9     17     16     15     14 
    10     10     19     18     16     15 
    11     11     21      1      2      3 
    12     12     26      4      3      2 
    13     13     29      5      3      2 
    14     14     42     19     18     16 
    15     15     26      4      3      6 
    16     16     27      4      3      5 
    17     17     35     11     10     33 
    18     18     28      4      3      2 
    19     19     15     14      9      8 
    20     20     30      5      3      6 
    21     21      8      6      3      4 
    22     22      7      6      3      5 
    23     23     40     14     13     38 
    24     24     44     19     18     20 
    25     25     32      9     10     11 
    26     26     46     20     18     19 
    27     27     45     20     10      9 
    28     28     36     12     11     35 
    29     29     46     20     18     41 
    30     30     23      1      2      3 
    31     31     31      5      3      2 
    32     32     29      5      3      4 
    33     33     42     19     18     20 
    34     34     14      9      8      6 
    35     35     24      2      3      6 
    36     36     20     10     11     12 
    37     37     20     10      9     14 
    38     38     38     13     12     36 
    39     39     28      4      3      6 
    40     40     39     13     14     15 
    41     41     40     14      9     32 
    42     42     46     20     10     11 
    43     43     35     11     10     20 
    44     44     27      4      3      6 
    45     45     15     14      9     10 
    46     46     45     20     18     16 
    47     47     34     11     10     20 
    48     48     25      2      3      5 
    49     49     32      9     14     15 
    50     50     25      2      1     23 
    51     51      9      8      6      7 
    52     52     37     12     11     10 
    53     53     34     11     12     13 
    54     54     37     12     11     35 
    55     55     46     20     10     33 
    56     56     39     13     12     37 
    57     57     39     13     12     36 
    58     58     44     19     18     16 
    59     59     39     13     14      9 
    60     60     40     14      9     10 
    61     61     41     18     16     17 
    62     62     24      2      1     22 
    63     63     30      5      3      2 
    64     64     25      2      1     21 
    65     65     33     10      9     14 
    66     66     38     13     12     37 
    67     67     26      4      3      5 
    68     68     18     20     10      9 
    69     69     45     20     10     11 
    70     70     38     13     14     15 
    71     71     13     14      9      8 
    72     72     41     18     16     15 
    73     73     14     13     12     11 
    74     74     40     14     15     16 
    75     75     43     19     18     41 
    76     76     32      9     14     13 
    77     77     45     20     18     19 
    78     78     14      9     10     11 
    79     79     20     18     16     17 
    80     80     45     20     18     41 
    81     81     24      2      3      4 
    82     82     38     13     12     11 
    83     83     41     18     20     10 
    84     84     19     18     16     17 
    85     85     19     18     20     10 
    86     86     31      5      3      6 
    87     87     24      2      1     21 
    88     88     33     10     20     18 
    89     89     34     11     10      9 
    90     90     27      4      3      2 
    91     91     35     11     10      9 
    92     92     46     20     18     16 
    93     93     43     19     18     16 
    94     94     25      2      3      6 
    95     95     46     20     10      9 
    96     96     37     12     11     34 
    97     97     33     10      9     32 
    98     98     44     19     18     41 
    99     99     16     18     20     10 
   100    100     15     14     13     12 
   101    101     43     19     18     20 
   102    102     32      9     10     20 
   103    103      7      6      3      4 
   104    104     38     13     14      9 
   105    105     22      1      2      3 
   106    106     29      5      3      6 
   107    107     18     16     15     14 
   108    108     18     20     10     11 
   109    109     24      2      1     23 
   110    110     25      2      1     22 
   111    111     33     10     11     12 
   112    112     24      2      3      5 
   113    113      5      3      2      1 
   114    114     45     20     10     33 
   115    115     40     14     13     12 
   116    116     33     10      9      8 
   117    117     37     12     13     14 
   118    118     12     13     14      9 
   119    119     34     11     10     33 
   120    120     40     14      9      8 
   121    121     36     12     11     34 
   122    122     20     10      9      8 
   123    123     16     15     14     13 
   124    124     31      5      3      4 
   125    125     28      4      3      5 
   126    126      8      6      3      2 
   127    127     32      9      8      6 
   128    128     25      2      3      4 
   129    129     35     11     12     13 
   130    130     30      5      3      4 
   131    131      6      3      2      1 
   132    132      8      6      3      5 
   133    133     36     12     11     10 
   134    134     13     14      9     10 
   135    135     40     14     13     39 
   136    136     20     18     16     15 
   137    137     39     13     12     11 
   138    138     36     12     13     14 
   139    139     42     19     18     41 

Impropers

     1      1      3      2      4      5 
     2      2      3      2      4      6 
     3      3      6      3      7      8 
     4      4      9     10     14      8 
     5      5     14      9     13     15 
     6      6     16     17     18     15 
     7      7     10      9     11     20 
     8      8      1      2     21     22 
     9      9      1      2     21     23 
    10     10      2      1      3     24 
    11     11      2     25      3      1 
    12     12      4     26     27      3 
    13     13      4     26      3     28 
    14     14      5     29      3     30 
    15     15      5     29      3     31 
    16     16      9     10      8     32 
    17     17     10     33     11      9 
    18     18     11     34     12     10 
    19     19     11     10     35     12 
    20     20     12     11     36     13 
    21     21     12     13     11     37 
    22     22     13     12     38     14 
    23     23     13     12     14     39 
    24     24     14      9     13     40 
    25     25     18     41     19     16 
    26     26     19     18     43     42 
    27     27     19     18     44     42 
    28     28     20     10     45     18 
    29     29     20     10     46     18 

