LAMMPS data file Created by LigParGen - (Written by Leela S. Dodda)

      40 atoms
      41 bonds
      84 angles
     124 dihedrals
      32 impropers
 
      40 atom types
      41 bond types
      84 angle types
     124 dihedral types
      32 improper types
 
   -5.667980    44.332020 xlo xhi
    0.014650    50.014650 ylo yhi
   -4.312990    45.687010 zlo zhi

Masses

       1     12.011  
       2     12.011  
       3     12.011  
       4     12.011  
       5     12.011  
       6     12.011  
       7     12.011  
       8     12.011  
       9     12.011  
      10     12.011  
      11     12.011  
      12     12.011  
      13     12.011  
      14     12.011  
      15      1.008  
      16      1.008  
      17      1.008  
      18      1.008  
      19      1.008  
      20      1.008  
      21      1.008  
      22      1.008  
      23      1.008  
      24      1.008  
      25      1.008  
      26      1.008  
      27      1.008  
      28      1.008  
      29      1.008  
      30      1.008  
      31      1.008  
      32      1.008  
      33      1.008  
      34      1.008  
      35      1.008  
      36      1.008  
      37      1.008  
      38      1.008  
      39      1.008  
      40      1.008  

Pair Coeffs 

       1      0.066  3.5000000 
       2      0.083  3.4500000 
       3      0.083  3.4500000 
       4      0.083  3.4500000 
       5      0.083  3.4500000 
       6      0.066  3.5000000 
       7      0.083  3.4500000 
       8      0.066  3.5000000 
       9      0.066  3.5000000 
      10      0.066  3.5000000 
      11      0.083  3.4500000 
      12      0.083  3.4500000 
      13      0.066  3.5000000 
      14      0.066  3.5000000 
      15      0.030  2.5000000 
      16      0.030  2.5000000 
      17      0.030  2.5000000 
      18      0.030  2.5000000 
      19      0.030  2.5000000 
      20      0.030  2.5000000 
      21      0.030  2.5000000 
      22      0.030  2.5000000 
      23      0.030  2.5000000 
      24      0.030  2.5000000 
      25      0.030  2.5000000 
      26      0.030  2.5000000 
      27      0.030  2.5000000 
      28      0.030  2.5000000 
      29      0.030  2.5000000 
      30      0.030  2.5000000 
      31      0.030  2.5000000 
      32      0.030  2.5000000 
      33      0.030  2.5000000 
      34      0.030  2.5000000 
      35      0.030  2.5000000 
      36      0.030  2.5000000 
      37      0.030  2.5000000 
      38      0.030  2.5000000 
      39      0.030  2.5000000 
      40      0.030  2.5000000 

Bond Coeffs 

       1   280.0000     1.5100 
       2   260.0000     1.5200 
       3   260.0000     1.5200 
       4   260.0000     1.5200 
       5   280.0000     1.5100 
       6   260.0000     1.5200 
       7   280.0000     1.5100 
       8   268.0000     1.5290 
       9   268.0000     1.5290 
      10   260.0000     1.5200 
      11   260.0000     1.5200 
      12   280.0000     1.5100 
      13   280.0000     1.5100 
      14   340.0000     1.0900 
      15   340.0000     1.0900 
      16   340.0000     1.0900 
      17   340.0000     1.0880 
      18   340.0000     1.0880 
      19   340.0000     1.0880 
      20   340.0000     1.0880 
      21   340.0000     1.0880 
      22   340.0000     1.0900 
      23   340.0000     1.0900 
      24   340.0000     1.0900 
      25   340.0000     1.0900 
      26   340.0000     1.0900 
      27   340.0000     1.0900 
      28   340.0000     1.0900 
      29   340.0000     1.0900 
      30   340.0000     1.0900 
      31   340.0000     1.0900 
      32   340.0000     1.0880 
      33   340.0000     1.0880 
      34   340.0000     1.0900 
      35   340.0000     1.0900 
      36   340.0000     1.0900 
      37   340.0000     1.0900 
      38   340.0000     1.0900 
      39   340.0000     1.0900 
      40   260.0000     1.5200 
      41   260.0000     1.5200 

Angle Coeffs 

       1     37.500    117.200
       2     30.000     83.000
       3     37.500    117.200
       4     37.500    117.200
       5     30.000     83.000
       6     37.500    117.200
       7     58.350    112.700
       8     58.350    112.700
       9     30.000     83.000
      10     30.000     83.000
      11     37.500    117.200
      12     37.500    117.200
      13     37.500    110.700
      14     37.500    110.700
      15     37.500    110.700
      16     35.000    114.300
      17     37.500    117.200
      18     37.500    117.200
      19     37.500    117.200
      20     37.500    117.200
      21     37.500    110.700
      22     37.500    110.700
      23     37.500    110.700
      24     37.500    110.700
      25     37.500    110.700
      26     37.500    110.700
      27     37.500    110.700
      28     37.500    110.700
      29     37.500    110.700
      30     37.500    110.700
      31     37.500    117.200
      32     37.500    117.200
      33     37.500    110.700
      34     37.500    110.700
      35     37.500    110.700
      36     37.500    110.700
      37     37.500    110.700
      38     37.500    110.700
      39     37.500    117.200
      40     33.000    107.800
      41     37.500    117.200
      42     30.000     83.000
      43     33.000    107.800
      44     58.350    112.700
      45     37.500    117.200
      46     37.500    117.200
      47     33.000    107.800
      48     33.000    107.800
      49     37.500    117.200
      50     37.500    117.200
      51     37.500    117.200
      52     30.000     83.000
      53     35.000    114.300
      54     30.000     83.000
      55     35.000    114.300
      56     33.000    107.800
      57     33.000    107.800
      58     33.000    107.800
      59     33.000    107.800
      60     35.000    114.300
      61     37.500    110.700
      62     37.500    117.200
      63     33.000    107.800
      64     37.500    117.200
      65     33.000    107.800
      66     30.000     83.000
      67     30.000     83.000
      68     37.500    117.200
      69     33.000    107.800
      70     33.000    107.800
      71     33.000    107.800
      72     33.000    107.800
      73     33.000    107.800
      74     33.000    107.800
      75     35.000    114.300
      76     37.500    110.700
      77     33.000    107.800
      78     37.500    117.200
      79     33.000    107.800
      80     37.500    117.200
      81     37.500    117.200
      82     30.000     83.000
      83     37.500    117.200
      84     30.000     83.000

Dihedral Coeffs  

       1      0.000      0.000      0.000      0.000 
       2      0.000      0.000      0.000      0.000 
       3      0.000      0.000      0.000      0.000 
       4      0.000      0.000      0.000      0.000 
       5      0.000      0.000      0.000      0.000 
       6      0.000      0.000      0.300      0.000 
       7      0.000      0.000      0.300      0.000 
       8      0.000      0.000      0.300      0.000 
       9      0.000      0.000      0.300      0.000 
      10      0.000      0.000      0.000      0.000 
      11      0.000      0.000      0.000      0.000 
      12      0.000      0.000      0.300      0.000 
      13      0.000      0.000      0.300      0.000 
      14      0.000      0.000      0.300      0.000 
      15      0.000      0.000      0.000      0.000 
      16      0.000      0.000      0.300      0.000 
      17      0.000      0.000      0.000      0.000 
      18      0.000      0.000      0.300      0.000 
      19      0.000      0.000      0.000      0.000 
      20      0.000      0.000      0.000      0.000 
      21      0.000      0.000      0.300      0.000 
      22      0.000      0.000      0.000      0.000 
      23      0.000      0.000      0.300      0.000 
      24      0.000      0.000      0.300      0.000 
      25      0.000      0.000      0.000      0.000 
      26      0.000      0.000      0.000      0.000 
      27      0.000      0.000      0.000      0.000 
      28      0.000      0.000      0.000      0.000 
      29      0.000      0.000      0.300      0.000 
      30      0.000      0.000      0.000      0.000 
      31      0.000      0.000      0.000      0.000 
      32      0.000      0.000      0.300      0.000 
      33      0.000      0.000      0.300      0.000 
      34      0.000      0.000      0.300      0.000 
      35      0.000      0.000      0.300      0.000 
      36      0.000      0.000      0.300      0.000 
      37      0.000      0.000      0.300      0.000 
      38      0.000      0.000      0.300      0.000 
      39      0.000      0.000      0.300      0.000 
      40      0.000      0.000      0.000      0.000 
      41      0.000      0.000      0.300      0.000 
      42      0.000      0.000      0.000      0.000 
      43      0.000      0.000      0.300      0.000 
      44      0.000      0.000      0.000      0.000 
      45      0.000      0.000      0.300      0.000 
      46      0.000      0.000      0.000      0.000 
      47      0.000      0.000      0.000      0.000 
      48      0.000      0.000      0.000      0.000 
      49      0.000      0.000      0.000      0.000 
      50      0.000      0.000      0.000      0.000 
      51      0.000      0.000      0.000      0.000 
      52      0.000      0.000      0.000      0.000 
      53      0.000      0.000      0.000      0.000 
      54      0.000      0.000      0.000      0.000 
      55      0.000      0.000      0.000      0.000 
      56      0.000      0.000      0.300      0.000 
      57      0.000      0.000      0.300      0.000 
      58      0.000      0.000      0.300      0.000 
      59      0.000      0.000      0.300      0.000 
      60      0.000      0.000      0.300      0.000 
      61      0.000      0.000      0.300      0.000 
      62      0.000      0.000      0.000      0.000 
      63      0.000      0.000      0.000      0.000 
      64      0.000      0.000      0.300      0.000 
      65      0.000      0.000      0.000      0.000 
      66      0.000      0.000      0.000      0.000 
      67      0.000      0.000      0.000      0.000 
      68      0.000      0.000      0.000      0.000 
      69      0.000      0.000      0.300      0.000 
      70      0.000      0.000      0.000      0.000 
      71      0.000      0.000      0.000      0.000 
      72      0.000      0.000      0.000      0.000 
      73      0.000      0.000      0.300      0.000 
      74      0.000      0.000      0.300      0.000 
      75      0.000      0.000      0.300      0.000 
      76      0.000      0.000      0.000      0.000 
      77      0.000      0.000      0.300      0.000 
      78      0.000      0.000      0.300      0.000 
      79      0.000      0.000      0.300      0.000 
      80      0.000      0.000      0.000      0.000 
      81      0.000      0.000      0.000      0.000 
      82      0.000      0.000      0.300      0.000 
      83      0.000      0.000      0.300      0.000 
      84      0.000      0.000      0.300      0.000 
      85      0.000      0.000      0.000      0.000 
      86      0.000      0.000      0.300      0.000 
      87      0.000      0.000      0.000      0.000 
      88      0.000      0.000      0.000      0.000 
      89      0.000      0.000      0.300      0.000 
      90      0.000      0.000      0.300      0.000 
      91      0.000      0.000      0.300      0.000 
      92      0.000      0.000      0.000      0.000 
      93      0.000      0.000      0.000      0.000 
      94      0.000      0.000      0.300      0.000 
      95      0.000      0.000      0.300      0.000 
      96      0.000      0.000      0.000      0.000 
      97      0.000      0.000      0.000      0.000 
      98      0.000      0.000      0.000      0.000 
      99      0.000      0.000      0.300      0.000 
     100      0.000      0.000      0.300      0.000 
     101      0.000      0.000      0.000      0.000 
     102      0.000      0.000      0.300      0.000 
     103      0.000      0.000      0.000      0.000 
     104      0.000      0.000      0.000      0.000 
     105      0.000      0.000      0.000      0.000 
     106      0.000      0.000      0.000      0.000 
     107      0.000      0.000      0.000      0.000 
     108      0.000      0.000      0.000      0.000 
     109      0.000      0.000      0.000      0.000 
     110      0.000      0.000      0.000      0.000 
     111      0.000      0.000      0.000      0.000 
     112      0.000      0.000      0.000      0.000 
     113      0.000      0.000      0.000      0.000 
     114      0.000      0.000      0.300      0.000 
     115      0.000      0.000      0.300      0.000 
     116      0.000      0.000      0.300      0.000 
     117      0.000      0.000      0.300      0.000 
     118      0.000      0.000      0.300      0.000 
     119      0.000      0.000      0.000      0.000 
     120      0.000      0.000      0.000      0.000 
     121      0.000      0.000      0.000      0.000 
     122      0.000      0.000      0.000      0.000 
     123      0.000      0.000      0.300      0.000 
     124      0.000      0.000      0.300      0.000 

Improper Coeffs 

       1      0.000      -1       2 
       2      0.000      -1       2 
       3      0.000      -1       2 
       4      0.000      -1       2 
       5      0.000      -1       2 
       6      0.000      -1       2 
       7      0.000      -1       2 
       8      0.000      -1       2 
       9      0.000      -1       2 
      10      0.000      -1       2 
      11      0.000      -1       2 
      12      0.000      -1       2 
      13      0.000      -1       2 
      14      0.000      -1       2 
      15      0.000      -1       2 
      16      0.000      -1       2 
      17      0.000      -1       2 
      18      0.000      -1       2 
      19      0.000      -1       2 
      20      0.000      -1       2 
      21      0.000      -1       2 
      22      0.000      -1       2 
      23      0.000      -1       2 
      24      0.000      -1       2 
      25      0.000      -1       2 
      26      0.000      -1       2 
      27      0.000      -1       2 
      28      0.000      -1       2 
      29      0.000      -1       2 
      30      0.000      -1       2 
      31      0.000      -1       2 
      32      0.000      -1       2 

Atoms 

     1      1      1 -0.22770000    1.000  1.00000  0.00000
     2      1      2 -0.11650000   -0.522  1.00000  0.00000
     3      1      3 -0.21620000   -1.029  1.00000  1.45783
     4      1      4 -0.19820000   -2.241  1.80105  1.00015
     5      1      5 0.00310000   -1.440  2.28562 -0.28068
     6      1      6 -0.21760000   -0.771  3.62460  0.07644
     7      1      7 -0.06800000   -2.232  2.31971 -1.71541
     8      1      8 -0.07550000   -1.378  2.69794 -2.96745
     9      1      9 -0.22770000   -0.852  4.13321 -2.98232
    10      1     10 -0.23280000   -0.274  1.70728 -3.30311
    11      1     11 -0.24560000   -3.247  1.18633 -1.91933
    12      1     12 -0.10220000   -3.783  2.59441 -1.85403
    13      1     13 -0.20410000   -4.620  3.04624 -0.68090
    14      1     14 -0.20380000   -4.421  3.07833 -3.15076
    15      1     15 0.08180000    1.373  0.06757  0.43956
    16      1     16 0.08180000    1.411  1.82993  0.58268
    17      1     17 0.08180000    1.413  1.05509 -1.00529
    18      1     18 0.11480000   -0.884  0.12005 -0.55181
    19      1     19 0.09800000   -0.400  1.54059  2.17589
    20      1     20 0.09800000   -1.252  0.01465  1.87728
    21      1     21 0.09860000   -2.558  2.58383  1.69908
    22      1     22 0.09860000   -3.087  1.12797  0.83857
    23      1     23 0.08450000   -0.459  3.66653  1.12680
    24      1     24 0.08450000   -1.457  4.46091 -0.08632
    25      1     25 0.08450000    0.140  3.78022 -0.50320
    26      1     26 0.08780000   -2.038  2.64372 -3.83696
    27      1     27 0.08100000    0.125  4.22174 -2.50028
    28      1     28 0.08100000   -1.551  4.82662 -2.50485
    29      1     29 0.08100000   -0.704  4.46789 -4.01569
    30      1     30 0.08200000    0.572  1.81609 -2.62994
    31      1     31 0.08200000    0.108  1.89721 -4.31299
    32      1     32 0.08200000   -0.633  0.67449 -3.26785
    33      1     33 0.12010000   -3.475  0.50342 -1.11079
    34      1     34 0.12010000   -3.234  0.66660 -2.87396
    35      1     35 0.08520000   -4.348  2.62476  0.27875
    36      1     36 0.08520000   -5.668  2.76241 -0.83708
    37      1     37 0.08520000   -4.575  4.13648 -0.59230
    38      1     38 0.08460000   -4.040  2.57478 -4.04310
    39      1     39 0.08460000   -4.280  4.15769 -3.26387
    40      1     40 0.08460000   -5.498  2.87333 -3.13729

Bonds 

     1      1      2      1
     2      2      3      2
     3      3      4      3
     4      4      5      2
     5      5      6      5
     6      6      7      5
     7      7      8      7
     8      8      9      8
     9      9     10      8
    10     10     11      7
    11     11     12      7
    12     12     13     12
    13     13     14     12
    14     14     15      1
    15     15     16      1
    16     16     17      1
    17     17     18      2
    18     18     19      3
    19     19     20      3
    20     20     21      4
    21     21     22      4
    22     22     23      6
    23     23     24      6
    24     24     25      6
    25     25     26      8
    26     26     27      9
    27     27     28      9
    28     28     29      9
    29     29     30     10
    30     30     31     10
    31     31     32     10
    32     32     33     11
    33     33     34     11
    34     34     35     13
    35     35     36     13
    36     36     37     13
    37     37     38     14
    38     38     39     14
    39     39     40     14
    40     40      5      4
    41     41     12     11

Angles 

     1      1      1      2      3
     2      2      2      3      4
     3      3      1      2      5
     4      4      2      5      6
     5      5      2      5      7
     6      6      5      7      8
     7      7      7      8      9
     8      8      7      8     10
     9      9      5      7     11
    10     10      5      7     12
    11     11      7     12     13
    12     12      7     12     14
    13     13      2      1     15
    14     14      2      1     16
    15     15      2      1     17
    16     16      1      2     18
    17     17      2      3     19
    18     18      2      3     20
    19     19      3      4     21
    20     20      3      4     22
    21     21      5      6     23
    22     22      5      6     24
    23     23      5      6     25
    24     24      7      8     26
    25     25      8      9     27
    26     26      8      9     28
    27     27      8      9     29
    28     28      8     10     30
    29     29      8     10     31
    30     30      8     10     32
    31     31      7     11     33
    32     32      7     11     34
    33     33     12     13     35
    34     34     12     13     36
    35     35     12     13     37
    36     36     12     14     38
    37     37     12     14     39
    38     38     12     14     40
    39     39      8      7     11
    40     40     39     14     40
    41     41     11     12     14
    42     42     11      7     12
    43     43     23      6     24
    44     44      9      8     10
    45     45      3      2     18
    46     46      4      5      6
    47     47     31     10     32
    48     48     30     10     31
    49     49      8      7     12
    50     50     12     11     33
    51     51      4      3     19
    52     52      7     12     11
    53     53     21      4     22
    54     54      4      5      7
    55     55     13     12     14
    56     56     36     13     37
    57     57     38     14     39
    58     58     38     14     40
    59     59     30     10     32
    60     60     33     11     34
    61     61     10      8     26
    62     62      5      4     22
    63     63     27      9     29
    64     64      6      5      7
    65     65     15      1     16
    66     66      3      2      5
    67     67      2      5      4
    68     68     12     11     34
    69     69     27      9     28
    70     70     28      9     29
    71     71     24      6     25
    72     72     15      1     17
    73     73     16      1     17
    74     74     35     13     36
    75     75     19      3     20
    76     76      9      8     26
    77     77     23      6     25
    78     78      5      4     21
    79     79     35     13     37
    80     80      4      3     20
    81     81     11     12     13
    82     82      7     11     12
    83     83      5      2     18
    84     84      3      4      5

Dihedrals

     1      1      4      3      2      1 
     2      2      8      7      5      2 
     3      3      9      8      7      5 
     4      4     13     12      7     11 
     5      5     14     12      7     11 
     6      6     15      1      2      3 
     7      7     23      6      5      2 
     8      8     27      9      8      7 
     9      9     30     10      8      7 
    10     10     33     11      7     12 
    11     11     34     11      7     12 
    12     12     35     13     12      7 
    13     13     38     14     12      7 
    14     14     31     10      8     26 
    15     15     10      8      7      5 
    16     16     25      6      5      2 
    17     17     18      2      5      7 
    18     18     18      2      1     17 
    19     19     33     11      7      5 
    20     20     34     11      7      8 
    21     21     24      6      5      2 
    22     22     13     12      7      8 
    23     23     17      1      2      5 
    24     24     28      9      8     10 
    25     25     11      7      5      4 
    26     26      7      5      4      3 
    27     27     19      3      2      5 
    28     28     14     12     11      7 
    29     29     26      8      7     11 
    30     30      6      5      2      3 
    31     31     22      4      5      2 
    32     32     29      9      8      7 
    33     33     26      8      7      5 
    34     34     36     13     12     11 
    35     35     36     13     12      7 
    36     36     23      6      5      7 
    37     37     18      2      1     15 
    38     38     40     14     12     11 
    39     39     38     14     12     13 
    40     40     13     12      7      5 
    41     41     23      6      5      4 
    42     42     12      7      5      4 
    43     43     32     10      8      9 
    44     44     19      3      2      1 
    45     45     31     10      8      7 
    46     46      7      5      2      1 
    47     47     34     11     12     13 
    48     48     33     11     12     14 
    49     49     21      4      5      2 
    50     50     12      7      8     10 
    51     51     22      4      5      7 
    52     52     20      3      2      1 
    53     53     21      4      3     19 
    54     54     20      3      2     18 
    55     55     22      4      3     20 
    56     56     39     14     12      7 
    57     57     37     13     12      7 
    58     58     27      9      8     10 
    59     59     32     10      8      7 
    60     60     37     13     12     11 
    61     61     30     10      8      9 
    62     62     22      4      3      2 
    63     63     34     11     12      7 
    64     64     16      1      2      5 
    65     65     20      3      4      5 
    66     66     20      3      2      5 
    67     67     12      7      8      9 
    68     68     11      7      8     10 
    69     69     24      6      5      7 
    70     70      6      5      4      3 
    71     71      7      5      2      3 
    72     72     21      4      3      2 
    73     73     35     13     12     14 
    74     74     29      9      8     10 
    75     75     24      6      5      4 
    76     76     33     11     12      7 
    77     77     40     14     12      7 
    78     78     39     14     12     11 
    79     79     28      9      8      7 
    80     80     14     12      7      8 
    81     81     33     11      7      8 
    82     82     26      8      7     12 
    83     83     27      9      8     26 
    84     84     28      9      8     26 
    85     85      4      5      2      1 
    86     86     39     14     12     13 
    87     87     11      7      5      6 
    88     88     14     12      7      5 
    89     89     17      1      2      3 
    90     90     15      1      2      5 
    91     91     25      6      5      4 
    92     92     21      4      3     20 
    93     93     22      4      3     19 
    94     94     25      6      5      7 
    95     95     35     13     12     11 
    96     96     11      7      8      9 
    97     97     19      3      2     18 
    98     98     12      7      5      6 
    99     99     37     13     12     14 
   100    100     29      9      8     26 
   101    101     34     11      7      5 
   102    102     38     14     12     11 
   103    103      8      7      5      6 
   104    104     18      2      5      6 
   105    105     12      7      5      2 
   106    106     21      4      5      6 
   107    107     19      3      4      5 
   108    108     13     12     11      7 
   109    109     18      2      3      4 
   110    110     34     11     12     14 
   111    111     22      4      5      6 
   112    112     33     11     12     13 
   113    113     21      4      5      7 
   114    114     30     10      8     26 
   115    115     36     13     12     14 
   116    116     16      1      2      3 
   117    117     32     10      8     26 
   118    118     40     14     12     13 
   119    119      6      5      2      1 
   120    120      8      7      5      4 
   121    121     11      7      5      2 
   122    122     18      2      5      4 
   123    123     18      2      1     16 
   124    124     31     10      8      9 

Impropers

     1      1      2      1      3      5 
     2      2      5      2      4      6 
     3      3      5      2      4      7 
     4      4      8      9     10      7 
     5      5      7     11      5      8 
     6      6      7     12      5      8 
     7      7      1      2     15     16 
     8      8      1     17     15      2 
     9      9      2      1     18      3 
    10     10      3      2     19      4 
    11     11      3      4      2     20 
    12     12      4      5      3     21 
    13     13      4      3      5     22 
    14     14      6      5     23     24 
    15     15      6     25      5     23 
    16     16      8      9     26      7 
    17     17      9     27     28      8 
    18     18      9     27     29      8 
    19     19     10     30     31      8 
    20     20     10      8     30     32 
    21     21     13     12     35     36 
    22     22     13     35     12     37 
    23     23     14     12     39     38 
    24     24     14     38     12     40 
    25     25      2      3      4      5 
    26     26      7     11     12      5 
    27     27      2      3      4      5 
    28     28      2      3      4      5 
    29     29      7     11     12      8 
    30     30      7     11     12      8 
    31     31      7     11     12      5 
    32     32      2      3      4      5 

