LAMMPS data file Created by LigParGen - (Written by Leela S. Dodda)

      47 atoms
      46 bonds
      88 angles
     114 dihedrals
      29 impropers
 
      47 atom types
      46 bond types
      88 angle types
     114 dihedral types
      29 improper types
 
  -13.868710    36.131290 xlo xhi
   -3.348410    46.651590 ylo yhi
   -1.024640    48.975360 zlo zhi

Masses

       1     12.011  
       2     15.999  
       3     32.060  
       4     15.999  
       5     15.999  
       6     12.011  
       7     14.007  
       8     12.011  
       9     12.011  
      10     12.011  
      11     12.011  
      12     12.011  
      13     12.011  
      14     12.011  
      15     12.011  
      16     12.011  
      17     12.011  
      18     12.011  
      19      1.008  
      20      1.008  
      21      1.008  
      22      1.008  
      23      1.008  
      24      1.008  
      25      1.008  
      26      1.008  
      27      1.008  
      28      1.008  
      29      1.008  
      30      1.008  
      31      1.008  
      32      1.008  
      33      1.008  
      34      1.008  
      35      1.008  
      36      1.008  
      37      1.008  
      38      1.008  
      39      1.008  
      40      1.008  
      41      1.008  
      42      1.008  
      43      1.008  
      44      1.008  
      45      1.008  
      46      1.008  
      47      1.008  

Pair Coeffs 

       1      0.066  3.5000000 
       2      0.140  2.9000000 
       3      0.250  3.5500000 
       4      0.170  2.9600000 
       5      0.170  2.9600000 
       6      0.066  3.5000000 
       7      0.170  3.3000000 
       8      0.066  3.5000000 
       9      0.066  3.5000000 
      10      0.066  3.5000000 
      11      0.066  3.5000000 
      12      0.066  3.5000000 
      13      0.066  3.5000000 
      14      0.066  3.5000000 
      15      0.066  3.5000000 
      16      0.066  3.5000000 
      17      0.066  3.5000000 
      18      0.066  3.5000000 
      19      0.030  2.5000000 
      20      0.030  2.5000000 
      21      0.030  2.5000000 
      22      0.030  2.5000000 
      23      0.030  2.5000000 
      24      0.030  2.5000000 
      25      0.030  2.5000000 
      26      0.030  2.5000000 
      27      0.030  2.5000000 
      28      0.030  2.5000000 
      29      0.030  2.5000000 
      30      0.030  2.5000000 
      31      0.030  2.5000000 
      32      0.030  2.5000000 
      33      0.030  2.5000000 
      34      0.030  2.5000000 
      35      0.030  2.5000000 
      36      0.030  2.5000000 
      37      0.030  2.5000000 
      38      0.030  2.5000000 
      39      0.030  2.5000000 
      40      0.030  2.5000000 
      41      0.030  2.5000000 
      42      0.030  2.5000000 
      43      0.030  2.5000000 
      44      0.030  2.5000000 
      45      0.030  2.5000000 
      46      0.030  2.5000000 
      47      0.030  2.5000000 

Bond Coeffs 

       1   320.0000     1.4100 
       2   293.9700     1.6600 
       3   700.0000     1.4400 
       4   700.0000     1.4400 
       5   340.0000     1.7700 
       6   382.0000     1.4480 
       7   382.0000     1.4480 
       8   382.0000     1.4480 
       9   268.0000     1.5290 
      10   268.0000     1.5290 
      11   268.0000     1.5290 
      12   268.0000     1.5290 
      13   268.0000     1.5290 
      14   268.0000     1.5290 
      15   268.0000     1.5290 
      16   268.0000     1.5290 
      17   268.0000     1.5290 
      18   340.0000     1.0900 
      19   340.0000     1.0900 
      20   340.0000     1.0900 
      21   340.0000     1.0900 
      22   340.0000     1.0900 
      23   340.0000     1.0900 
      24   340.0000     1.0900 
      25   340.0000     1.0900 
      26   340.0000     1.0900 
      27   340.0000     1.0900 
      28   340.0000     1.0900 
      29   340.0000     1.0900 
      30   340.0000     1.0900 
      31   340.0000     1.0900 
      32   340.0000     1.0900 
      33   340.0000     1.0900 
      34   340.0000     1.0900 
      35   340.0000     1.0900 
      36   340.0000     1.0900 
      37   340.0000     1.0900 
      38   340.0000     1.0900 
      39   340.0000     1.0900 
      40   340.0000     1.0900 
      41   340.0000     1.0900 
      42   340.0000     1.0900 
      43   340.0000     1.0900 
      44   340.0000     1.0900 
      45   340.0000     1.0900 
      46   340.0000     1.0900 

Angle Coeffs 

       1     69.510    114.540
       2     78.670    104.360
       3     78.670    104.360
       4     78.670    104.360
       5     50.000    114.700
       6     51.800    107.200
       7     51.800    107.200
       8     56.200    109.470
       9     58.350    112.700
      10     58.350    112.700
      11     58.350    112.700
      12     58.350    112.700
      13     58.350    112.700
      14     58.350    112.700
      15     58.350    112.700
      16     58.350    112.700
      17     35.000    109.500
      18     35.000    109.500
      19     35.000    109.500
      20     35.000    109.500
      21     35.000    109.500
      22     35.000    109.500
      23     35.000    109.500
      24     35.000    109.500
      25     35.000    109.500
      26     35.000    109.500
      27     37.500    110.700
      28     37.500    110.700
      29     37.500    110.700
      30     37.500    110.700
      31     37.500    110.700
      32     37.500    110.700
      33     37.500    110.700
      34     37.500    110.700
      35     37.500    110.700
      36     37.500    110.700
      37     37.500    110.700
      38     37.500    110.700
      39     37.500    110.700
      40     37.500    110.700
      41     37.500    110.700
      42     37.500    110.700
      43     37.500    110.700
      44     37.500    110.700
      45     37.500    110.700
      46     33.000    107.800
      47     33.000    107.800
      48     33.000    107.800
      49     33.000    107.800
      50     33.000    107.800
      51     33.000    107.800
      52     33.000    107.800
      53     37.500    110.700
      54     33.000    107.800
      55     37.500    110.700
      56     33.000    107.800
      57     37.500    110.700
      58     33.000    107.800
      59     37.500    110.700
      60     37.500    110.700
      61     33.000    107.800
      62     51.800    107.200
      63     37.500    110.700
      64    104.000    119.000
      65     33.000    107.800
      66     37.500    110.700
      67     33.000    107.800
      68     33.000    107.800
      69     37.500    110.700
      70     74.000    108.900
      71     33.000    107.800
      72     33.000    107.800
      73     35.000    109.500
      74     33.000    107.800
      75     58.350    112.700
      76     33.000    107.800
      77     33.000    107.800
      78     37.500    110.700
      79     37.500    110.700
      80     33.000    107.800
      81     74.000    108.900
      82     37.500    110.700
      83     33.000    107.800
      84     33.000    107.800
      85     35.000    109.500
      86     58.350    112.700
      87     37.500    110.700
      88     58.350    112.700

Dihedral Coeffs  

       1      0.000      0.000      0.000      0.000 
       2      0.000      0.000      0.000      0.000 
       3      1.262     -0.198      0.465      0.000 
       4      0.416     -0.128      0.695      0.000 
       5      2.392     -0.674      0.550      0.000 
       6      1.300     -0.200      0.200      0.000 
       7      1.300     -0.200      0.200      0.000 
       8      1.300     -0.200      0.200      0.000 
       9      1.300     -0.200      0.200      0.000 
      10      1.300     -0.200      0.200      0.000 
      11      0.000      0.000      0.760      0.000 
      12      0.000      0.000      0.560      0.000 
      13      0.000      0.000      0.300      0.000 
      14      0.000      0.000      0.300      0.000 
      15      0.000      0.000      0.300      0.000 
      16      0.000      0.000      0.560      0.000 
      17      0.000      0.000      0.560      0.000 
      18      0.000      0.000      0.300      0.000 
      19      0.000      0.000      0.300      0.000 
      20      0.000      0.000      0.300      0.000 
      21      0.000      0.000      0.300      0.000 
      22      0.000      0.000      0.000      0.000 
      23      0.000      0.000      0.300      0.000 
      24      0.000      0.000      0.560      0.000 
      25      0.000      0.000      0.350      0.000 
      26      0.000      0.000      0.300      0.000 
      27      0.000      0.000      0.300      0.000 
      28      0.000      0.000      0.560      0.000 
      29      0.000      0.000      0.300      0.000 
      30      1.300     -0.200      0.200      0.000 
      31      0.000      0.000      0.350      0.000 
      32      0.000      0.000      0.350      0.000 
      33      0.000      0.000      0.300      0.000 
      34      0.416     -0.128      0.695      0.000 
      35      0.000      0.000      0.300      0.000 
      36      0.000      0.000      0.300      0.000 
      37      0.000      0.000      0.300      0.000 
      38      0.000      0.000      0.300      0.000 
      39      0.000      0.000      0.300      0.000 
      40      0.000      0.000      0.300      0.000 
      41      0.000      0.000      0.350      0.000 
      42      0.000      0.000      0.560      0.000 
      43      0.000      0.000      0.300      0.000 
      44     -1.013     -0.709      0.473      0.000 
      45      0.000      0.000      0.300      0.000 
      46      0.000      0.000      0.300      0.000 
      47      0.000      0.000      0.560      0.000 
      48      0.000      0.000      0.300      0.000 
      49      0.000      0.000      0.300      0.000 
      50      0.000      0.000      0.300      0.000 
      51      1.262     -0.198      0.465      0.000 
      52      0.000      0.000      0.300      0.000 
      53      0.000      0.000      0.560      0.000 
      54     -1.013     -0.709      0.473      0.000 
      55      0.000      0.000      0.300      0.000 
      56      0.000      0.000      0.300      0.000 
      57      0.000      0.000      0.560      0.000 
      58      0.000      0.000      0.300      0.000 
      59      0.000      0.000      0.300      0.000 
      60      0.000      0.000      0.300      0.000 
      61      0.000      0.000      0.760      0.000 
      62      0.000      0.000      0.300      0.000 
      63      0.000      0.000      0.300      0.000 
      64      0.000      0.000      0.300      0.000 
      65      0.000      0.000      0.300      0.000 
      66      0.000      0.000      0.300      0.000 
      67      0.000      0.000      0.300      0.000 
      68      0.000      0.000      0.300      0.000 
      69      0.000      0.000      0.300      0.000 
      70      0.000      0.000      0.300      0.000 
      71      0.000      0.000      0.350      0.000 
      72      0.000      0.000      0.300      0.000 
      73      0.000      0.000      0.300      0.000 
      74      0.000      0.000      0.300      0.000 
      75      0.000      0.000      0.300      0.000 
      76      0.000      0.000      0.300      0.000 
      77      0.000      0.000      0.300      0.000 
      78      0.000      0.000      0.300      0.000 
      79      0.000      0.000      0.300      0.000 
      80      0.000      0.000      0.300      0.000 
      81      0.000      0.000      0.300      0.000 
      82      0.000      0.000      0.300      0.000 
      83      0.000      0.000      0.300      0.000 
      84      0.000      0.000      0.000      0.000 
      85      0.000      0.000      0.000      0.000 
      86      0.000      0.000      0.300      0.000 
      87      0.000      0.000      0.560      0.000 
      88      0.000      0.000      0.560      0.000 
      89      0.000      0.000      0.300      0.000 
      90      0.000      0.000      0.560      0.000 
      91      0.000      0.000      0.300      0.000 
      92      0.000      0.000      0.760      0.000 
      93      0.000      0.000      0.300      0.000 
      94      0.000      0.000      0.300      0.000 
      95      0.000      0.000      0.300      0.000 
      96      0.000      0.000      0.560      0.000 
      97      0.000      0.000      0.300      0.000 
      98      1.300     -0.200      0.200      0.000 
      99      0.000      0.000      0.300      0.000 
     100      0.000      0.000      0.300      0.000 
     101      0.000      0.000      0.300      0.000 
     102      0.000      0.000      0.300      0.000 
     103      0.000      0.000      0.300      0.000 
     104      0.000      0.000      0.300      0.000 
     105      0.650     -0.250      0.670      0.000 
     106      0.000      0.000      0.300      0.000 
     107      0.000      0.000      0.300      0.000 
     108      0.000      0.000      0.300      0.000 
     109      0.000      0.000      0.300      0.000 
     110      0.000      0.000      0.560      0.000 
     111      0.000      0.000      0.350      0.000 
     112      0.000      0.000      0.300      0.000 
     113      0.000      0.000      0.300      0.000 
     114      0.000      0.000      0.300      0.000 

Improper Coeffs 

       1      0.000      -1       2 
       2      0.000      -1       2 
       3      0.000      -1       2 
       4      0.000      -1       2 
       5      0.000      -1       2 
       6      0.000      -1       2 
       7      0.000      -1       2 
       8      0.000      -1       2 
       9      0.000      -1       2 
      10      0.000      -1       2 
      11      0.000      -1       2 
      12      0.000      -1       2 
      13      0.000      -1       2 
      14      0.000      -1       2 
      15      0.000      -1       2 
      16      0.000      -1       2 
      17      0.000      -1       2 
      18      0.000      -1       2 
      19      0.000      -1       2 
      20      0.000      -1       2 
      21      0.000      -1       2 
      22      0.000      -1       2 
      23      0.000      -1       2 
      24      0.000      -1       2 
      25      0.000      -1       2 
      26      0.000      -1       2 
      27      0.000      -1       2 
      28      0.000      -1       2 
      29      0.000      -1       2 

Atoms 

     1      1      1 0.02160000    1.000  1.00000  0.00000
     2      1      2 -0.55640000   -0.420  1.00000  0.00000
     3      1      3 1.34600000   -1.120  1.00000  1.47227
     4      1      4 -0.56280000   -0.807 -0.26824  2.10370
     5      1      5 -0.56280000   -0.782  2.26090  2.10051
     6      1      6 -0.25410000   -2.886  1.01164  0.94177
     7      1      7 -0.48470000   -3.924  0.95357  2.01705
     8      1      8 -0.09530000   -3.810  2.12052  2.89753
     9      1      9 0.00930000   -5.273  0.81675  1.44368
    10      1     10 -0.18590000   -6.327  0.66542  2.54823
    11      1     11 -0.17690000   -7.733  0.45647  2.01030
    12      1     12 -0.17840000   -8.705  0.31932  3.18695
    13      1     13 -0.17550000  -10.163  0.21455  2.75511
    14      1     14 -0.16650000  -10.432 -1.02110  1.88995
    15      1     15 -0.05370000  -11.898 -1.18995  1.41699
    16      1     16 -0.22800000  -12.327 -0.00101  0.54391
    17      1     17 -0.23130000  -11.976 -2.47569  0.57270
    18      1     18 -0.22790000  -12.846 -1.32182  2.61900
    19      1     19 0.11510000    1.352  1.13967 -1.02464
    20      1     20 0.11510000    1.373  0.04443  0.37826
    21      1     21 0.11510000    1.388  1.81769  0.61593
    22      1     22 0.14650000   -2.983  0.12777  0.30220
    23      1     23 0.14650000   -3.014  1.91016  0.32602
    24      1     24 0.09790000   -2.824  2.17986  3.35873
    25      1     25 0.09790000   -4.485  2.04666  3.75450
    26      1     26 0.09790000   -4.015  3.05496  2.36444
    27      1     27 0.08800000   -5.305 -0.08286  0.81449
    28      1     28 0.08800000   -5.519  1.67115  0.80268
    29      1     29 0.10060000   -6.357  1.56506  3.16987
    30      1     30 0.10060000   -6.056 -0.17814  3.19643
    31      1     31 0.09220000   -7.747 -0.44003  1.38378
    32      1     32 0.09220000   -8.026  1.30903  1.38382
    33      1     33 0.08970000   -8.606  1.19520  3.84137
    34      1     34 0.08970000   -8.434 -0.55583  3.79063
    35      1     35 0.09050000  -10.435  1.12991  2.21956
    36      1     36 0.09050000  -10.775  0.17722  3.66354
    37      1     37 0.08860000  -10.124 -1.91257  2.45371
    38      1     38 0.08860000   -9.795 -0.98455  0.99836
    39      1     39 0.08110000  -11.658  0.11556 -0.31774
    40      1     40 0.08110000  -12.320  0.94085  1.10080
    41      1     41 0.08110000  -13.342 -0.14391  0.15988
    42      1     42 0.08150000  -11.332 -2.40601 -0.31148
    43      1     43 0.08150000  -12.998 -2.65854  0.22365
    44      1     44 0.08150000  -11.657 -3.34841  1.14956
    45      1     45 0.08150000  -12.878 -0.40425  3.21589
    46      1     46 0.08150000  -12.535 -2.14128  3.27838
    47      1     47 0.08150000  -13.869 -1.52726  2.28943

Bonds 

     1      1      2      1
     2      2      3      2
     3      3      4      3
     4      4      5      3
     5      5      6      3
     6      6      7      6
     7      7      8      7
     8      8      9      7
     9      9     10      9
    10     10     11     10
    11     11     12     11
    12     12     13     12
    13     13     14     13
    14     14     15     14
    15     15     16     15
    16     16     17     15
    17     17     18     15
    18     18     19      1
    19     19     20      1
    20     20     21      1
    21     21     22      6
    22     22     23      6
    23     23     24      8
    24     24     25      8
    25     25     26      8
    26     26     27      9
    27     27     28      9
    28     28     29     10
    29     29     30     10
    30     30     31     11
    31     31     32     11
    32     32     33     12
    33     33     34     12
    34     34     35     13
    35     35     36     13
    36     36     37     14
    37     37     38     14
    38     38     39     16
    39     39     40     16
    40     40     41     16
    41     41     42     17
    42     42     43     17
    43     43     44     17
    44     44     45     18
    45     45     46     18
    46     46     47     18

Angles 

     1      1      1      2      3
     2      2      2      3      4
     3      3      2      3      5
     4      4      2      3      6
     5      5      3      6      7
     6      6      6      7      8
     7      7      6      7      9
     8      8      7      9     10
     9      9      9     10     11
    10     10     10     11     12
    11     11     11     12     13
    12     12     12     13     14
    13     13     13     14     15
    14     14     14     15     16
    15     15     14     15     17
    16     16     14     15     18
    17     17      2      1     19
    18     18      2      1     20
    19     19      2      1     21
    20     20      3      6     22
    21     21      3      6     23
    22     22      7      8     24
    23     23      7      8     25
    24     24      7      8     26
    25     25      7      9     27
    26     26      7      9     28
    27     27      9     10     29
    28     28      9     10     30
    29     29     10     11     31
    30     30     10     11     32
    31     31     11     12     33
    32     32     11     12     34
    33     33     12     13     35
    34     34     12     13     36
    35     35     13     14     37
    36     36     13     14     38
    37     37     15     16     39
    38     38     15     16     40
    39     39     15     16     41
    40     40     15     17     42
    41     41     15     17     43
    42     42     15     17     44
    43     43     15     18     45
    44     44     15     18     46
    45     45     15     18     47
    46     46     24      8     26
    47     47     29     10     30
    48     48     27      9     28
    49     49     25      8     26
    50     50     19      1     21
    51     51     33     12     34
    52     52     42     17     43
    53     53     11     10     30
    54     54     20      1     21
    55     55     12     11     31
    56     56     39     16     40
    57     57     14     13     35
    58     58     37     14     38
    59     59     11     10     29
    60     60     13     12     34
    61     61     45     18     46
    62     62      8      7      9
    63     63     12     11     32
    64     64      4      3      5
    65     65     22      6     23
    66     66     15     14     37
    67     67     42     17     44
    68     68     35     13     36
    69     69     14     13     36
    70     70      5      3      6
    71     71     43     17     44
    72     72     45     18     47
    73     73      7      6     22
    74     74     40     16     41
    75     75     16     15     18
    76     76     46     18     47
    77     77     39     16     41
    78     78     13     12     33
    79     79     10      9     28
    80     80     31     11     32
    81     81      4      3      6
    82     82     15     14     38
    83     83     24      8     25
    84     84     19      1     20
    85     85      7      6     23
    86     86     16     15     17
    87     87     10      9     27
    88     88     17     15     18

Dihedrals

     1      1      4      3      2      1 
     2      2      7      6      3      2 
     3      3      8      7      6      3 
     4      4     10      9      7      6 
     5      5     11     10      9      7 
     6      6     12     11     10      9 
     7      7     13     12     11     10 
     8      8     14     13     12     11 
     9      9     15     14     13     12 
    10     10     16     15     14     13 
    11     11     19      1      2      3 
    12     12     24      8      7      6 
    13     13     39     16     15     14 
    14     14     42     17     15     14 
    15     15     45     18     15     14 
    16     16     22      6      7      9 
    17     17     23      6      7      8 
    18     18     37     14     15     18 
    19     19     38     14     15     17 
    20     20     32     11     12     13 
    21     21     47     18     15     17 
    22     22      7      6      3      5 
    23     23     34     12     11     32 
    24     24     28      9      7      6 
    25     25     22      6      3      4 
    26     26     41     16     15     18 
    27     27     33     12     13     14 
    28     28     25      8      7      6 
    29     29     36     13     12     11 
    30     30     17     15     14     13 
    31     31     23      6      3      4 
    32     32     22      6      3      5 
    33     33     37     14     15     16 
    34     34     10      9      7      8 
    35     35     30     10      9     28 
    36     36     30     10     11     12 
    37     37     46     18     15     17 
    38     38     47     18     15     16 
    39     39     35     13     12     34 
    40     40     36     13     12     33 
    41     41     23      6      3      2 
    42     42     28      9      7      8 
    43     43     38     14     13     36 
    44     44     29     10      9      7 
    45     45     32     11     10     30 
    46     46     33     12     11     10 
    47     47     27      9      7      6 
    48     48     43     17     15     18 
    49     49     35     13     12     33 
    50     50     32     11     10      9 
    51     51      9      7      6      3 
    52     52     29     10     11     12 
    53     53     24      8      7      9 
    54     54     30     10      9      7 
    55     55     41     16     15     17 
    56     56     40     16     15     18 
    57     57     22      6      7      8 
    58     58     36     13     12     34 
    59     59     34     12     13     14 
    60     60     43     17     15     14 
    61     61     21      1      2      3 
    62     62     42     17     15     16 
    63     63     44     17     15     14 
    64     64     46     18     15     14 
    65     65     38     14     15     18 
    66     66     41     16     15     14 
    67     67     34     12     11     31 
    68     68     33     12     11     32 
    69     69     46     18     15     16 
    70     70     45     18     15     17 
    71     71     22      6      3      2 
    72     72     32     11     10     29 
    73     73     31     11     10     30 
    74     74     34     12     11     10 
    75     75     31     11     12     13 
    76     76     40     16     15     17 
    77     77     39     16     15     18 
    78     78     43     17     15     16 
    79     79     37     14     15     17 
    80     80     38     14     15     16 
    81     81     29     10      9     27 
    82     82     31     11     10      9 
    83     83     36     13     14     15 
    84     84      5      3      2      1 
    85     85      7      6      3      4 
    86     86     37     14     13     35 
    87     87     23      6      7      9 
    88     88     27      9      7      8 
    89     89     27      9     10     11 
    90     90     26      8      7      6 
    91     91     35     13     12     11 
    92     92     20      1      2      3 
    93     93     31     11     10     29 
    94     94     35     13     14     15 
    95     95     38     14     13     12 
    96     96     26      8      7      9 
    97     97     33     12     11     31 
    98     98     18     15     14     13 
    99     99     39     16     15     17 
   100    100     44     17     15     16 
   101    101     42     17     15     18 
   102    102     38     14     13     35 
   103    103     37     14     13     36 
   104    104     44     17     15     18 
   105    105      6      3      2      1 
   106    106     37     14     13     12 
   107    107     40     16     15     14 
   108    108     29     10      9     28 
   109    109     30     10      9     27 
   110    110     25      8      7      9 
   111    111     23      6      3      5 
   112    112     28      9     10     11 
   113    113     47     18     15     14 
   114    114     45     18     15     16 

Impropers

     1      1      3      2      4      5 
     2      2      3      2      4      6 
     3      3      7      9      6      8 
     4      4     15     17     14     16 
     5      5     15     18     14     16 
     6      6      1      2     19     20 
     7      7      1      2     19     21 
     8      8      6      3     22      7 
     9      9      6      3      7     23 
    10     10      8     25     24      7 
    11     11      8     26     24      7 
    12     12      9     10     27      7 
    13     13      9     10     28      7 
    14     14     10      9     11     29 
    15     15     10      9     11     30 
    16     16     11     10     12     31 
    17     17     11     10     12     32 
    18     18     12     33     11     13 
    19     19     12     34     11     13 
    20     20     13     35     12     14 
    21     21     13     12     36     14 
    22     22     14     13     37     15 
    23     23     14     13     38     15 
    24     24     16     39     15     40 
    25     25     16     41     39     15 
    26     26     17     42     43     15 
    27     27     17     42     44     15 
    28     28     18     45     46     15 
    29     29     18     45     15     47 

