LAMMPS data file Created by LigParGen - (Written by Leela S. Dodda)

      35 atoms
      37 bonds
      78 angles
     123 dihedrals
      24 impropers
 
      35 atom types
      37 bond types
      78 angle types
     123 dihedral types
      24 improper types
 
   -4.835690    45.164310 xlo xhi
   -2.020240    47.979760 ylo yhi
   -1.019080    48.980920 zlo zhi

Masses

       1     12.011  
       2     12.011  
       3     12.011  
       4     12.011  
       5     12.011  
       6     12.011  
       7     12.011  
       8     12.011  
       9     12.011  
      10     12.011  
      11     12.011  
      12     12.011  
      13     12.011  
      14      1.008  
      15      1.008  
      16      1.008  
      17      1.008  
      18      1.008  
      19      1.008  
      20      1.008  
      21      1.008  
      22      1.008  
      23      1.008  
      24      1.008  
      25      1.008  
      26      1.008  
      27      1.008  
      28      1.008  
      29      1.008  
      30      1.008  
      31      1.008  
      32      1.008  
      33      1.008  
      34      1.008  
      35      1.008  

Pair Coeffs 

       1      0.066  3.5000000 
       2      0.066  3.5000000 
       3      0.083  3.4500000 
       4      0.083  3.4500000 
       5      0.066  3.5000000 
       6      0.066  3.5000000 
       7      0.066  3.5000000 
       8      0.066  3.5000000 
       9      0.083  3.4500000 
      10      0.066  3.5000000 
      11      0.083  3.4500000 
      12      0.083  3.4500000 
      13      0.083  3.4500000 
      14      0.030  2.5000000 
      15      0.030  2.5000000 
      16      0.030  2.5000000 
      17      0.030  2.5000000 
      18      0.030  2.5000000 
      19      0.030  2.5000000 
      20      0.030  2.5000000 
      21      0.030  2.5000000 
      22      0.030  2.5000000 
      23      0.030  2.5000000 
      24      0.030  2.5000000 
      25      0.030  2.5000000 
      26      0.030  2.5000000 
      27      0.030  2.5000000 
      28      0.030  2.5000000 
      29      0.030  2.5000000 
      30      0.030  2.5000000 
      31      0.030  2.5000000 
      32      0.030  2.5000000 
      33      0.030  2.5000000 
      34      0.030  2.5000000 
      35      0.030  2.5000000 

Bond Coeffs 

       1   268.0000     1.5290 
       2   280.0000     1.5100 
       3   260.0000     1.5200 
       4   280.0000     1.5100 
       5   268.0000     1.5290 
       6   268.0000     1.5290 
       7   268.0000     1.5290 
       8   280.0000     1.5100 
       9   280.0000     1.5100 
      10   260.0000     1.5200 
      11   260.0000     1.5200 
      12   260.0000     1.5200 
      13   340.0000     1.0900 
      14   340.0000     1.0900 
      15   340.0000     1.0900 
      16   340.0000     1.0900 
      17   340.0000     1.0900 
      18   340.0000     1.0880 
      19   340.0000     1.0880 
      20   340.0000     1.0900 
      21   340.0000     1.0900 
      22   340.0000     1.0900 
      23   340.0000     1.0900 
      24   340.0000     1.0900 
      25   340.0000     1.0900 
      26   340.0000     1.0900 
      27   340.0000     1.0900 
      28   340.0000     1.0900 
      29   340.0000     1.0900 
      30   340.0000     1.0880 
      31   340.0000     1.0880 
      32   340.0000     1.0880 
      33   340.0000     1.0880 
      34   340.0000     1.0880 
      35   260.0000     1.5200 
      36   280.0000     1.5100 
      37   260.0000     1.5200 

Angle Coeffs 

       1     58.350    112.700
       2     37.500    117.200
       3     37.500    117.200
       4     58.350    112.700
       5     58.350    112.700
       6     58.350    112.700
       7     58.350    112.700
       8     35.000    114.300
       9     37.500    117.200
      10     37.500    117.200
      11     37.500    117.200
      12     37.500    110.700
      13     37.500    110.700
      14     37.500    110.700
      15     37.500    110.700
      16     37.500    110.700
      17     35.000    114.300
      18     37.500    117.200
      19     37.500    110.700
      20     37.500    110.700
      21     37.500    110.700
      22     37.500    110.700
      23     37.500    110.700
      24     37.500    110.700
      25     37.500    110.700
      26     37.500    110.700
      27     37.500    110.700
      28     37.500    110.700
      29     37.500    117.200
      30     37.500    117.200
      31     37.500    117.200
      32     37.500    117.200
      33     37.500    117.200
      34     30.000     83.000
      35     37.500    117.200
      36     37.500    117.200
      37     37.500    117.200
      38     33.000    107.800
      39     37.500    110.700
      40     37.500    110.700
      41     30.000     83.000
      42     37.500    110.700
      43     37.500    117.200
      44     37.500    110.700
      45     37.500    110.700
      46     33.000    107.800
      47     30.000     83.000
      48     37.500    117.200
      49     37.500    117.200
      50     37.500    117.200
      51     35.000    114.300
      52     58.350    112.700
      53     37.500    117.200
      54     35.000    114.300
      55     37.500    110.700
      56     33.000    107.800
      57     33.000    107.800
      58     37.500    117.200
      59     33.000    107.800
      60     37.500    117.200
      61     33.000    107.800
      62     33.000    107.800
      63     33.000    107.800
      64     37.500    110.700
      65     35.000    114.300
      66     37.500    117.200
      67     30.000     83.000
      68     37.500    117.200
      69     37.500    110.700
      70     30.000     83.000
      71     33.000    107.800
      72     35.000    114.300
      73     30.000     83.000
      74     37.500    110.700
      75     37.500    117.200
      76     58.350    112.700
      77     37.500    110.700
      78     33.000    107.800

Dihedral Coeffs  

       1      0.000      0.000      0.000      0.000 
       2      0.000      0.000      0.000      0.000 
       3      0.000      0.000      0.000      0.000 
       4      1.300     -0.200      0.200      0.000 
       5      1.300     -0.200      0.200      0.000 
       6      1.300     -0.200      0.200      0.000 
       7      1.300     -0.200      0.200      0.000 
       8      0.000      0.000      0.000      0.000 
       9      0.000      0.000      0.300      0.000 
      10      0.000      0.000      0.300      0.000 
      11      0.000      0.000      0.000      0.000 
      12      0.000      0.000      0.000      0.000 
      13      0.000      0.000      0.000      0.000 
      14      0.000      0.000      0.000      0.000 
      15      0.000      0.000      0.000      0.000 
      16      0.000      0.000      0.300      0.000 
      17      0.000      0.000      0.300      0.000 
      18      0.000      0.000      0.000      0.000 
      19      0.000      0.000      0.300      0.000 
      20      0.000      0.000      0.300      0.000 
      21      1.300     -0.200      0.200      0.000 
      22      0.000      0.000      0.300      0.000 
      23      0.000      0.000      0.000      0.000 
      24      0.000      0.000      0.000      0.000 
      25      0.000      0.000      0.000      0.000 
      26      0.000      0.000      0.000      0.000 
      27      0.000      0.000      0.000      0.000 
      28      0.000      0.000      0.000      0.000 
      29      0.000      0.000      0.000      0.000 
      30      0.000      0.000      0.300      0.000 
      31      0.000      0.000      0.000      0.000 
      32      0.000      0.000      0.300      0.000 
      33      0.000      0.000      0.000      0.000 
      34      0.000      0.000      0.300      0.000 
      35      0.000      0.000      0.000      0.000 
      36      0.000      0.000      0.000      0.000 
      37      0.000      0.000      0.300      0.000 
      38      0.000      0.000      0.300      0.000 
      39      0.000      0.000      0.300      0.000 
      40      0.000      0.000      0.300      0.000 
      41      0.000      0.000      0.000      0.000 
      42      0.000      0.000      0.000      0.000 
      43      0.000      0.000      0.300      0.000 
      44      0.000      0.000      0.000      0.000 
      45      0.000      0.000      0.300      0.000 
      46      0.000      0.000      0.000      0.000 
      47      0.000      0.000      0.300      0.000 
      48      0.000      0.000      0.300      0.000 
      49      0.000      0.000      0.000      0.000 
      50      0.000      0.000      0.300      0.000 
      51      0.000      0.000      0.300      0.000 
      52      0.000      0.000      0.300      0.000 
      53      0.000      0.000      0.000      0.000 
      54      0.000      0.000      0.300      0.000 
      55      0.000      0.000      0.300      0.000 
      56      0.000      0.000      0.300      0.000 
      57      0.000      0.000      0.000      0.000 
      58      0.000      0.000      0.300      0.000 
      59      0.000      0.000      0.300      0.000 
      60      0.000      0.000      0.300      0.000 
      61      0.000      0.000      0.300      0.000 
      62      0.000      0.000      0.300      0.000 
      63      0.000      0.000      0.000      0.000 
      64      0.000      0.000      0.300      0.000 
      65      0.000      0.000      0.000      0.000 
      66      0.000      0.000      0.300      0.000 
      67      0.000      0.000      0.000      0.000 
      68      0.000      0.000      0.000      0.000 
      69      0.000      0.000      0.300      0.000 
      70      0.000      0.000      0.300      0.000 
      71      0.000      0.000      0.000      0.000 
      72      0.000      0.000      0.300      0.000 
      73      0.000      0.000      0.300      0.000 
      74      0.000      0.000      0.300      0.000 
      75      0.000      0.000      0.000      0.000 
      76      0.000      0.000      0.000      0.000 
      77      0.000      0.000      0.000      0.000 
      78      0.000      0.000      0.300      0.000 
      79      0.000      0.000      0.000      0.000 
      80      0.000      0.000      0.000      0.000 
      81      0.000      0.000      0.300      0.000 
      82      0.000      0.000      0.300      0.000 
      83      0.000      0.000      0.300      0.000 
      84      0.000      0.000      0.000      0.000 
      85      0.000      0.000      0.000      0.000 
      86      0.000      0.000      0.300      0.000 
      87      0.000      0.000      0.000      0.000 
      88      0.000      0.000      0.000      0.000 
      89      0.000      0.000      0.000      0.000 
      90      0.000      0.000      0.000      0.000 
      91      0.000      0.000      0.300      0.000 
      92      0.000      0.000      0.300      0.000 
      93      0.000      0.000      0.300      0.000 
      94      0.000      0.000      0.300      0.000 
      95      0.000      0.000      0.000      0.000 
      96      0.000      0.000      0.300      0.000 
      97      0.000      0.000      0.300      0.000 
      98      0.000      0.000      0.300      0.000 
      99      0.000      0.000      0.300      0.000 
     100      0.000      0.000      0.300      0.000 
     101      0.000      0.000      0.000      0.000 
     102      0.000      0.000      0.000      0.000 
     103      0.000      0.000      0.300      0.000 
     104      0.000      0.000      0.000      0.000 
     105      0.000      0.000      0.300      0.000 
     106      0.000      0.000      0.300      0.000 
     107      0.000      0.000      0.000      0.000 
     108      0.000      0.000      0.000      0.000 
     109      0.000      0.000      0.300      0.000 
     110      0.000      0.000      0.000      0.000 
     111      0.000      0.000      0.000      0.000 
     112      0.000      0.000      0.300      0.000 
     113      0.000      0.000      0.300      0.000 
     114      0.000      0.000      0.300      0.000 
     115      0.000      0.000      0.000      0.000 
     116      0.000      0.000      0.000      0.000 
     117      0.000      0.000      0.000      0.000 
     118      0.000      0.000      0.300      0.000 
     119      0.000      0.000      0.300      0.000 
     120      0.000      0.000      0.300      0.000 
     121      0.000      0.000      0.300      0.000 
     122      0.000      0.000      0.000      0.000 
     123      0.000      0.000      0.300      0.000 

Improper Coeffs 

       1      0.000      -1       2 
       2      0.000      -1       2 
       3      0.000      -1       2 
       4      0.000      -1       2 
       5      0.000      -1       2 
       6      0.000      -1       2 
       7      0.000      -1       2 
       8      0.000      -1       2 
       9      0.000      -1       2 
      10      0.000      -1       2 
      11      0.000      -1       2 
      12      0.000      -1       2 
      13      0.000      -1       2 
      14      0.000      -1       2 
      15      0.000      -1       2 
      16      0.000      -1       2 
      17      0.000      -1       2 
      18      0.000      -1       2 
      19      0.000      -1       2 
      20      0.000      -1       2 
      21      0.000      -1       2 
      22      0.000      -1       2 
      23      0.000      -1       2 
      24      0.000      -1       2 

Atoms 

     1      1      1 -0.23550000    1.000  1.00000  0.00000
     2      1      2 -0.15200000   -0.516  1.00000  0.00000
     3      1      3 -0.13660000   -1.108  1.00000  1.38809
     4      1      4 -0.19710000   -2.601  0.79848  1.48209
     5      1      5 -0.14060000   -3.481  1.39046  2.53184
     6      1      6 -0.17040000   -4.165  0.24825  3.28077
     7      1      7 -0.16500000   -3.193 -0.77312  3.89752
     8      1      8 -0.03040000   -1.732 -0.70745  3.40089
     9      1      9 -0.10720000   -0.781 -0.02651  4.40447
    10      1     10 -0.19890000   -1.144  1.33466  4.94249
    11      1     11 -0.24790000   -0.095 -0.95408  5.40066
    12      1     12 -0.23080000    0.703 -0.33316  4.28960
    13      1     13 -0.17190000   -1.662 -0.29467  1.94587
    14      1     14 0.08190000    1.380  0.87753 -1.01908
    15      1     15 0.08190000    1.394  0.17838  0.61181
    16      1     16 0.08190000    1.391  1.93856  0.39903
    17      1     17 0.09010000   -0.863  0.12193 -0.56082
    18      1     18 0.09010000   -0.873  1.88327 -0.54380
    19      1     19 0.14200000   -0.638  1.71934  2.04166
    20      1     20 0.12670000   -3.150  0.63176  0.56108
    21      1     21 0.09290000   -4.240  2.02627  2.06224
    22      1     22 0.09290000   -2.931  2.03956  3.21442
    23      1     23 0.08500000   -4.804 -0.28901  2.56509
    24      1     24 0.08500000   -4.836  0.63899  4.05354
    25      1     25 0.08730000   -3.586 -1.77055  3.65342
    26      1     26 0.08730000   -3.234 -0.71330  4.99171
    27      1     27 0.08700000   -1.406 -1.75686  3.38518
    28      1     28 0.08490000   -2.193  1.38492  5.24788
    29      1     29 0.08490000   -0.944  2.11644  4.20629
    30      1     30 0.08490000   -0.555  1.58630  5.83255
    31      1     31 0.12170000   -0.291 -2.02024  5.35485
    32      1     32 0.12170000    0.073 -0.60032  6.41373
    33      1     33 0.12390000    1.040 -0.97368  3.48355
    34      1     34 0.12390000    1.413  0.44367  4.55427
    35      1     35 0.12650000   -1.631 -1.17665  1.30849

Bonds 

     1      1      2      1
     2      2      3      2
     3      3      4      3
     4      4      5      4
     5      5      6      5
     6      6      7      6
     7      7      8      7
     8      8      9      8
     9      9     10      9
    10     10     11      9
    11     11     12      9
    12     12     13      3
    13     13     14      1
    14     14     15      1
    15     15     16      1
    16     16     17      2
    17     17     18      2
    18     18     19      3
    19     19     20      4
    20     20     21      5
    21     21     22      5
    22     22     23      6
    23     23     24      6
    24     24     25      7
    25     25     26      7
    26     26     27      8
    27     27     28     10
    28     28     29     10
    29     29     30     10
    30     30     31     11
    31     31     32     11
    32     32     33     12
    33     33     34     12
    34     34     35     13
    35     35     13      4
    36     36     13      8
    37     37     12     11

Angles 

     1      1      1      2      3
     2      2      2      3      4
     3      3      3      4      5
     4      4      4      5      6
     5      5      5      6      7
     6      6      6      7      8
     7      7      7      8      9
     8      8      8      9     10
     9      9      8      9     11
    10     10      8      9     12
    11     11      2      3     13
    12     12      2      1     14
    13     13      2      1     15
    14     14      2      1     16
    15     15      1      2     17
    16     16      1      2     18
    17     17      2      3     19
    18     18      3      4     20
    19     19      4      5     21
    20     20      4      5     22
    21     21      5      6     23
    22     22      5      6     24
    23     23      6      7     25
    24     24      6      7     26
    25     25      7      8     27
    26     26      9     10     28
    27     27      9     10     29
    28     28      9     10     30
    29     29      9     11     31
    30     30      9     11     32
    31     31      9     12     33
    32     32      9     12     34
    33     33      3     13     35
    34     34      9     11     12
    35     35     11     12     33
    36     36     12     11     31
    37     37     13      4     20
    38     38     21      5     22
    39     39      7      6     24
    40     40      8      7     26
    41     41      3     13      4
    42     42      3      2     18
    43     43      4     13      8
    44     44      6      5     22
    45     45      3      2     17
    46     46     28     10     29
    47     47      3      4     13
    48     48     11     12     34
    49     49      4      3     19
    50     50      5      4     13
    51     51     31     11     32
    52     52      9      8     13
    53     53     13      3     19
    54     54     33     12     34
    55     55      8      7     25
    56     56     15      1     16
    57     57     14      1     15
    58     58      4     13     35
    59     59     25      7     26
    60     60     12     11     32
    61     61     17      2     18
    62     62     28     10     30
    63     63     23      6     24
    64     64      6      5     21
    65     65      5      4     20
    66     66     10      9     11
    67     67      9     12     11
    68     68      3     13      8
    69     69     13      8     27
    70     70     11      9     12
    71     71     14      1     16
    72     72      8     13     35
    73     73      4      3     13
    74     74      7      6     23
    75     75     10      9     12
    76     76      7      8     13
    77     77      9      8     27
    78     78     29     10     30

Dihedrals

     1      1      4      3      2      1 
     2      2      5      4      3      2 
     3      3      6      5      4      3 
     4      4      7      6      5      4 
     5      5      8      7      6      5 
     6      6      9      8      7      6 
     7      7     10      9      8      7 
     8      8     13      3      2      4 
     9      9     14      1      2      3 
    10     10     28     10      9      8 
    11     11     31     11      9     12 
    12     12     32     11      9     12 
    13     13     33     12      9     11 
    14     14     34     12      9     11 
    15     15     35     13      3      4 
    16     16     23      6      7      8 
    17     17     30     10      9     12 
    18     18      9      8     13      4 
    19     19     27      8      9     11 
    20     20     23      6      5      4 
    21     21     13      8      7      6 
    22     22     24      6      5     22 
    23     23      8     13      3      4 
    24     24     33     12     11     31 
    25     25     34     12      9      8 
    26     26     19      3     13      8 
    27     27     13      8      9     10 
    28     28     19      3      4     13 
    29     29      9      8     13      3 
    30     30     17      2      3     13 
    31     31     32     11      9      8 
    32     32     21      5      4      3 
    33     33     11      9      8      7 
    34     34     25      7      6     23 
    35     35      8     13      4      5 
    36     36     13      4      5      6 
    37     37     17      2      1     16 
    38     38     18      2      1     15 
    39     39     17      2      3      4 
    40     40     19      3      2      1 
    41     41     13      8      9     12 
    42     42     34     12     11      9 
    43     43     21      5      4     20 
    44     44     34     12     11     32 
    45     45     23      6      5     21 
    46     46     35     13      8      9 
    47     47     18      2      1     14 
    48     48     17      2      1     15 
    49     49     35     13      3     19 
    50     50     29     10      9      8 
    51     51     26      7      8     13 
    52     52     27      8      7      6 
    53     53     32     11      9     10 
    54     54     22      5      4     13 
    55     55     26      7      6     24 
    56     56     22      5      4      3 
    57     57     35     13      4      3 
    58     58     35     13      8      7 
    59     59     27      8      9     10 
    60     60     28     10      9     12 
    61     61     29     10      9     11 
    62     62     27      8      7     26 
    63     63     34     12      9     10 
    64     64     27      8     13      4 
    65     65      8     13      3      2 
    66     66     21      5      6      7 
    67     67      8     13      4      3 
    68     68     13      8      9     11 
    69     69     25      7      6      5 
    70     70     20      4      5      6 
    71     71      5      4     13      3 
    72     72     27      8      9     12 
    73     73     26      7      6     23 
    74     74     25      7      6     24 
    75     75     34     12     11     31 
    76     76     33     12     11     32 
    77     77     33     12      9     10 
    78     78     24      6      5      4 
    79     79     19      3     13      4 
    80     80     31     11     12      9 
    81     81     30     10      9     11 
    82     82     29     10      9     12 
    83     83     22      5      6      7 
    84     84     31     11      9     10 
    85     85     20      4      3      2 
    86     86     25      7      8     13 
    87     87     20      4     13      8 
    88     88     20      4     13      3 
    89     89     31     11      9      8 
    90     90     35     13      4      5 
    91     91     15      1      2      3 
    92     92     35     13      8     27 
    93     93     24      6      7      8 
    94     94     17      2      1     14 
    95     95      7      8     13      4 
    96     96     18      2      3     13 
    97     97     22      5      4     20 
    98     98     24      6      5     21 
    99     99     23      6      5     22 
   100    100     26      7      8      9 
   101    101     33     12     11      9 
   102    102     35     13      4     20 
   103    103     19      3      2     18 
   104    104     20      4      3     13 
   105    105     27      8     13      3 
   106    106     19      3      2     17 
   107    107     20      4      3     19 
   108    108     33     12      9      8 
   109    109     27      8      7     25 
   110    110      7      8     13      3 
   111    111     19      3      4      5 
   112    112     18      2      3      4 
   113    113     30     10      9      8 
   114    114     26      7      6      5 
   115    115     32     11     12      9 
   116    116     12      9      8      7 
   117    117     35     13      3      2 
   118    118     16      1      2      3 
   119    119     21      5      4     13 
   120    120     25      7      8      9 
   121    121     28     10      9     11 
   122    122     13      3      2      1 
   123    123     18      2      1     16 

Impropers

     1      1      9     10     11      8 
     2      2      9     10     12      8 
     3      3      1      2     14     15 
     4      4      1      2     14     16 
     5      5      2     17      3      1 
     6      6      2      1     18      3 
     7      7      3      2     19      4 
     8      8      4      3     20      5 
     9      9      5      4     21      6 
    10     10      5      4     22      6 
    11     11      6      7      5     23 
    12     12      6      5      7     24 
    13     13      7     25      6      8 
    14     14      7     26      6      8 
    15     15      8      9     27      7 
    16     16     10      9     28     29 
    17     17     10      9     28     30 
    18     18      9     11     12      8 
    19     19      9     11     12     10 
    20     20      3      4     13      2 
    21     21      4      3     13      5 
    22     22      9     11     12     10 
    23     23      9     11     12      8 
    24     24      3      4     13      2 

