LAMMPS data file Created by LigParGen - (Written by Leela S. Dodda)

      41 atoms
      42 bonds
      81 angles
     115 dihedrals
      25 impropers
 
      41 atom types
      42 bond types
      81 angle types
     115 dihedral types
      25 improper types
 
   -4.531100    45.468900 xlo xhi
   -3.439750    46.560250 ylo yhi
   -0.965110    49.034890 zlo zhi

Masses

       1     12.011  
       2     12.011  
       3     12.011  
       4     15.999  
       5     12.011  
       6     15.999  
       7     15.999  
       8     12.011  
       9     12.011  
      10     12.011  
      11     12.011  
      12     12.011  
      13     14.007  
      14     12.011  
      15     12.011  
      16     12.011  
      17     15.999  
      18     12.011  
      19      1.008  
      20      1.008  
      21      1.008  
      22      1.008  
      23      1.008  
      24      1.008  
      25      1.008  
      26      1.008  
      27      1.008  
      28      1.008  
      29      1.008  
      30      1.008  
      31      1.008  
      32      1.008  
      33      1.008  
      34      1.008  
      35      1.008  
      36      1.008  
      37      1.008  
      38      1.008  
      39      1.008  
      40      1.008  
      41      1.008  

Pair Coeffs 

       1      0.066  3.5000000 
       2      0.066  3.5000000 
       3      0.066  3.5000000 
       4      0.140  2.9000000 
       5      0.070  3.5500000 
       6      0.210  2.9600000 
       7      0.140  2.9000000 
       8      0.066  3.5000000 
       9      0.066  3.5000000 
      10      0.066  3.5000000 
      11      0.066  3.5000000 
      12      0.066  3.5000000 
      13      0.170  3.3000000 
      14      0.066  3.5000000 
      15      0.066  3.5000000 
      16      0.066  3.5000000 
      17      0.140  2.9000000 
      18      0.066  3.5000000 
      19      0.030  2.5000000 
      20      0.030  2.5000000 
      21      0.030  2.5000000 
      22      0.030  2.5000000 
      23      0.030  2.5000000 
      24      0.030  2.5000000 
      25      0.030  2.5000000 
      26      0.030  2.5000000 
      27      0.030  2.5000000 
      28      0.030  2.5000000 
      29      0.030  2.5000000 
      30      0.030  2.5000000 
      31      0.030  2.5000000 
      32      0.030  2.5000000 
      33      0.030  2.5000000 
      34      0.030  2.5000000 
      35      0.030  2.5000000 
      36      0.030  2.5000000 
      37      0.030  2.5000000 
      38      0.030  2.5000000 
      39      0.030  2.5000000 
      40      0.030  2.5000000 
      41      0.030  2.5000000 

Bond Coeffs 

       1   268.0000     1.5290 
       2   268.0000     1.5290 
       3   320.0000     1.4100 
       4   214.0000     1.3270 
       5   570.0000     1.2290 
       6   214.0000     1.3270 
       7   268.0000     1.5290 
       8   268.0000     1.5290 
       9   268.0000     1.5290 
      10   268.0000     1.5290 
      11   268.0000     1.5290 
      12   382.0000     1.4480 
      13   382.0000     1.4480 
      14   268.0000     1.5290 
      15   268.0000     1.5290 
      16   320.0000     1.4100 
      17   320.0000     1.4100 
      18   340.0000     1.0900 
      19   340.0000     1.0900 
      20   340.0000     1.0900 
      21   340.0000     1.0900 
      22   340.0000     1.0900 
      23   340.0000     1.0900 
      24   340.0000     1.0900 
      25   340.0000     1.0900 
      26   340.0000     1.0900 
      27   340.0000     1.0900 
      28   340.0000     1.0900 
      29   340.0000     1.0900 
      30   340.0000     1.0900 
      31   340.0000     1.0900 
      32   340.0000     1.0900 
      33   340.0000     1.0900 
      34   340.0000     1.0900 
      35   340.0000     1.0900 
      36   340.0000     1.0900 
      37   340.0000     1.0900 
      38   340.0000     1.0900 
      39   340.0000     1.0900 
      40   340.0000     1.0900 
      41   320.0000     1.4100 
      42   382.0000     1.4480 

Angle Coeffs 

       1     58.350    112.700
       2     50.000    109.500
       3     83.000    116.900
       4     83.000    123.400
       5     69.900    118.180
       6     58.350    112.700
       7     58.350    112.700
       8     58.350    112.700
       9     58.350    112.700
      10     58.350    112.700
      11     56.200    109.470
      12     51.800    107.200
      13     58.350    112.700
      14     58.350    112.700
      15     50.000    109.500
      16     60.000    109.500
      17     37.500    110.700
      18     37.500    110.700
      19     37.500    110.700
      20     37.500    110.700
      21     37.500    110.700
      22     37.500    110.700
      23     37.500    110.700
      24     37.500    110.700
      25     37.500    110.700
      26     37.500    110.700
      27     37.500    110.700
      28     37.500    110.700
      29     37.500    110.700
      30     37.500    110.700
      31     35.000    109.500
      32     35.000    109.500
      33     35.000    109.500
      34     37.500    110.700
      35     37.500    110.700
      36     37.500    110.700
      37     35.000    109.500
      38     35.000    109.500
      39     35.000    109.500
      40     33.000    107.800
      41     33.000    107.800
      42     33.000    107.800
      43     83.000    116.900
      44     37.500    110.700
      45     35.000    109.500
      46     50.000    109.500
      47     33.000    107.800
      48     33.000    107.800
      49     33.000    107.800
      50     33.000    107.800
      51     37.500    110.700
      52     35.000    109.500
      53     58.350    112.700
      54     35.000    109.500
      55     33.000    107.800
      56     51.800    107.200
      57     37.500    110.700
      58     37.500    110.700
      59     33.000    107.800
      60     35.000    109.500
      61     37.500    110.700
      62     33.000    107.800
      63     58.350    112.700
      64     83.000    123.400
      65     51.800    107.200
      66     50.000    109.500
      67     37.500    110.700
      68     33.000    107.800
      69     33.000    107.800
      70     33.000    107.800
      71     33.000    107.800
      72     33.000    107.800
      73     33.000    107.800
      74     50.000    109.500
      75     33.000    107.800
      76     56.200    109.470
      77     35.000    109.500
      78     50.000    109.500
      79     50.000    109.500
      80     37.500    110.700
      81     56.200    109.470

Dihedral Coeffs  

       1      1.711     -0.500      0.663      0.000 
       2     -1.220     -0.126      0.422      0.000 
       3      0.000      5.124      0.000      0.000 
       4      1.300     -0.200      0.200      0.000 
       5      1.300     -0.200      0.200      0.000 
       6      2.392     -0.674      0.550      0.000 
       7      0.416     -0.128      0.695      0.000 
       8      1.711     -0.500      0.663      0.000 
       9      0.650     -0.250      0.670      0.000 
      10      0.000      0.000      0.300      0.000 
      11      0.000      0.000      0.300      0.000 
      12      0.000      0.000      0.560      0.000 
      13      0.000      0.000      0.760      0.000 
      14     -1.220     -0.126      0.422      0.000 
      15     -1.013     -0.709      0.473      0.000 
      16     -1.220     -0.126      0.422      0.000 
      17      0.000      0.000      0.300      0.000 
      18      0.000      0.000      0.300      0.000 
      19      1.300     -0.200      0.200      0.000 
      20      0.000      0.000      0.560      0.000 
      21      0.000      0.000      0.300      0.000 
      22      0.000      0.000      0.300      0.000 
      23      1.300     -0.200      0.200      0.000 
      24      0.000      0.000      0.300      0.000 
      25      0.000      0.000      0.300      0.000 
      26      0.000      0.000      0.300      0.000 
      27      0.000      0.000      0.300      0.000 
      28      0.000      0.000      0.560      0.000 
      29      0.000      0.000      0.300      0.000 
      30      0.000      0.000      0.468      0.000 
      31      0.000      0.000      0.300      0.000 
      32      0.000      0.000      0.468      0.000 
      33      0.416     -0.128      0.695      0.000 
      34      1.300     -0.200      0.200      0.000 
      35      0.000      0.000      0.300      0.000 
      36      0.000      0.000      0.468      0.000 
      37      1.300     -0.200      0.200      0.000 
      38     -1.220     -0.126      0.422      0.000 
      39      0.000      0.000      0.300      0.000 
      40      0.000      0.000      0.300      0.000 
      41      1.300     -0.200      0.200      0.000 
      42      0.000      0.000      0.300      0.000 
      43      1.711     -0.500      0.663      0.000 
      44      8.000      0.000      0.000      0.000 
      45      1.711     -0.500      0.663      0.000 
      46      2.392     -0.674      0.550      0.000 
      47     -0.550      0.000      0.000      0.000 
      48      1.300     -0.200      0.200      0.000 
      49      0.000      0.000      0.560      0.000 
      50     -1.013     -0.709      0.473      0.000 
      51      0.416     -0.128      0.695      0.000 
      52      0.000      0.000      0.300      0.000 
      53      0.000      0.000      0.300      0.000 
      54      0.000      0.000      0.300      0.000 
      55      0.416     -0.128      0.695      0.000 
      56      0.000      0.000      0.300      0.000 
      57      0.000      0.000      0.300      0.000 
      58      0.000      0.000      0.300      0.000 
      59      0.000      0.000      0.300      0.000 
      60      0.000      0.000      0.468      0.000 
      61      1.711     -0.500      0.663      0.000 
      62      0.000      0.000      0.300      0.000 
      63      0.000      0.000      0.300      0.000 
      64      0.000      0.000      0.760      0.000 
      65      1.711     -0.500      0.663      0.000 
      66      0.000      0.000      0.468      0.000 
      67      0.000      0.000      0.468      0.000 
      68      0.000      0.000      0.300      0.000 
      69      0.000      0.000      0.300      0.000 
      70     -1.220     -0.126      0.422      0.000 
      71      1.711     -0.500      0.663      0.000 
      72     -1.013     -0.709      0.473      0.000 
      73      0.000      0.000      0.300      0.000 
      74      0.000      0.000      0.300      0.000 
      75      0.000      0.000      0.560      0.000 
      76      0.416     -0.128      0.695      0.000 
      77      0.000      0.000      0.560      0.000 
      78      0.000      0.000      0.760      0.000 
      79      2.392     -0.674      0.550      0.000 
      80      0.000      0.000      0.300      0.000 
      81      0.000      0.000      0.560      0.000 
      82      0.000      0.000      0.300      0.000 
      83      1.711     -0.500      0.663      0.000 
      84      0.000      0.000      0.560      0.000 
      85      0.000      0.000      0.560      0.000 
      86      0.000      0.000      0.300      0.000 
      87      0.000      0.000      0.300      0.000 
      88      1.300     -0.200      0.200      0.000 
      89      0.000      0.000      0.300      0.000 
      90      0.000      0.000      0.560      0.000 
      91      1.300     -0.200      0.200      0.000 
      92      0.416     -0.128      0.695      0.000 
      93      0.000      0.000      0.300      0.000 
      94      0.000      0.000      0.300      0.000 
      95      8.000      0.000      0.000      0.000 
      96      0.000      0.000      0.300      0.000 
      97      0.000      0.000      0.300      0.000 
      98      0.000      5.124      0.000      0.000 
      99      0.000      0.000      0.300      0.000 
     100      0.000      0.000      0.300      0.000 
     101     -1.013     -0.709      0.473      0.000 
     102      4.669      5.124      0.000      0.000 
     103      0.000      0.000      0.560      0.000 
     104      0.000      0.000      0.300      0.000 
     105      1.300     -0.200      0.200      0.000 
     106      0.000      0.000      0.468      0.000 
     107      0.000      0.000      0.300      0.000 
     108      0.000      0.000      0.760      0.000 
     109     -1.220     -0.126      0.422      0.000 
     110      0.000      0.000      0.468      0.000 
     111      0.000      0.000      0.300      0.000 
     112      0.000      0.000      0.560      0.000 
     113      0.000      0.000      0.468      0.000 
     114      4.669      5.124      0.000      0.000 
     115      0.000      0.000      0.760      0.000 

Improper Coeffs 

       1     10.500      -1       2 
       2      0.000      -1       2 
       3      0.000      -1       2 
       4      0.000      -1       2 
       5      0.000      -1       2 
       6      0.000      -1       2 
       7      0.000      -1       2 
       8      0.000      -1       2 
       9      0.000      -1       2 
      10      0.000      -1       2 
      11      0.000      -1       2 
      12      0.000      -1       2 
      13      0.000      -1       2 
      14      0.000      -1       2 
      15      0.000      -1       2 
      16      0.000      -1       2 
      17      0.000      -1       2 
      18      0.000      -1       2 
      19      0.000      -1       2 
      20      0.000      -1       2 
      21      0.000      -1       2 
      22      0.000      -1       2 
      23      0.000      -1       2 
      24      0.000      -1       2 
      25      0.000      -1       2 

Atoms 

     1      1      1 -0.24190000    1.000  1.00000  0.00000
     2      1      2 -0.18650000   -0.532  1.00000  0.00000
     3      1      3 0.13190000   -1.183  1.00000  1.42520
     4      1      4 -0.35200000   -0.708  2.19144  2.07768
     5      1      5 0.56940000   -1.585  3.19526  1.83232
     6      1      6 -0.39020000   -1.341  4.37885  1.98378
     7      1      7 -0.34990000   -2.770  2.69711  1.39728
     8      1      8 0.12510000   -2.713  1.25392  1.38893
     9      1      9 -0.23320000   -3.458  0.84573  0.10881
    10      1     10 -0.18230000   -3.508  0.77110  2.62149
    11      1     11 -0.16610000   -3.811 -0.73056  2.67404
    12      1     12 0.00960000   -2.636 -1.71487  2.75290
    13      1     13 -0.57030000   -1.527 -1.42053  1.84069
    14      1     14 -0.05200000   -0.676 -2.60838  1.68368
    15      1     15 0.08680000   -0.716 -0.25445  2.24467
    16      1     16 -0.01750000   -0.511  0.02142  3.76981
    17      1     17 -0.39270000    0.138 -1.08842  4.40590
    18      1     18 -0.05130000    0.325 -0.84056  5.79568
    19      1     19 0.09140000    1.378  1.35151 -0.96511
    20      1     20 0.09140000    1.398 -0.00941  0.14724
    21      1     21 0.09140000    1.412  1.65217  0.77625
    22      1     22 0.11180000   -0.881  0.14379 -0.58979
    23      1     23 0.11180000   -0.836  1.90857 -0.53481
    24      1     24 0.10730000   -3.140  1.44021 -0.75356
    25      1     25 0.10730000   -4.531  1.05904  0.21393
    26      1     26 0.10730000   -3.345 -0.21464 -0.12766
    27      1     27 0.10670000   -4.480  1.28959  2.62130
    28      1     28 0.10670000   -3.050  1.12722  3.54727
    29      1     29 0.09660000   -4.423 -0.99666  1.81006
    30      1     30 0.09660000   -4.447 -0.91596  3.54850
    31      1     31 0.09160000   -3.058 -2.69613  2.48979
    32      1     32 0.09160000   -2.300 -1.82821  3.78854
    33      1     33 0.09150000   -1.255 -3.43975  1.26451
    34      1     34 0.09150000   -0.232 -2.93764  2.62795
    35      1     35 0.09150000    0.129 -2.41427  0.96545
    36      1     36 0.13020000    0.311 -0.46242  1.92455
    37      1     37 0.09680000   -1.451  0.20488  4.28947
    38      1     38 0.09680000    0.128  0.90127  3.90728
    39      1     39 0.08510000    0.735 -1.74307  6.25456
    40      1     40 0.08510000   -0.631 -0.60836  6.27622
    41      1     41 0.08510000    1.030 -0.01676  5.94253

Bonds 

     1      1      2      1
     2      2      3      2
     3      3      4      3
     4      4      5      4
     5      5      6      5
     6      6      7      5
     7      7      8      3
     8      8      9      8
     9      9     10      8
    10     10     11     10
    11     11     12     11
    12     12     13     12
    13     13     14     13
    14     14     15      3
    15     15     16     15
    16     16     17     16
    17     17     18     17
    18     18     19      1
    19     19     20      1
    20     20     21      1
    21     21     22      2
    22     22     23      2
    23     23     24      9
    24     24     25      9
    25     25     26      9
    26     26     27     10
    27     27     28     10
    28     28     29     11
    29     29     30     11
    30     30     31     12
    31     31     32     12
    32     32     33     14
    33     33     34     14
    34     34     35     14
    35     35     36     15
    36     36     37     16
    37     37     38     16
    38     38     39     18
    39     39     40     18
    40     40     41     18
    41     41      8      7
    42     42     15     13

Angles 

     1      1      1      2      3
     2      2      2      3      4
     3      3      3      4      5
     4      4      4      5      6
     5      5      4      5      7
     6      6      2      3      8
     7      7      3      8      9
     8      8      3      8     10
     9      9      8     10     11
    10     10     10     11     12
    11     11     11     12     13
    12     12     12     13     14
    13     13      2      3     15
    14     14      3     15     16
    15     15     15     16     17
    16     16     16     17     18
    17     17      2      1     19
    18     18      2      1     20
    19     19      2      1     21
    20     20      1      2     22
    21     21      1      2     23
    22     22      8      9     24
    23     23      8      9     25
    24     24      8      9     26
    25     25      8     10     27
    26     26      8     10     28
    27     27     10     11     29
    28     28     10     11     30
    29     29     11     12     31
    30     30     11     12     32
    31     31     13     14     33
    32     32     13     14     34
    33     33     13     14     35
    34     34      3     15     36
    35     35     15     16     37
    36     36     15     16     38
    37     37     17     18     39
    38     38     17     18     40
    39     39     17     18     41
    40     40     27     10     28
    41     41     25      9     26
    42     42     33     14     34
    43     43      5      7      8
    44     44     11     10     27
    45     45     17     16     38
    46     46      3      8      7
    47     47     20      1     21
    48     48     34     14     35
    49     49     24      9     25
    50     50     37     16     38
    51     51     16     15     36
    52     52     13     12     32
    53     53      9      8     10
    54     54     13     12     31
    55     55     19      1     20
    56     56     14     13     15
    57     57      3      2     22
    58     58      3      2     23
    59     59     39     18     41
    60     60     17     16     37
    61     61     12     11     30
    62     62     22      2     23
    63     63      8      3     15
    64     64      6      5      7
    65     65     12     13     15
    66     66      7      8     10
    67     67     11     10     28
    68     68     31     12     32
    69     69     33     14     35
    70     70     40     18     41
    71     71     19      1     21
    72     72     39     18     40
    73     73     24      9     26
    74     74      7      8      9
    75     75     29     11     30
    76     76      3     15     13
    77     77     13     15     36
    78     78      4      3      8
    79     79      4      3     15
    80     80     12     11     29
    81     81     13     15     16

Dihedrals

     1      1      4      3      2      1 
     2      2      5      4      3      2 
     3      3      6      5      4      3 
     4      4     11     10      8      3 
     5      5     12     11     10      8 
     6      6     13     12     11     10 
     7      7     14     13     12     11 
     8      8     17     16     15      3 
     9      9     18     17     16     15 
    10     10     19      1      2      3 
    11     11     24      9      8      3 
    12     12     33     14     13     12 
    13     13     39     18     17     16 
    14     14     10      8      7      5 
    15     15     37     16     15     13 
    16     16     15      3      4      5 
    17     17     26      9      8      3 
    18     18     27     10      8      9 
    19     19     16     15      3      8 
    20     20     33     14     13     15 
    21     21     31     12     11     30 
    22     22     23      2      1     21 
    23     23     16     15      3      2 
    24     24     37     16     15      3 
    25     25     29     11     10     28 
    26     26     30     11     10     27 
    27     27     30     11     10      8 
    28     28     36     15     13     12 
    29     29     22      2      3      8 
    30     30     26      9      8      7 
    31     31     24      9      8     10 
    32     32     23      2      3      4 
    33     33     14     13     15      3 
    34     34      8      3      2      1 
    35     35     26      9      8     10 
    36     36     36     15     16     17 
    37     37     15      3      8      9 
    38     38      5      7      8      3 
    39     39     27     10     11     12 
    40     40     22      2      1     21 
    41     41     15      3      2      1 
    42     42     23      2      1     19 
    43     43     15      3      8      7 
    44     44     13     15      3      4 
    45     45     10      8      3      4 
    46     46     13     15      3      8 
    47     47      7      8      3      4 
    48     48      9      8      3      2 
    49     49     34     14     13     12 
    50     50     30     11     12     13 
    51     51     16     15     13     14 
    52     52     23      2      3     15 
    53     53     22      2      1     20 
    54     54     25      9      8      3 
    55     55     16     15     13     12 
    56     56     36     15      3      8 
    57     57     30     11     10     28 
    58     58     31     12     11     29 
    59     59     29     11     10     27 
    60     60     24      9      8      7 
    61     61      9      8      3      4 
    62     62     21      1      2      3 
    63     63     38     16     15     36 
    64     64     38     16     17     18 
    65     65     16     15      3      4 
    66     66     25      9      8      7 
    67     67     28     10      8      7 
    68     68     22      2      1     19 
    69     69     27     10      8      3 
    70     70      9      8      7      5 
    71     71      7      8      3      2 
    72     72     38     16     15     13 
    73     73     25      9      8     10 
    74     74     29     11     10      8 
    75     75     36     15     13     14 
    76     76     12     13     15      3 
    77     77     32     12     13     15 
    78     78     37     16     17     18 
    79     79     13     15      3      2 
    80     80     28     10      8      3 
    81     81     35     14     13     12 
    82     82     28     10     11     12 
    83     83     11     10      8      7 
    84     84     31     12     13     15 
    85     85     32     12     13     14 
    86     86     20      1      2      3 
    87     87     23      2      3      8 
    88     88     10      8      3      2 
    89     89     36     15      3      2 
    90     90     35     14     13     15 
    91     91     15      3      8     10 
    92     92     15     13     12     11 
    93     93     37     16     15     36 
    94     94     38     16     15      3 
    95     95     17     16     15     13 
    96     96     28     10      8      9 
    97     97     32     12     11     29 
    98     98      8      7      5      6 
    99     99     22      2      3     15 
   100    100     32     12     11     10 
   101    101     29     11     12     13 
   102    102      7      5      4      3 
   103    103     34     14     13     15 
   104    104     23      2      1     20 
   105    105     11     10      8      9 
   106    106     22      2      3      4 
   107    107     32     12     11     30 
   108    108     40     18     17     16 
   109    109      8      3      4      5 
   110    110     36     15      3      4 
   111    111     31     12     11     10 
   112    112     31     12     13     14 
   113    113     27     10      8      7 
   114    114      8      7      5      4 
   115    115     41     18     17     16 

Impropers

     1      1      5      4      6      7 
     2      2      3      2      4      8 
     3      3      8      9      3      7 
     4      4      8     10      3      7 
     5      5      3      2      4     15 
     6      6     15      3     13     16 
     7      7      1      2     19     20 
     8      8      1      2     19     21 
     9      9      2      1      3     22 
    10     10      2      1      3     23 
    11     11      9     25     24      8 
    12     12      9     26     24      8 
    13     13     10     27     11      8 
    14     14     10     11     28      8 
    15     15     11     10     12     29 
    16     16     11     10     12     30 
    17     17     12     11     13     31 
    18     18     12     11     13     32 
    19     19     14     33     34     13 
    20     20     14     33     35     13 
    21     21     15      3     36     13 
    22     22     16     17     37     15 
    23     23     16     17     38     15 
    24     24     18     17     39     40 
    25     25     18     41     39     17 

