LAMMPS data file Created by LigParGen - (Written by Leela S. Dodda)

      43 atoms
      42 bonds
      76 angles
      91 dihedrals
      24 impropers
 
      43 atom types
      42 bond types
      76 angle types
      91 dihedral types
      24 improper types
 
   -8.408750    41.591250 xlo xhi
   -2.326020    47.673980 ylo yhi
   -1.025870    48.974130 zlo zhi

Masses

       1     12.011  
       2     12.011  
       3     12.011  
       4     12.011  
       5     12.011  
       6     12.011  
       7     15.999  
       8     12.011  
       9     15.999  
      10     12.011  
      11     15.999  
      12     15.999  
      13     12.011  
      14     12.011  
      15     12.011  
      16     14.007  
      17     14.007  
      18     12.011  
      19     12.011  
      20      1.008  
      21      1.008  
      22      1.008  
      23      1.008  
      24      1.008  
      25      1.008  
      26      1.008  
      27      1.008  
      28      1.008  
      29      1.008  
      30      1.008  
      31      1.008  
      32      1.008  
      33      1.008  
      34      1.008  
      35      1.008  
      36      1.008  
      37      1.008  
      38      1.008  
      39      1.008  
      40      1.008  
      41      1.008  
      42      1.008  
      43      1.008  

Pair Coeffs 

       1      0.066  3.5000000 
       2      0.066  3.5000000 
       3      0.066  3.5000000 
       4      0.066  3.5000000 
       5      0.066  3.5000000 
       6      0.066  3.5000000 
       7      0.140  2.9000000 
       8      0.066  3.5000000 
       9      0.140  2.9000000 
      10      0.070  3.5500000 
      11      0.210  2.9600000 
      12      0.140  2.9000000 
      13      0.066  3.5000000 
      14      0.066  3.5000000 
      15      0.066  3.3000000 
      16      0.170  3.2000000 
      17      0.170  3.3000000 
      18      0.066  3.5000000 
      19      0.066  3.5000000 
      20      0.030  2.5000000 
      21      0.030  2.5000000 
      22      0.030  2.5000000 
      23      0.030  2.5000000 
      24      0.030  2.5000000 
      25      0.030  2.5000000 
      26      0.030  2.5000000 
      27      0.030  2.5000000 
      28      0.030  2.5000000 
      29      0.030  2.5000000 
      30      0.030  2.5000000 
      31      0.030  2.5000000 
      32      0.030  2.5000000 
      33      0.030  2.5000000 
      34      0.030  2.5000000 
      35      0.030  2.5000000 
      36      0.030  2.5000000 
      37      0.030  2.5000000 
      38      0.030  2.5000000 
      39      0.030  2.5000000 
      40      0.030  2.5000000 
      41      0.030  2.5000000 
      42      0.030  2.5000000 
      43      0.030  2.5000000 

Bond Coeffs 

       1   268.0000     1.5290 
       2   268.0000     1.5290 
       3   268.0000     1.5290 
       4   268.0000     1.5290 
       5   268.0000     1.5290 
       6   320.0000     1.3800 
       7   320.0000     1.4100 
       8   320.0000     1.3800 
       9   214.0000     1.3270 
      10   570.0000     1.2290 
      11   214.0000     1.3270 
      12   320.0000     1.4100 
      13   268.0000     1.5290 
      14   390.0000     1.4700 
      15   650.0000     1.1570 
      16   382.0000     1.4480 
      17   382.0000     1.4480 
      18   382.0000     1.4480 
      19   340.0000     1.0900 
      20   340.0000     1.0900 
      21   340.0000     1.0900 
      22   340.0000     1.0900 
      23   340.0000     1.0900 
      24   340.0000     1.0900 
      25   340.0000     1.0900 
      26   340.0000     1.0900 
      27   340.0000     1.0900 
      28   340.0000     1.0900 
      29   340.0000     1.0900 
      30   340.0000     1.0900 
      31   340.0000     1.0900 
      32   340.0000     1.0900 
      33   340.0000     1.0900 
      34   340.0000     1.0900 
      35   340.0000     1.0900 
      36   340.0000     1.0900 
      37   340.0000     1.0900 
      38   340.0000     1.0900 
      39   340.0000     1.0900 
      40   340.0000     1.0900 
      41   340.0000     1.0900 
      42   340.0000     1.0900 

Angle Coeffs 

       1     58.350    112.700
       2     58.350    112.700
       3     58.350    112.700
       4     58.350    112.700
       5     50.000    109.500
       6     60.000    109.500
       7     50.000    109.500
       8     83.000    116.900
       9     83.000    123.400
      10     69.900    118.180
      11     83.000    116.900
      12     58.350    112.700
      13     58.350    112.700
      14    150.000    180.000
      15     56.200    109.470
      16     51.800    107.200
      17     51.800    107.200
      18     37.500    110.700
      19     37.500    110.700
      20     37.500    110.700
      21     37.500    110.700
      22     37.500    110.700
      23     37.500    110.700
      24     37.500    110.700
      25     37.500    110.700
      26     37.500    110.700
      27     37.500    110.700
      28     37.500    110.700
      29     35.000    109.500
      30     35.000    109.500
      31     35.000    109.500
      32     35.000    109.500
      33     35.000    109.500
      34     35.000    109.500
      35     37.500    110.700
      36     35.000    109.500
      37     35.000    109.500
      38     35.000    109.500
      39     35.000    109.500
      40     35.000    109.500
      41     35.000    109.500
      42     58.350    112.700
      43     33.000    107.800
      44     33.000    107.800
      45     92.600    111.550
      46     33.000    107.800
      47     33.000    107.800
      48     33.000    107.800
      49     33.000    107.800
      50     33.000    107.800
      51     37.500    110.700
      52     35.000    108.500
      53     50.000    109.500
      54     33.000    107.800
      55     51.800    107.200
      56     35.000    109.500
      57     33.000    107.800
      58     37.500    110.700
      59     33.000    107.800
      60     37.500    110.700
      61     58.350    112.700
      62     33.000    107.800
      63     33.000    107.800
      64     37.500    110.700
      65     33.000    107.800
      66     33.000    107.800
      67     33.000    107.800
      68     50.000    109.500
      69     33.000    107.800
      70     33.000    107.800
      71     37.500    110.700
      72     33.000    107.800
      73     33.000    107.800
      74     83.000    123.400
      75     37.500    110.700
      76     33.000    107.800

Dihedral Coeffs  

       1      1.300     -0.200      0.200      0.000 
       2      1.300     -0.200      0.200      0.000 
       3      1.711     -0.500      0.663      0.000 
       4      0.650     -0.250      0.670      0.000 
       5      0.650     -0.250      0.670      0.000 
       6      0.000      5.124      0.000      0.000 
       7      4.669      5.124      0.000      0.000 
       8      0.000     -0.650      0.000      0.000 
       9      0.000      0.000      0.000      0.000 
      10      0.416     -0.128      0.695      0.000 
      11      0.000      0.000      0.300      0.000 
      12      0.000      0.000      0.300      0.000 
      13      0.000      0.000      0.760      0.000 
      14      0.000      0.000      0.198      0.000 
      15      0.000      0.000      0.560      0.000 
      16      0.000      0.000      0.560      0.000 
      17      0.000      0.000      0.300      0.000 
      18      0.000      0.000      0.300      0.000 
      19      0.650     -0.250      0.670      0.000 
      20      0.000      0.000      0.300      0.000 
      21      0.000      0.000      0.560      0.000 
      22      0.000      0.000      0.198      0.000 
      23      0.000      0.000      0.000      0.000 
      24      0.416     -0.128      0.695      0.000 
      25      0.000      0.000      0.300      0.000 
      26      0.000      0.000      0.300      0.000 
      27      0.000      0.000      0.560      0.000 
      28      1.300     -0.200      0.200      0.000 
      29      0.000      0.000      0.760      0.000 
      30      4.669      5.124      0.000      0.000 
      31      0.000      5.124      0.000      0.000 
      32      0.000      0.000      0.560      0.000 
      33      0.000      0.000      0.300      0.000 
      34      0.000      0.000      0.300      0.000 
      35      0.000      0.000      0.300      0.000 
      36      0.650     -0.250      0.670      0.000 
      37      0.000      0.000      0.560      0.000 
      38      0.000      0.000      0.000      0.000 
      39      0.000      0.000      0.560      0.000 
      40      0.000      0.000      0.300      0.000 
      41     -0.375     -1.358      0.004      0.000 
      42      1.711     -0.500      0.663      0.000 
      43      1.711     -0.500      0.663      0.000 
      44      0.000      0.000      0.468      0.000 
      45      0.000      0.000      0.300      0.000 
      46      1.300     -0.200      0.200      0.000 
      47      0.000      0.000      0.560      0.000 
      48      0.000      0.000      0.300      0.000 
      49      0.000      0.000      0.560      0.000 
      50      0.000      0.000      0.300      0.000 
      51      0.000      0.000      0.300      0.000 
      52      0.000      0.000      0.300      0.000 
      53      0.000      0.000      0.300      0.000 
      54      1.711     -0.500      0.663      0.000 
      55      1.711     -0.500      0.663      0.000 
      56      0.000      0.000      0.300      0.000 
      57      0.000      0.000      0.300      0.000 
      58      0.000      0.000      0.560      0.000 
      59      0.000      0.000      0.300      0.000 
      60      0.000      0.000      0.760      0.000 
      61      2.392     -0.674      0.550      0.000 
      62      0.000      0.000      0.300      0.000 
      63      0.000      0.000      0.300      0.000 
      64      0.000      0.000      0.300      0.000 
      65      0.416     -0.128      0.695      0.000 
      66      0.000      0.000      0.300      0.000 
      67      0.000      0.000      0.300      0.000 
      68      0.000      0.000      0.300      0.000 
      69      0.000      0.000      0.560      0.000 
      70      0.000      0.000      0.560      0.000 
      71      0.000      0.000      0.300      0.000 
      72      0.000      0.000      0.468      0.000 
      73      0.000      0.000      0.300      0.000 
      74      0.000      0.000      0.300      0.000 
      75      0.000      0.000      0.198      0.000 
      76      0.000      0.000      0.468      0.000 
      77      0.000      0.000      0.300      0.000 
      78      0.000      0.000      0.300      0.000 
      79      0.000      0.000      0.300      0.000 
      80      1.300     -0.200      0.200      0.000 
      81      0.000      0.000      0.468      0.000 
      82      0.000      0.000      0.300      0.000 
      83      0.000      0.000      0.300      0.000 
      84      0.000      0.000      0.300      0.000 
      85     -0.375     -1.358      0.004      0.000 
      86      0.000      0.000      0.560      0.000 
      87      0.416     -0.128      0.695      0.000 
      88      0.000      0.000      0.560      0.000 
      89      1.711     -0.500      0.663      0.000 
      90      1.711     -0.500      0.663      0.000 
      91      1.711     -0.500      0.663      0.000 

Improper Coeffs 

       1      0.000      -1       2 
       2      0.000      -1       2 
       3     10.500      -1       2 
       4      0.000      -1       2 
       5      0.000      -1       2 
       6      0.000      -1       2 
       7      0.000      -1       2 
       8      0.000      -1       2 
       9      0.000      -1       2 
      10      0.000      -1       2 
      11      0.000      -1       2 
      12      0.000      -1       2 
      13      0.000      -1       2 
      14      0.000      -1       2 
      15      0.000      -1       2 
      16      0.000      -1       2 
      17      0.000      -1       2 
      18      0.000      -1       2 
      19      0.000      -1       2 
      20      0.000      -1       2 
      21      0.000      -1       2 
      22      0.000      -1       2 
      23      0.000      -1       2 
      24      0.000      -1       2 

Atoms 

     1      1      1 -0.23820000    1.000  1.00000  0.00000
     2      1      2 -0.17780000   -0.522  1.00000  0.00000
     3      1      3 -0.17140000   -1.068  1.00000  1.43459
     4      1      4 -0.11060000   -2.610  1.00178  1.53335
     5      1      5 -0.24020000   -3.207 -0.22379  0.82395
     6      1      6 0.34480000   -3.174  1.24494  3.00191
     7      1      7 -0.36850000   -2.640  2.51382  3.45731
     8      1      8 -0.05750000   -3.157  3.02023  4.68146
     9      1      9 -0.37260000   -4.634  1.31412  2.92274
    10      1     10 0.58780000   -5.240  2.32596  2.25903
    11      1     11 -0.47520000   -4.705  3.29201  1.74122
    12      1     12 -0.31930000   -6.575  2.08104  2.26738
    13      1     13 -0.04270000   -7.356  3.07062  1.59692
    14      1     14 0.18790000   -2.831  0.07785  4.06638
    15      1     15 0.17010000   -3.646 -1.12821  3.71891
    16      1     16 -0.36830000   -4.283 -2.07939  3.50052
    17      1     17 -0.54130000   -1.386 -0.27179  4.33253
    18      1     18 -0.06710000   -0.609  0.84848  4.87247
    19      1     19 -0.06520000   -1.259 -1.39756  5.27260
    20      1     20 0.08120000    1.381  1.00130 -1.02587
    21      1     21 0.08120000    1.387  0.10753  0.50324
    22      1     22 0.08120000    1.393  1.88366  0.51204
    23      1     23 0.08940000   -0.860  0.11265 -0.54488
    24      1     24 0.08940000   -0.887  1.88084 -0.54088
    25      1     25 0.10780000   -0.676  1.89034  1.93785
    26      1     26 0.10780000   -0.663  0.12031  1.94205
    27      1     27 0.12920000   -2.929  1.86379  0.93163
    28      1     28 0.09480000   -2.761 -1.15399  1.18783
    29      1     29 0.09480000   -3.020 -0.18136 -0.25436
    30      1     30 0.09480000   -4.293 -0.27749  0.94373
    31      1     31 0.09090000   -2.818  4.05450  4.78566
    32      1     32 0.09090000   -2.770  2.46500  5.53720
    33      1     33 0.09090000   -4.248  3.01247  4.70871
    34      1     34 0.10840000   -8.409  2.88543  1.82981
    35      1     35 0.10840000   -7.219  2.98428  0.51455
    36      1     36 0.10840000   -7.104  4.07884  1.94116
    37      1     37 0.10800000   -3.251  0.40469  5.02798
    38      1     38 0.09510000   -0.541  1.68530  4.17691
    39      1     39 0.09510000    0.431  0.54346  5.04634
    40      1     40 0.09510000   -1.009  1.20545  5.82712
    41      1     41 0.09410000   -1.647 -2.32602  4.84242
    42      1     42 0.09410000   -1.776 -1.19919  6.21902
    43      1     43 0.09410000   -0.204 -1.59733  5.49577

Bonds 

     1      1      2      1
     2      2      3      2
     3      3      4      3
     4      4      5      4
     5      5      6      4
     6      6      7      6
     7      7      8      7
     8      8      9      6
     9      9     10      9
    10     10     11     10
    11     11     12     10
    12     12     13     12
    13     13     14      6
    14     14     15     14
    15     15     16     15
    16     16     17     14
    17     17     18     17
    18     18     19     17
    19     19     20      1
    20     20     21      1
    21     21     22      1
    22     22     23      2
    23     23     24      2
    24     24     25      3
    25     25     26      3
    26     26     27      4
    27     27     28      5
    28     28     29      5
    29     29     30      5
    30     30     31      8
    31     31     32      8
    32     32     33      8
    33     33     34     13
    34     34     35     13
    35     35     36     13
    36     36     37     14
    37     37     38     18
    38     38     39     18
    39     39     40     18
    40     40     41     19
    41     41     42     19
    42     42     43     19

Angles 

     1      1      1      2      3
     2      2      2      3      4
     3      3      3      4      5
     4      4      3      4      6
     5      5      4      6      7
     6      6      6      7      8
     7      7      4      6      9
     8      8      6      9     10
     9      9      9     10     11
    10     10      9     10     12
    11     11     10     12     13
    12     12      4      6     14
    13     13      6     14     15
    14     14     14     15     16
    15     15      6     14     17
    16     16     14     17     18
    17     17     14     17     19
    18     18      2      1     20
    19     19      2      1     21
    20     20      2      1     22
    21     21      1      2     23
    22     22      1      2     24
    23     23      2      3     25
    24     24      2      3     26
    25     25      3      4     27
    26     26      4      5     28
    27     27      4      5     29
    28     28      4      5     30
    29     29      7      8     31
    30     30      7      8     32
    31     31      7      8     33
    32     32     12     13     34
    33     33     12     13     35
    34     34     12     13     36
    35     35      6     14     37
    36     36     17     18     38
    37     37     17     18     39
    38     38     17     18     40
    39     39     17     19     41
    40     40     17     19     42
    41     41     17     19     43
    42     42      5      4      6
    43     43     39     18     40
    44     44     31      8     32
    45     45      7      6      9
    46     46     31      8     33
    47     47     34     13     35
    48     48     35     13     36
    49     49     38     18     39
    50     50     28      5     29
    51     51      3      2     23
    52     52     15     14     37
    53     53      7      6     14
    54     54     29      5     30
    55     55     18     17     19
    56     56     17     14     37
    57     57     41     19     43
    58     58      4      3     25
    59     59     38     18     40
    60     60      6      4     27
    61     61     15     14     17
    62     62     41     19     42
    63     63     32      8     33
    64     64      3      2     24
    65     65     28      5     30
    66     66     34     13     36
    67     67     20      1     22
    68     68      9      6     14
    69     69     25      3     26
    70     70     20      1     21
    71     71      5      4     27
    72     72     42     19     43
    73     73     21      1     22
    74     74     11     10     12
    75     75      4      3     26
    76     76     23      2     24

Dihedrals

     1      1      4      3      2      1 
     2      2      5      4      3      2 
     3      3      7      6      4      3 
     4      4      8      7      6      4 
     5      5     10      9      6      4 
     6      6     11     10      9      6 
     7      7     13     12     10      9 
     8      8     15     14      6      4 
     9      9     16     15     14      6 
    10     10     18     17     14      6 
    11     11     20      1      2      3 
    12     12     28      5      4      3 
    13     13     31      8      7      6 
    14     14     34     13     12     10 
    15     15     38     18     17     14 
    16     16     41     19     17     14 
    17     17     26      3      4      6 
    18     18     25      3      4      5 
    19     19     14      6      9     10 
    20     20     30      5      4     27 
    21     21     40     18     17     14 
    22     22     35     13     12     10 
    23     23     17     14     15     16 
    24     24     19     17     14      6 
    25     25     23      2      1     21 
    26     26     24      2      1     20 
    27     27     39     18     17     19 
    28     28     14      6      4      3 
    29     29     33      8      7      6 
    30     30     12     10      9      6 
    31     31     13     12     10     11 
    32     32     38     18     17     19 
    33     33     26      3      2      1 
    34     34     23      2      3      4 
    35     35     27      4      3     25 
    36     36     14      6      7      8 
    37     37     43     19     17     14 
    38     38     37     14     15     16 
    39     39     40     18     17     19 
    40     40     23      2      1     20 
    41     41      9      6      7      8 
    42     42     17     14      6      9 
    43     43     15     14      6      7 
    44     44     37     14      6      9 
    45     45     30      5      4      3 
    46     46      6      4      3      2 
    47     47     37     14     17     19 
    48     48     24      2      1     22 
    49     49     39     18     17     14 
    50     50     25      3      2     23 
    51     51     25      3      4      6 
    52     52     26      3      4      5 
    53     53     29      5      4      6 
    54     54     15     14      6      9 
    55     55     17     14      6      7 
    56     56     27      4      6     14 
    57     57     21      1      2      3 
    58     58     42     19     17     18 
    59     59     37     14      6      4 
    60     60     32      8      7      6 
    61     61     17     14      6      4 
    62     62     24      2      3      4 
    63     63     27      4      3     26 
    64     64     28      5      4      6 
    65     65     18     17     14     15 
    66     66     24      2      1     21 
    67     67     23      2      1     22 
    68     68     27      4      3      2 
    69     69     37     14     17     18 
    70     70     41     19     17     18 
    71     71     26      3      2     24 
    72     72     27      4      6      7 
    73     73     22      1      2      3 
    74     74     29      5      4     27 
    75     75     36     13     12     10 
    76     76     37     14      6      7 
    77     77     26      3      2     23 
    78     78     25      3      2     24 
    79     79     29      5      4      3 
    80     80     14      6      4      5 
    81     81     27      4      6      9 
    82     82     30      5      4      6 
    83     83     25      3      2      1 
    84     84     28      5      4     27 
    85     85     10      9      6      7 
    86     86     42     19     17     14 
    87     87     19     17     14     15 
    88     88     43     19     17     18 
    89     89      9      6      4      5 
    90     90      7      6      4      5 
    91     91      9      6      4      3 

Impropers

     1      1      4      3      5      6 
     2      2      6      9      4      7 
     3      3     10      9     11     12 
     4      4      6      4     14      7 
     5      5     14     17     15      6 
     6      6     17     18     19     14 
     7      7      1      2     20     21 
     8      8      1      2     20     22 
     9      9      2      1      3     23 
    10     10      2      1      3     24 
    11     11      3     25      2      4 
    12     12      3     26      4      2 
    13     13      4     27      5      3 
    14     14      5     28      4     29 
    15     15      5     28      4     30 
    16     16      8     31      7     32 
    17     17      8     33     31      7 
    18     18     13     34     35     12 
    19     19     13     12     34     36 
    20     20     14     37     15      6 
    21     21     18     17     38     39 
    22     22     18     17     38     40 
    23     23     19     17     42     41 
    24     24     19     17     41     43 

