LAMMPS data file Created by LigParGen - (Written by Leela S. Dodda)

      51 atoms
      50 bonds
      93 angles
     115 dihedrals
      30 impropers
 
      51 atom types
      50 bond types
      93 angle types
     115 dihedral types
      30 improper types
 
  -12.084720    37.915280 xlo xhi
   -4.659170    45.340830 ylo yhi
   -3.099000    46.901000 zlo zhi

Masses

       1     12.011  
       2     12.011  
       3     12.011  
       4     12.011  
       5     12.011  
       6     12.011  
       7     14.007  
       8     12.011  
       9     12.011  
      10     15.999  
      11     12.011  
      12     15.999  
      13     15.999  
      14     12.011  
      15     12.011  
      16     12.011  
      17     12.011  
      18     12.011  
      19     15.999  
      20     12.011  
      21      1.008  
      22      1.008  
      23      1.008  
      24      1.008  
      25      1.008  
      26      1.008  
      27      1.008  
      28      1.008  
      29      1.008  
      30      1.008  
      31      1.008  
      32      1.008  
      33      1.008  
      34      1.008  
      35      1.008  
      36      1.008  
      37      1.008  
      38      1.008  
      39      1.008  
      40      1.008  
      41      1.008  
      42      1.008  
      43      1.008  
      44      1.008  
      45      1.008  
      46      1.008  
      47      1.008  
      48      1.008  
      49      1.008  
      50      1.008  
      51      1.008  

Pair Coeffs 

       1      0.066  3.5000000 
       2      0.066  3.5000000 
       3      0.066  3.5000000 
       4      0.066  3.5000000 
       5      0.066  3.5000000 
       6      0.066  3.5000000 
       7      0.170  3.3000000 
       8      0.066  3.5000000 
       9      0.066  3.5000000 
      10      0.140  2.9000000 
      11      0.070  3.5500000 
      12      0.210  2.9600000 
      13      0.140  2.9000000 
      14      0.066  3.5000000 
      15      0.066  3.5000000 
      16      0.066  3.5000000 
      17      0.066  3.5000000 
      18      0.066  3.5000000 
      19      0.140  2.9000000 
      20      0.066  3.5000000 
      21      0.030  2.5000000 
      22      0.030  2.5000000 
      23      0.030  2.5000000 
      24      0.030  2.5000000 
      25      0.030  2.5000000 
      26      0.030  2.5000000 
      27      0.030  2.5000000 
      28      0.030  2.5000000 
      29      0.030  2.5000000 
      30      0.030  2.5000000 
      31      0.030  2.5000000 
      32      0.030  2.5000000 
      33      0.030  2.5000000 
      34      0.030  2.5000000 
      35      0.030  2.5000000 
      36      0.030  2.5000000 
      37      0.030  2.5000000 
      38      0.030  2.5000000 
      39      0.030  2.5000000 
      40      0.030  2.5000000 
      41      0.030  2.5000000 
      42      0.030  2.5000000 
      43      0.030  2.5000000 
      44      0.030  2.5000000 
      45      0.030  2.5000000 
      46      0.030  2.5000000 
      47      0.030  2.5000000 
      48      0.030  2.5000000 
      49      0.030  2.5000000 
      50      0.030  2.5000000 
      51      0.030  2.5000000 

Bond Coeffs 

       1   268.0000     1.5290 
       2   268.0000     1.5290 
       3   268.0000     1.5290 
       4   268.0000     1.5290 
       5   268.0000     1.5290 
       6   382.0000     1.4480 
       7   382.0000     1.4480 
       8   382.0000     1.4480 
       9   320.0000     1.4100 
      10   214.0000     1.3270 
      11   570.0000     1.2290 
      12   214.0000     1.3270 
      13   320.0000     1.4100 
      14   268.0000     1.5290 
      15   268.0000     1.5290 
      16   268.0000     1.5290 
      17   268.0000     1.5290 
      18   320.0000     1.4100 
      19   320.0000     1.4100 
      20   340.0000     1.0900 
      21   340.0000     1.0900 
      22   340.0000     1.0900 
      23   340.0000     1.0900 
      24   340.0000     1.0900 
      25   340.0000     1.0900 
      26   340.0000     1.0900 
      27   340.0000     1.0900 
      28   340.0000     1.0900 
      29   340.0000     1.0900 
      30   340.0000     1.0900 
      31   340.0000     1.0900 
      32   340.0000     1.0900 
      33   340.0000     1.0900 
      34   340.0000     1.0900 
      35   340.0000     1.0900 
      36   340.0000     1.0900 
      37   340.0000     1.0900 
      38   340.0000     1.0900 
      39   340.0000     1.0900 
      40   340.0000     1.0900 
      41   340.0000     1.0900 
      42   340.0000     1.0900 
      43   340.0000     1.0900 
      44   340.0000     1.0900 
      45   340.0000     1.0900 
      46   340.0000     1.0900 
      47   340.0000     1.0900 
      48   340.0000     1.0900 
      49   340.0000     1.0900 
      50   340.0000     1.0900 

Angle Coeffs 

       1     58.350    112.700
       2     58.350    112.700
       3     58.350    112.700
       4     58.350    112.700
       5     56.200    109.470
       6     51.800    107.200
       7     51.800    107.200
       8     50.000    109.500
       9     83.000    116.900
      10     83.000    123.400
      11     69.900    118.180
      12     83.000    116.900
      13     50.000    109.500
      14     50.000    109.500
      15     58.350    112.700
      16     58.350    112.700
      17     50.000    109.500
      18     60.000    109.500
      19     37.500    110.700
      20     37.500    110.700
      21     37.500    110.700
      22     37.500    110.700
      23     37.500    110.700
      24     37.500    110.700
      25     37.500    110.700
      26     37.500    110.700
      27     37.500    110.700
      28     37.500    110.700
      29     37.500    110.700
      30     37.500    110.700
      31     35.000    109.500
      32     35.000    109.500
      33     35.000    109.500
      34     35.000    109.500
      35     35.000    109.500
      36     35.000    109.500
      37     35.000    109.500
      38     37.500    110.700
      39     37.500    110.700
      40     37.500    110.700
      41     37.500    110.700
      42     37.500    110.700
      43     37.500    110.700
      44     37.500    110.700
      45     37.500    110.700
      46     37.500    110.700
      47     35.000    109.500
      48     35.000    109.500
      49     35.000    109.500
      50     33.000    107.800
      51     35.000    109.500
      52     35.000    109.500
      53     33.000    107.800
      54     37.500    110.700
      55     37.500    110.700
      56     33.000    107.800
      57     58.350    112.700
      58     35.000    109.500
      59     50.000    109.500
      60     37.500    110.700
      61     51.800    107.200
      62     33.000    107.800
      63     33.000    107.800
      64     37.500    110.700
      65     33.000    107.800
      66     35.000    109.500
      67     33.000    107.800
      68     33.000    107.800
      69     37.500    110.700
      70     33.000    107.800
      71     33.000    107.800
      72     33.000    107.800
      73     33.000    107.800
      74     33.000    107.800
      75     37.500    110.700
      76     37.500    110.700
      77     33.000    107.800
      78     37.500    110.700
      79     33.000    107.800
      80     37.500    110.700
      81     37.500    110.700
      82     33.000    107.800
      83     33.000    107.800
      84     33.000    107.800
      85     33.000    107.800
      86     33.000    107.800
      87     50.000    109.500
      88     33.000    107.800
      89     83.000    123.400
      90     37.500    110.700
      91     37.500    110.700
      92     33.000    107.800
      93     33.000    107.800

Dihedral Coeffs  

       1      1.300     -0.200      0.200      0.000 
       2      1.300     -0.200      0.200      0.000 
       3      1.300     -0.200      0.200      0.000 
       4      2.392     -0.674      0.550      0.000 
       5      0.416     -0.128      0.695      0.000 
       6     -1.220     -0.126      0.422      0.000 
       7      0.000      5.124      0.000      0.000 
       8      4.669      5.124      0.000      0.000 
       9     -1.220     -0.126      0.422      0.000 
      10      1.711     -0.500      0.663      0.000 
      11      1.300     -0.200      0.200      0.000 
      12      0.650     -0.250      0.670      0.000 
      13      0.000      0.000      0.300      0.000 
      14      0.000      0.000      0.560      0.000 
      15      0.000      0.000      0.560      0.000 
      16      0.000      0.000      0.468      0.000 
      17      0.000      0.000      0.300      0.000 
      18      0.000      0.000      0.760      0.000 
      19      0.000      0.000      0.560      0.000 
      20      0.000      0.000      0.300      0.000 
      21      0.000      0.000      0.468      0.000 
      22      0.000      0.000      0.300      0.000 
      23      0.000      0.000      0.560      0.000 
      24      0.000      0.000      0.468      0.000 
      25      0.000      0.000      0.300      0.000 
      26      0.000      0.000      0.300      0.000 
      27      0.000      0.000      0.760      0.000 
      28      0.000      0.000      0.300      0.000 
      29      0.000      0.000      0.300      0.000 
      30      0.416     -0.128      0.695      0.000 
      31      0.000      0.000      0.560      0.000 
      32      0.000      0.000      0.300      0.000 
      33      0.000      0.000      0.300      0.000 
      34      0.000      0.000      0.760      0.000 
      35      0.000      0.000      0.300      0.000 
      36      0.000      0.000      0.560      0.000 
      37      0.000      0.000      0.560      0.000 
      38      0.000      0.000      0.300      0.000 
      39      0.000      0.000      0.560      0.000 
      40      0.000      0.000      0.300      0.000 
      41      0.000      0.000      0.300      0.000 
      42      0.000      0.000      0.468      0.000 
      43      0.000      0.000      0.300      0.000 
      44      0.000      0.000      0.300      0.000 
      45      0.000      0.000      0.300      0.000 
      46      0.000      0.000      0.468      0.000 
      47      0.000      0.000      0.300      0.000 
      48      0.000      0.000      0.300      0.000 
      49      0.000      0.000      0.468      0.000 
      50      0.000      0.000      0.468      0.000 
      51      0.000      0.000      0.560      0.000 
      52      0.000      0.000      0.300      0.000 
      53      8.000      0.000      0.000      0.000 
      54      0.000      0.000      0.300      0.000 
      55      0.000      0.000      0.300      0.000 
      56      0.000      0.000      0.300      0.000 
      57      0.000      0.000      0.300      0.000 
      58      0.000      0.000      0.300      0.000 
      59      0.000      0.000      0.300      0.000 
      60      0.000      0.000      0.300      0.000 
      61      0.000      0.000      0.468      0.000 
      62      0.000      0.000      0.300      0.000 
      63      0.000      0.000      0.760      0.000 
      64      0.000      0.000      0.560      0.000 
      65      0.000      0.000      0.300      0.000 
      66      0.000      0.000      0.468      0.000 
      67      1.711     -0.500      0.663      0.000 
      68      0.000      0.000      0.300      0.000 
      69      0.000      0.000      0.300      0.000 
      70      0.000      0.000      0.300      0.000 
      71      0.000      0.000      0.300      0.000 
      72      0.000      0.000      0.300      0.000 
      73      0.000      0.000      0.300      0.000 
      74      0.000      0.000      0.300      0.000 
      75      0.000      5.124      0.000      0.000 
      76      0.000      0.000      0.300      0.000 
      77     -1.013     -0.709      0.473      0.000 
      78      0.000      0.000      0.560      0.000 
      79      0.000      0.000      0.300      0.000 
      80      0.000      0.000      0.468      0.000 
      81      0.000      0.000      0.560      0.000 
      82      0.000      0.000      0.300      0.000 
      83      0.000      0.000      0.560      0.000 
      84      0.000      0.000      0.300      0.000 
      85      0.000      0.000      0.468      0.000 
      86      0.000      0.000      0.300      0.000 
      87      0.000      0.000      0.300      0.000 
      88      0.000      0.000      0.560      0.000 
      89      0.000      0.000      0.560      0.000 
      90     -1.220     -0.126      0.422      0.000 
      91      0.000      0.000      0.300      0.000 
      92      0.000      0.000      0.468      0.000 
      93      0.000      0.000      0.300      0.000 
      94      0.000      0.000      0.300      0.000 
      95      4.669      5.124      0.000      0.000 
      96      0.000      0.000      0.560      0.000 
      97      0.000      0.000      0.468      0.000 
      98      0.000      0.000      0.300      0.000 
      99      0.000      0.000      0.300      0.000 
     100      0.000      0.000      0.198      0.000 
     101      0.000      0.000      0.300      0.000 
     102      0.000      0.000      0.300      0.000 
     103      0.000      0.000      0.300      0.000 
     104      0.000      0.000      0.300      0.000 
     105      1.300     -0.200      0.200      0.000 
     106      0.000      0.000      0.300      0.000 
     107      0.000      0.000      0.468      0.000 
     108      0.000      0.000      0.300      0.000 
     109      0.000      0.000      0.300      0.000 
     110      0.000      0.000      0.300      0.000 
     111      0.000      0.000      0.198      0.000 
     112      0.650     -0.250      0.670      0.000 
     113      0.000      0.000      0.300      0.000 
     114      1.711     -0.500      0.663      0.000 
     115     -1.220     -0.126      0.422      0.000 

Improper Coeffs 

       1      0.000      -1       2 
       2      0.000      -1       2 
       3     10.500      -1       2 
       4      0.000      -1       2 
       5      0.000      -1       2 
       6      0.000      -1       2 
       7      0.000      -1       2 
       8      0.000      -1       2 
       9      0.000      -1       2 
      10      0.000      -1       2 
      11      0.000      -1       2 
      12      0.000      -1       2 
      13      0.000      -1       2 
      14      0.000      -1       2 
      15      0.000      -1       2 
      16      0.000      -1       2 
      17      0.000      -1       2 
      18      0.000      -1       2 
      19      0.000      -1       2 
      20      0.000      -1       2 
      21      0.000      -1       2 
      22      0.000      -1       2 
      23      0.000      -1       2 
      24      0.000      -1       2 
      25      0.000      -1       2 
      26      0.000      -1       2 
      27      0.000      -1       2 
      28      0.000      -1       2 
      29      0.000      -1       2 
      30      0.000      -1       2 

Atoms 

     1      1      1 -0.24000000    1.000  1.00000  0.00000
     2      1      2 -0.18260000   -0.522  1.00000  0.00000
     3      1      3 -0.17190000   -1.082  1.00000  1.42323
     4      1      4 -0.19260000   -2.610  1.09040  1.48403
     5      1      5 0.08190000   -3.395 -0.02491  0.76906
     6      1      6 -0.01030000   -3.081 -1.43768  1.34276
     7      1      7 -0.56340000   -3.793 -2.57808  0.71659
     8      1      8 -0.07120000   -3.453 -2.75768 -0.69743
     9      1      9 -0.05560000   -3.472 -3.82194  1.43180
    10      1     10 -0.31810000   -4.797  0.29126  0.97291
    11      1     11 0.58830000   -5.572  0.30255 -0.14101
    12      1     12 -0.50630000   -5.179  0.14746 -1.28808
    13      1     13 -0.32730000   -6.880  0.45739  0.22582
    14      1     14 0.08010000   -7.811 -0.08026 -0.73520
    15      1     15 -0.27690000   -7.910 -1.58342 -0.46207
    16      1     16 -0.18020000   -9.199  0.56490 -0.60124
    17      1     17 0.07500000   -9.318  2.05925 -0.94449
    18      1     18 -0.27990000   -8.814  2.37864 -2.35072
    19      1     19 -0.39450000  -10.722  2.35859 -0.82272
    20      1     20 -0.04510000  -11.059  3.73016 -0.97126
    21      1     21 0.08260000    1.378  0.87740 -1.02013
    22      1     22 0.08260000    1.396  0.18052  0.60874
    23      1     23 0.08260000    1.391  1.94366  0.39352
    24      1     24 0.09220000   -0.868  0.11479 -0.54356
    25      1     25 0.09220000   -0.880  1.88174 -0.54429
    26      1     26 0.09370000   -0.671  1.86049  1.96629
    27      1     27 0.09370000   -0.737  0.10840  1.95844
    28      1     28 0.10650000   -2.924  2.05434  1.06112
    29      1     29 0.10650000   -2.918  1.12710  2.53739
    30      1     30 0.13610000   -3.130  0.01334 -0.29079
    31      1     31 0.10010000   -3.365 -1.42028  2.40388
    32      1     32 0.10010000   -2.001 -1.62206  1.29482
    33      1     33 0.08860000   -3.566 -1.84065 -1.27793
    34      1     34 0.08860000   -4.139 -3.48450 -1.14864
    35      1     35 0.08860000   -2.427 -3.11777 -0.83697
    36      1     36 0.08370000   -3.729 -3.74673  2.49374
    37      1     37 0.08370000   -2.407 -4.07649  1.35773
    38      1     38 0.08370000   -4.051 -4.65917  1.02517
    39      1     39 0.13170000   -7.445  0.07197 -1.75863
    40      1     40 0.10250000   -8.522 -1.77899  0.42389
    41      1     41 0.10250000   -6.927 -2.02219 -0.26352
    42      1     42 0.10250000   -8.358 -2.10255 -1.31527
    43      1     43 0.12040000   -9.563  0.43168  0.42637
    44      1     44 0.12040000   -9.903  0.01029 -1.23794
    45      1     45 0.10070000   -8.764  2.64763 -0.20228
    46      1     46 0.09430000   -9.352  1.78617 -3.09900
    47      1     47 0.09430000   -7.743  2.18772 -2.44653
    48      1     48 0.09430000   -8.978  3.43024 -2.60573
    49      1     49 0.08050000  -12.085  3.86875 -0.61764
    50      1     50 0.08050000  -11.033  4.01913 -2.02601
    51      1     51 0.08050000  -10.396  4.36751 -0.37951

Bonds 

     1      1      2      1
     2      2      3      2
     3      3      4      3
     4      4      5      4
     5      5      6      5
     6      6      7      6
     7      7      8      7
     8      8      9      7
     9      9     10      5
    10     10     11     10
    11     11     12     11
    12     12     13     11
    13     13     14     13
    14     14     15     14
    15     15     16     14
    16     16     17     16
    17     17     18     17
    18     18     19     17
    19     19     20     19
    20     20     21      1
    21     21     22      1
    22     22     23      1
    23     23     24      2
    24     24     25      2
    25     25     26      3
    26     26     27      3
    27     27     28      4
    28     28     29      4
    29     29     30      5
    30     30     31      6
    31     31     32      6
    32     32     33      8
    33     33     34      8
    34     34     35      8
    35     35     36      9
    36     36     37      9
    37     37     38      9
    38     38     39     14
    39     39     40     15
    40     40     41     15
    41     41     42     15
    42     42     43     16
    43     43     44     16
    44     44     45     17
    45     45     46     18
    46     46     47     18
    47     47     48     18
    48     48     49     20
    49     49     50     20
    50     50     51     20

Angles 

     1      1      1      2      3
     2      2      2      3      4
     3      3      3      4      5
     4      4      4      5      6
     5      5      5      6      7
     6      6      6      7      8
     7      7      6      7      9
     8      8      4      5     10
     9      9      5     10     11
    10     10     10     11     12
    11     11     10     11     13
    12     12     11     13     14
    13     13     13     14     15
    14     14     13     14     16
    15     15     14     16     17
    16     16     16     17     18
    17     17     16     17     19
    18     18     17     19     20
    19     19      2      1     21
    20     20      2      1     22
    21     21      2      1     23
    22     22      1      2     24
    23     23      1      2     25
    24     24      2      3     26
    25     25      2      3     27
    26     26      3      4     28
    27     27      3      4     29
    28     28      4      5     30
    29     29      5      6     31
    30     30      5      6     32
    31     31      7      8     33
    32     32      7      8     34
    33     33      7      8     35
    34     34      7      9     36
    35     35      7      9     37
    36     36      7      9     38
    37     37     13     14     39
    38     38     14     15     40
    39     39     14     15     41
    40     40     14     15     42
    41     41     14     16     43
    42     42     14     16     44
    43     43     16     17     45
    44     44     17     18     46
    45     45     17     18     47
    46     46     17     18     48
    47     47     19     20     49
    48     48     19     20     50
    49     49     19     20     51
    50     50     49     20     50
    51     51      7      6     32
    52     52      7      6     31
    53     53     46     18     48
    54     54      6      5     30
    55     55      3      2     25
    56     56     34      8     35
    57     57     15     14     16
    58     58     19     17     45
    59     59      6      5     10
    60     60      5      4     28
    61     61      8      7      9
    62     62     36      9     38
    63     63     49     20     51
    64     64     17     16     44
    65     65     41     15     42
    66     66     10      5     30
    67     67     50     20     51
    68     68     33      8     34
    69     69      4      3     27
    70     70     21      1     23
    71     71     43     16     44
    72     72     46     18     47
    73     73     24      2     25
    74     74     21      1     22
    75     75     18     17     45
    76     76      4      3     26
    77     77     36      9     37
    78     78     15     14     39
    79     79     40     15     42
    80     80     17     16     43
    81     81      5      4     29
    82     82     31      6     32
    83     83     28      4     29
    84     84     26      3     27
    85     85     22      1     23
    86     86     40     15     41
    87     87     18     17     19
    88     88     37      9     38
    89     89     12     11     13
    90     90      3      2     24
    91     91     16     14     39
    92     92     33      8     35
    93     93     47     18     48

Dihedrals

     1      1      4      3      2      1 
     2      2      5      4      3      2 
     3      3      6      5      4      3 
     4      4      7      6      5      4 
     5      5      8      7      6      5 
     6      6     11     10      5      4 
     7      7     12     11     10      5 
     8      8     14     13     11     10 
     9      9     15     14     13     11 
    10     10     17     16     14     13 
    11     11     18     17     16     14 
    12     12     20     19     17     16 
    13     13     21      1      2      3 
    14     14     33      8      7      6 
    15     15     36      9      7      6 
    16     16     40     15     14     13 
    17     17     46     18     17     16 
    18     18     49     20     19     17 
    19     19     34      8      7      6 
    20     20     27      3      4      5 
    21     21     44     16     17     19 
    22     22     28      4      3      2 
    23     23     35      8      7      9 
    24     24     44     16     14     13 
    25     25     48     18     17     45 
    26     26     43     16     17     18 
    27     27     51     20     19     17 
    28     28     44     16     14     15 
    29     29     28      4      3     27 
    30     30      9      7      6      5 
    31     31     37      9      7      6 
    32     32     23      1      2      3 
    33     33     47     18     17     45 
    34     34     50     20     19     17 
    35     35     26      3      2      1 
    36     36     31      6      7      9 
    37     37     32      6      7      8 
    38     38     32      6      5     30 
    39     39     37      9      7      8 
    40     40     26      3      2     24 
    41     41     24      2      1     22 
    42     42     47     18     17     19 
    43     43     46     18     17     45 
    44     44     25      2      1     23 
    45     45     45     17     16     44 
    46     46     29      4      5     10 
    47     47     31      6      5     30 
    48     48     30      5      4      3 
    49     49     28      4      5     10 
    50     50     43     16     14     13 
    51     51     34      8      7      9 
    52     52     39     14     16     17 
    53     53     10      5      6      7 
    54     54     45     17     16     14 
    55     55     25      2      1     21 
    56     56     40     15     14     39 
    57     57     29      4      3      2 
    58     58     26      3      4      5 
    59     59     29      4      5      6 
    60     60     43     16     14     15 
    61     61     31      6      5     10 
    62     62     29      4      3     26 
    63     63     45     17     19     20 
    64     64     38      9      7      8 
    65     65     45     17     16     43 
    66     66     32      6      5     10 
    67     67     10      5      4      3 
    68     68     26      3      2     25 
    69     69     40     15     14     16 
    70     70     30      5      4     29 
    71     71     27      3      2      1 
    72     72     27      3      2     24 
    73     73     24      2      3      4 
    74     74     28      4      5      6 
    75     75     14     13     11     12 
    76     76     41     15     14     39 
    77     77     30      5      6      7 
    78     78     36      9      7      8 
    79     79     25      2      1     22 
    80     80     41     15     14     13 
    81     81     38      9      7      6 
    82     82     24      2      1     21 
    83     83     31      6      7      8 
    84     84     32      6      5      4 
    85     85     42     15     14     13 
    86     86     44     16     14     39 
    87     87     47     18     17     16 
    88     88     35      8      7      6 
    89     89     32      6      7      9 
    90     90     16     14     13     11 
    91     91     22      1      2      3 
    92     92     43     16     17     19 
    93     93     44     16     17     18 
    94     94     24      2      1     23 
    95     95     13     11     10      5 
    96     96     33      8      7      9 
    97     97     46     18     17     19 
    98     98     41     15     14     16 
    99     99     30      5      4     28 
   100    100     39     14     13     11 
   101    101     29      4      3     27 
   102    102     25      2      3      4 
   103    103     42     15     14     39 
   104    104     28      4      3     26 
   105    105     17     16     14     15 
   106    106     27      3      2     25 
   107    107     48     18     17     19 
   108    108     31      6      5      4 
   109    109     48     18     17     16 
   110    110     43     16     14     39 
   111    111     30      5     10     11 
   112    112     20     19     17     18 
   113    113     42     15     14     16 
   114    114     19     17     16     14 
   115    115     11     10      5      6 

Impropers

     1      1      7      9      6      8 
     2      2      5     10      4      6 
     3      3     11     10     12     13 
     4      4     14     13     15     16 
     5      5     17     18     19     16 
     6      6      1      2     21     22 
     7      7      1      2     21     23 
     8      8      2      1      3     24 
     9      9      2     25      3      1 
    10     10      3     26      4      2 
    11     11      3      2     27      4 
    12     12      4      3     28      5 
    13     13      4      5      3     29 
    14     14      5      4     30      6 
    15     15      6      7      5     31 
    16     16      6      5      7     32 
    17     17      8     33     34      7 
    18     18      8     33     35      7 
    19     19      9     36     37      7 
    20     20      9     36     38      7 
    21     21     14     15     13     39 
    22     22     15     41     14     40 
    23     23     15     42     14     40 
    24     24     16     17     43     14 
    25     25     16     17     44     14 
    26     26     17     18     45     16 
    27     27     18     17     46     47 
    28     28     18     17     46     48 
    29     29     20     49     50     19 
    30     30     20     49     51     19 

