LAMMPS data file Created by LigParGen - (Written by Leela S. Dodda)

      33 atoms
      32 bonds
      57 angles
      67 dihedrals
      18 impropers
 
      33 atom types
      32 bond types
      57 angle types
      67 dihedral types
      18 improper types
 
   -8.256780    41.743220 xlo xhi
   -2.912280    47.087720 ylo yhi
   -2.258210    47.741790 zlo zhi

Masses

       1     12.011  
       2     15.999  
       3     12.011  
       4     15.999  
       5     15.999  
       6     12.011  
       7     12.011  
       8     14.007  
       9     12.011  
      10     12.011  
      11     12.011  
      12     14.007  
      13     12.011  
      14     32.060  
      15     12.011  
      16     15.999  
      17     15.999  
      18      1.008  
      19      1.008  
      20      1.008  
      21      1.008  
      22      1.008  
      23      1.008  
      24      1.008  
      25      1.008  
      26      1.008  
      27      1.008  
      28      1.008  
      29      1.008  
      30      1.008  
      31      1.008  
      32      1.008  
      33      1.008  

Pair Coeffs 

       1      0.066  3.5000000 
       2      0.140  2.9000000 
       3      0.070  3.5500000 
       4      0.210  2.9600000 
       5      0.140  2.9000000 
       6      0.066  3.5000000 
       7      0.066  3.3000000 
       8      0.170  3.2000000 
       9      0.066  3.5000000 
      10      0.066  3.5000000 
      11      0.066  3.5000000 
      12      0.170  3.2500000 
      13      0.066  3.5000000 
      14      0.250  3.5500000 
      15      0.066  3.5000000 
      16      0.170  2.9600000 
      17      0.170  2.9600000 
      18      0.030  2.5000000 
      19      0.030  2.5000000 
      20      0.030  2.5000000 
      21      0.030  2.5000000 
      22      0.030  2.5000000 
      23      0.030  2.5000000 
      24      0.030  2.5000000 
      25      0.030  2.5000000 
      26      0.030  2.5000000 
      27      0.030  2.5000000 
      28      0.030  2.5000000 
      29      0.030  2.5000000 
      30      0.030  2.5000000 
      31      0.030  2.5000000 
      32      0.030  2.5000000 
      33      0.030  2.5000000 

Bond Coeffs 

       1   320.0000     1.4100 
       2   214.0000     1.3270 
       3   570.0000     1.2290 
       4   214.0000     1.3270 
       5   320.0000     1.4100 
       6   390.0000     1.4700 
       7   650.0000     1.1570 
       8   268.0000     1.5290 
       9   268.0000     1.5290 
      10   268.0000     1.5290 
      11   337.0000     1.4490 
      12   337.0000     1.4490 
      13   434.0000     1.6700 
      14   340.0000     1.7700 
      15   700.0000     1.4400 
      16   700.0000     1.4400 
      17   340.0000     1.0900 
      18   340.0000     1.0900 
      19   340.0000     1.0900 
      20   340.0000     1.0900 
      21   340.0000     1.0900 
      22   340.0000     1.0900 
      23   340.0000     1.0900 
      24   340.0000     1.0900 
      25   340.0000     1.0900 
      26   340.0000     1.0900 
      27   340.0000     1.0900 
      28   340.0000     1.0900 
      29   340.0000     1.0900 
      30   340.0000     1.0900 
      31   340.0000     1.0900 
      32   340.0000     1.0900 

Angle Coeffs 

       1     83.000    116.900
       2     83.000    123.400
       3     69.900    118.180
       4     83.000    116.900
       5     51.650    110.580
       6    150.000    180.000
       7     50.000    109.500
       8     58.350    112.700
       9     58.350    112.700
      10     80.000    109.700
      11     50.000    118.000
      12     50.000    120.000
      13    100.000    103.000
      14    120.000    107.000
      15    120.000    107.000
      16     35.000    109.500
      17     35.000    109.500
      18     35.000    109.500
      19     35.000    109.500
      20     37.500    110.700
      21     37.500    110.700
      22     37.500    110.700
      23     37.500    110.700
      24     37.500    110.700
      25     37.500    110.700
      26     35.000    109.500
      27     35.000    109.500
      28     35.000    109.500
      29     35.000    109.500
      30     35.000    109.500
      31     35.000    109.500
      32     58.350    112.700
      33     50.000    120.000
      34     37.500    110.700
      35     33.000    107.800
      36     33.000    107.800
      37     37.500    110.700
      38    104.000    119.000
      39     83.000    123.400
      40     33.000    107.800
      41     74.000    108.900
      42     37.500    110.700
      43     33.000    107.800
      44     33.000    107.800
      45     33.000    107.800
      46     33.000    107.800
      47     33.000    107.800
      48     33.000    107.800
      49     33.000    107.800
      50     74.000    108.900
      51     35.000    109.500
      52     33.000    107.800
      53     33.000    107.800
      54     80.000    109.700
      55     35.000    108.500
      56     33.000    107.800
      57     37.500    110.700

Dihedral Coeffs  

       1      0.000      5.124      0.000      0.000 
       2      4.669      5.124      0.000      0.000 
       3     -1.220     -0.126      0.422      0.000 
       4      0.000      0.000      0.000      0.000 
       5      1.711     -0.500      0.663      0.000 
       6      1.300     -0.200      0.200      0.000 
       7      4.753     -0.734      0.000      0.000 
       8      2.074     -2.966      2.473      0.000 
       9      0.000      0.000      0.198      0.000 
      10      0.000      0.000      0.300      0.000 
      11      0.000      0.000      0.000      0.000 
      12      0.000      0.000      0.000      0.000 
      13      0.000      0.000      0.468      0.000 
      14      0.000      0.000      0.464      0.000 
      15      0.000      0.000      0.464      0.000 
      16      0.000      0.000      0.300      0.000 
      17      0.000      0.000      0.000      0.000 
      18      0.000      0.000      0.350      0.000 
      19      1.362     -1.457      0.149      0.000 
      20      0.000      0.000      0.350      0.000 
      21      0.000      0.000      0.198      0.000 
      22      0.000      0.000      0.300      0.000 
      23      0.000      0.000      0.468      0.000 
      24      0.000      0.000      0.300      0.000 
      25      0.000      0.000      0.000      0.000 
      26      0.000      0.000      0.000      0.000 
      27      0.000      0.000      0.198      0.000 
      28      0.000      0.000      0.300      0.000 
      29      0.000      0.000      0.464      0.000 
      30      0.000      0.000      0.300      0.000 
      31      0.000      0.000      0.000      0.000 
      32      0.000      5.124      0.000      0.000 
      33      1.362     -1.457      0.149      0.000 
      34     -1.220     -0.126      0.422      0.000 
      35      0.000      0.000      0.300      0.000 
      36      1.362     -1.457      0.149      0.000 
      37      0.000      0.000      0.198      0.000 
      38      0.000      0.000      0.350      0.000 
      39      0.000      0.000      0.000      0.000 
      40      0.000      0.000      0.300      0.000 
      41      0.000      0.000      0.350      0.000 
      42      0.000      0.000      0.000      0.000 
      43      0.000      0.000      0.464      0.000 
      44      0.000      0.000      0.300      0.000 
      45      0.000      0.000      0.350      0.000 
      46      0.000      0.000      0.464      0.000 
      47      2.929     -2.533      0.497      0.000 
      48      0.000      0.000      0.300      0.000 
      49      0.845     -0.962      0.713      0.000 
      50      0.000     -0.650      0.000      0.000 
      51      1.362     -1.457      0.149      0.000 
      52      4.753     -0.734      0.000      0.000 
      53      0.000      0.000      0.366      0.000 
      54      0.000      0.000      0.300      0.000 
      55      0.000      0.000      0.300      0.000 
      56      0.000      0.000      0.000      0.000 
      57      4.669      5.124      0.000      0.000 
      58      2.929     -2.533      0.497      0.000 
      59      0.000      0.000      0.000      0.000 
      60      0.000      0.000      0.000      0.000 
      61      0.000      0.000      0.300      0.000 
      62      0.000      0.000      0.366      0.000 
      63      0.000      0.000      0.000      0.000 
      64      0.000      0.000      0.000      0.000 
      65      0.000      0.000      0.300      0.000 
      66      0.000      0.000      0.350      0.000 
      67      2.074     -2.966      2.473      0.000 

Improper Coeffs 

       1     10.500      -1       2 
       2      0.000      -1       2 
       3      0.000      -1       2 
       4      2.500      -1       2 
       5      0.000      -1       2 
       6      0.000      -1       2 
       7      0.000      -1       2 
       8      0.000      -1       2 
       9      0.000      -1       2 
      10      0.000      -1       2 
      11      0.000      -1       2 
      12      0.000      -1       2 
      13      0.000      -1       2 
      14      0.000      -1       2 
      15      0.000      -1       2 
      16      0.000      -1       2 
      17      0.000      -1       2 
      18      0.000      -1       2 

Atoms 

     1      1      1 -0.04590000    1.000  1.00000  0.00000
     2      1      2 -0.31030000   -0.428  1.00000  0.00000
     3      1      3 0.56700000   -0.970  1.00000  1.24211
     4      1      4 -0.47920000   -0.349  1.00000  2.29336
     5      1      5 -0.30240000   -2.321  0.99837  1.12303
     6      1      6 0.23190000   -2.998  0.99989  2.38553
     7      1      7 0.10360000   -3.014  2.38545  3.01033
     8      1      8 -0.33890000   -3.026  3.53473  3.52890
     9      1      9 -0.22140000   -4.465  0.57858  2.20854
    10      1     10 0.35380000   -4.675 -0.80794  1.58832
    11      1     11 -0.24050000   -4.034 -1.92575  2.42043
    12      1     12 -1.44820000   -6.133 -1.12654  1.37277
    13      1     13 0.19910000   -6.967 -1.14993  2.60607
    14      1     14 1.54010000   -6.936 -0.41008  0.04127
    15      1     15 -0.56580000   -6.005 -1.00378 -1.35567
    16      1     16 -0.54790000   -8.257 -0.99725 -0.03895
    17      1     17 -0.54790000   -6.768  1.02292  0.13228
    18      1     18 0.11260000    1.340  0.93304 -1.03678
    19      1     19 0.11260000    1.388  0.13370  0.54559
    20      1     20 0.11260000    1.379  1.93210  0.43093
    21      1     21 0.15910000   -2.515  0.30609  3.08515
    22      1     22 0.14520000   -4.951  1.33266  1.58307
    23      1     23 0.14520000   -4.959  0.62809  3.18763
    24      1     24 0.12210000   -4.176 -0.84076  0.61599
    25      1     25 0.09870000   -4.317 -1.85977  3.47665
    26      1     26 0.09870000   -2.941 -1.87541  2.36933
    27      1     27 0.09870000   -4.337 -2.91228  2.05238
    28      1     28 0.11240000   -6.567 -1.86993  3.32486
    29      1     29 0.11240000   -7.986 -1.47977  2.38763
    30      1     30 0.11240000   -7.013 -0.16328  3.07377
    31      1     31 0.17010000   -5.982 -2.09411 -1.32789
    32      1     32 0.17010000   -5.001 -0.57941 -1.33965
    33      1     33 0.17010000   -6.521 -0.66734 -2.25821

Bonds 

     1      1      2      1
     2      2      3      2
     3      3      4      3
     4      4      5      3
     5      5      6      5
     6      6      7      6
     7      7      8      7
     8      8      9      6
     9      9     10      9
    10     10     11     10
    11     11     12     10
    12     12     13     12
    13     13     14     12
    14     14     15     14
    15     15     16     14
    16     16     17     14
    17     17     18      1
    18     18     19      1
    19     19     20      1
    20     20     21      6
    21     21     22      9
    22     22     23      9
    23     23     24     10
    24     24     25     11
    25     25     26     11
    26     26     27     11
    27     27     28     13
    28     28     29     13
    29     29     30     13
    30     30     31     15
    31     31     32     15
    32     32     33     15

Angles 

     1      1      1      2      3
     2      2      2      3      4
     3      3      2      3      5
     4      4      3      5      6
     5      5      5      6      7
     6      6      6      7      8
     7      7      5      6      9
     8      8      6      9     10
     9      9      9     10     11
    10     10      9     10     12
    11     11     10     12     13
    12     12     10     12     14
    13     13     12     14     15
    14     14     12     14     16
    15     15     12     14     17
    16     16      2      1     18
    17     17      2      1     19
    18     18      2      1     20
    19     19      5      6     21
    20     20      6      9     22
    21     21      6      9     23
    22     22      9     10     24
    23     23     10     11     25
    24     24     10     11     26
    25     25     10     11     27
    26     26     12     13     28
    27     27     12     13     29
    28     28     12     13     30
    29     29     14     15     31
    30     30     14     15     32
    31     31     14     15     33
    32     32      7      6      9
    33     33     13     12     14
    34     34      9      6     21
    35     35     32     15     33
    36     36     22      9     23
    37     37     10      9     23
    38     38     16     14     17
    39     39      4      3      5
    40     40     31     15     33
    41     41     15     14     16
    42     42     10      9     22
    43     43     19      1     20
    44     44     29     13     30
    45     45     28     13     29
    46     46     18      1     20
    47     47     26     11     27
    48     48     25     11     26
    49     49     18      1     19
    50     50     15     14     17
    51     51     12     10     24
    52     52     25     11     27
    53     53     28     13     30
    54     54     11     10     12
    55     55      7      6     21
    56     56     31     15     32
    57     57     11     10     24

Dihedrals

     1      1      4      3      2      1 
     2      2      6      5      3      2 
     3      3      7      6      5      3 
     4      4      8      7      6      5 
     5      5     10      9      6      5 
     6      6     11     10      9      6 
     7      7     13     12     10      9 
     8      8     15     14     12     10 
     9      9     18      1      2      3 
    10     10     25     11     10      9 
    11     11     28     13     12     10 
    12     12     31     15     14     12 
    13     13     22      9      6      5 
    14     14     27     11     10     12 
    15     15     25     11     10     12 
    16     16     27     11     10      9 
    17     17      9      6      7      8 
    18     18     31     15     14     16 
    19     19     28     13     12     14 
    20     20     33     15     14     17 
    21     21     21      6      5      3 
    22     22     22      9      6     21 
    23     23     23      9      6      5 
    24     24     23      9     10     11 
    25     25     17     14     12     10 
    26     26     30     13     12     10 
    27     27     20      1      2      3 
    28     28     25     11     10     24 
    29     29     26     11     10     12 
    30     30     27     11     10     24 
    31     31     24     10     12     13 
    32     32      6      5      3      4 
    33     33     24     10     12     14 
    34     34      9      6      5      3 
    35     35     26     11     10     24 
    36     36     29     13     12     14 
    37     37     19      1      2      3 
    38     38     32     15     14     17 
    39     39     16     14     12     13 
    40     40     21      6      9     10 
    41     41     32     15     14     16 
    42     42     29     13     12     10 
    43     43     23      9     10     12 
    44     44     24     10      9     22 
    45     45     33     15     14     16 
    46     46     22      9     10     12 
    47     47     14     12     10     11 
    48     48     24     10      9      6 
    49     49     12     10      9      6 
    50     50     10      9      6      7 
    51     51     30     13     12     14 
    52     52     13     12     10     11 
    53     53     22      9      6      7 
    54     54     22      9     10     11 
    55     55     26     11     10      9 
    56     56     33     15     14     12 
    57     57      5      3      2      1 
    58     58     14     12     10      9 
    59     59     32     15     14     12 
    60     60     17     14     12     13 
    61     61     23      9      6     21 
    62     62     23      9      6      7 
    63     63     16     14     12     10 
    64     64     21      6      7      8 
    65     65     24     10      9     23 
    66     66     31     15     14     17 
    67     67     15     14     12     13 

Impropers

     1      1      3      2      4      5 
     2      2      6      9      5      7 
     3      3     10      9     11     12 
     4      4     12     10     13     14 
     5      5     14     12     15     16 
     6      6     14     17     12     15 
     7      7      1      2     19     18 
     8      8      1      2     20     18 
     9      9      6      5     21      7 
    10     10      9     10     22      6 
    11     11      9     10      6     23 
    12     12     10      9     11     24 
    13     13     11     25     26     10 
    14     14     11     25     10     27 
    15     15     13     28     12     29 
    16     16     13     28     12     30 
    17     17     15     31     14     32 
    18     18     15     33     31     14 

