LAMMPS data file Created by LigParGen - (Written by Leela S. Dodda)

      39 atoms
      38 bonds
      72 angles
      96 dihedrals
      24 impropers
 
      39 atom types
      38 bond types
      72 angle types
      96 dihedral types
      24 improper types
 
  -11.972840    38.027160 xlo xhi
   -3.159980    46.840020 ylo yhi
   -1.027820    48.972180 zlo zhi

Masses

       1     12.011  
       2     12.011  
       3     12.011  
       4     12.011  
       5     32.060  
       6     15.999  
       7     15.999  
       8     12.011  
       9     12.011  
      10     12.011  
      11     12.011  
      12     15.999  
      13     12.011  
      14     12.011  
      15     12.011  
      16     12.011  
      17     15.999  
      18      1.008  
      19      1.008  
      20      1.008  
      21      1.008  
      22      1.008  
      23      1.008  
      24      1.008  
      25      1.008  
      26      1.008  
      27      1.008  
      28      1.008  
      29      1.008  
      30      1.008  
      31      1.008  
      32      1.008  
      33      1.008  
      34      1.008  
      35      1.008  
      36      1.008  
      37      1.008  
      38      1.008  
      39      1.008  

Pair Coeffs 

       1      0.066  3.5000000 
       2      0.066  3.5000000 
       3      0.066  3.5000000 
       4      0.066  3.5000000 
       5      0.250  3.5500000 
       6      0.170  2.9600000 
       7      0.170  2.9600000 
       8      0.066  3.5000000 
       9      0.066  3.5000000 
      10      0.066  3.5000000 
      11      0.070  3.5500000 
      12      0.210  2.9600000 
      13      0.066  3.5000000 
      14      0.066  3.5000000 
      15      0.070  3.5500000 
      16      0.066  3.5000000 
      17      0.210  2.9600000 
      18      0.030  2.5000000 
      19      0.030  2.5000000 
      20      0.030  2.5000000 
      21      0.030  2.5000000 
      22      0.030  2.5000000 
      23      0.030  2.5000000 
      24      0.030  2.5000000 
      25      0.030  2.5000000 
      26      0.030  2.5000000 
      27      0.030  2.5000000 
      28      0.030  2.5000000 
      29      0.030  2.5000000 
      30      0.030  2.5000000 
      31      0.030  2.5000000 
      32      0.030  2.5000000 
      33      0.030  2.5000000 
      34      0.030  2.5000000 
      35      0.030  2.5000000 
      36      0.030  2.5000000 
      37      0.030  2.5000000 
      38      0.030  2.5000000 
      39      0.030  2.5000000 

Bond Coeffs 

       1   268.0000     1.5290 
       2   268.0000     1.5290 
       3   268.0000     1.5290 
       4   340.0000     1.7700 
       5   700.0000     1.4400 
       6   700.0000     1.4400 
       7   340.0000     1.7700 
       8   268.0000     1.5290 
       9   268.0000     1.5290 
      10   317.0000     1.5220 
      11   570.0000     1.2290 
      12   317.0000     1.5220 
      13   268.0000     1.5290 
      14   317.0000     1.5220 
      15   317.0000     1.5220 
      16   570.0000     1.2290 
      17   340.0000     1.0900 
      18   340.0000     1.0900 
      19   340.0000     1.0900 
      20   340.0000     1.0900 
      21   340.0000     1.0900 
      22   340.0000     1.0900 
      23   340.0000     1.0900 
      24   340.0000     1.0900 
      25   340.0000     1.0900 
      26   340.0000     1.0900 
      27   340.0000     1.0900 
      28   340.0000     1.0900 
      29   340.0000     1.0900 
      30   340.0000     1.0900 
      31   340.0000     1.0900 
      32   340.0000     1.0900 
      33   340.0000     1.0900 
      34   340.0000     1.0900 
      35   340.0000     1.0900 
      36   340.0000     1.0900 
      37   340.0000     1.0900 
      38   340.0000     1.0900 

Angle Coeffs 

       1     58.350    112.700
       2     58.350    112.700
       3     50.000    108.600
       4     74.000    108.900
       5     74.000    108.900
       6     62.000    102.000
       7     50.000    108.600
       8     58.350    112.700
       9     63.000    111.100
      10     80.000    120.400
      11     70.000    116.000
      12     63.000    111.100
      13     63.000    111.100
      14     70.000    116.000
      15     80.000    120.400
      16     37.500    110.700
      17     37.500    110.700
      18     37.500    110.700
      19     37.500    110.700
      20     37.500    110.700
      21     37.500    110.700
      22     37.500    110.700
      23     37.500    110.700
      24     37.500    110.700
      25     35.000    109.500
      26     35.000    109.500
      27     37.500    110.700
      28     37.500    110.700
      29     37.500    110.700
      30     37.500    110.700
      31     35.000    109.500
      32     35.000    109.500
      33     37.500    110.700
      34     37.500    110.700
      35     35.000    109.500
      36     35.000    109.500
      37     35.000    109.500
      38     37.500    110.700
      39     33.000    107.800
      40     37.500    110.700
      41     33.000    107.800
      42     35.000    109.500
      43     33.000    107.800
      44     37.500    110.700
      45     33.000    107.800
      46     37.500    110.700
      47     33.000    107.800
      48     33.000    107.800
      49     33.000    107.800
      50     35.000    109.500
      51     35.000    109.500
      52     33.000    107.800
      53     33.000    107.800
      54     37.500    110.700
      55     37.500    110.700
      56     37.500    110.700
      57     50.000    108.600
      58     33.000    107.800
      59     37.500    110.700
      60     33.000    107.800
      61    104.000    119.000
      62     33.000    107.800
      63     80.000    120.400
      64     74.000    108.900
      65     33.000    107.800
      66     80.000    120.400
      67     74.000    108.900
      68     35.000    109.500
      69     37.500    110.700
      70     33.000    107.800
      71     33.000    107.800
      72     35.000    109.500

Dihedral Coeffs  

       1      1.300     -0.200      0.200      0.000 
       2      0.000      0.000      0.000      0.000 
       3      0.000      0.000      0.000      0.000 
       4      1.262     -0.198      0.465      0.000 
       5     -2.060     -0.313      0.315      0.000 
       6      0.000      0.000      0.000      0.000 
       7      1.454     -0.144     -0.775      0.000 
       8     -0.550      0.000      1.000      0.000 
       9      1.454     -0.144     -0.775      0.000 
      10      0.000      0.000      0.300      0.000 
      11      0.000      0.000      0.300      0.000 
      12      0.000      0.000      0.275      0.000 
      13      0.000      0.000      0.300      0.000 
      14      0.000      0.000      0.300      0.000 
      15      0.000      0.000      0.000      0.000 
      16      0.000      0.000      0.452      0.000 
      17      0.000      0.000      0.000      0.000 
      18      0.000      0.000      0.275      0.000 
      19      0.000      0.000      0.300      0.000 
      20      0.000      0.000      0.000      0.000 
      21      0.000      0.000      0.000      0.000 
      22      0.000      0.000      0.275      0.000 
      23      0.000      0.000      0.350      0.000 
      24      0.000      0.000      0.300      0.000 
      25      0.000      0.000      0.000      0.000 
      26      0.000      0.000      0.275      0.000 
      27      0.000      0.000     -0.100      0.000 
      28      0.000      0.000      0.300      0.000 
      29      0.000      0.000      0.452      0.000 
      30      0.000      0.000      0.300      0.000 
      31      0.000      0.000     -0.100      0.000 
      32      0.000      0.000      0.000      0.000 
      33      0.000      0.000      0.000      0.000 
      34      0.000      0.000      0.300      0.000 
      35      0.000      0.000      0.000      0.000 
      36      0.000      0.000      0.350      0.000 
      37      0.000      0.000      0.350      0.000 
      38      0.000      0.000      0.275      0.000 
      39      0.000      0.000      0.000      0.000 
      40      0.000      0.000      0.300      0.000 
      41      0.000      0.000      0.300      0.000 
      42      0.000      0.000      0.275      0.000 
      43      0.000      0.000      0.000      0.000 
      44      1.454     -0.144     -0.775      0.000 
      45      0.000      0.000      0.300      0.000 
      46      0.000      0.000     -0.100      0.000 
      47      0.000      0.000      0.000      0.000 
      48      0.000      0.000      0.300      0.000 
      49      0.000      0.000      0.300      0.000 
      50      0.000      0.000      0.350      0.000 
      51      0.000      0.000      0.300      0.000 
      52      0.000      0.000      0.300      0.000 
      53      0.000      0.000      0.452      0.000 
      54      0.000      0.000      0.300      0.000 
      55      0.000      0.000      0.000      0.000 
      56      0.000      0.000     -0.100      0.000 
      57      0.000      0.000      0.000      0.000 
      58      0.000      0.000      0.000      0.000 
      59      0.000      0.000      0.452      0.000 
      60      0.000      0.000      0.275      0.000 
      61      0.000      0.000      0.300      0.000 
      62      0.000      0.000      0.300      0.000 
      63      0.000      0.000      0.300      0.000 
      64      0.000      0.000      0.000      0.000 
      65      0.000      0.000     -0.100      0.000 
      66      0.000      0.000      0.300      0.000 
      67      0.000      0.000      0.300      0.000 
      68      0.000      0.000      0.000      0.000 
      69      0.000      0.000      0.275      0.000 
      70      0.000      0.000      0.300      0.000 
      71      0.000      0.000      0.300      0.000 
      72      0.000      0.000      0.300      0.000 
      73      0.000      0.000      0.350      0.000 
      74      0.000      0.000      0.300      0.000 
      75      0.000      0.000     -0.100      0.000 
      76      0.000      0.000      0.300      0.000 
      77      0.000      0.000      0.300      0.000 
      78      0.000      0.000      0.300      0.000 
      79      0.000      0.000      0.452      0.000 
      80      0.000      0.000      0.000      0.000 
      81      1.262     -0.198      0.465      0.000 
      82      0.000      0.000      0.300      0.000 
      83      0.000      0.000      0.350      0.000 
      84      0.000      0.000      0.350      0.000 
      85      0.000      0.000      0.452      0.000 
      86      0.000      0.000      0.300      0.000 
      87      0.000      0.000      0.452      0.000 
      88      0.000      0.000      0.300      0.000 
      89      0.000      0.000      0.300      0.000 
      90      0.000      0.000      0.300      0.000 
      91      0.000      0.000      0.350      0.000 
      92      0.000      0.000      0.300      0.000 
      93      0.000      0.000      0.300      0.000 
      94      0.000      0.000      0.275      0.000 
      95      0.000      0.000      0.000      0.000 
      96      0.000      0.000      0.350      0.000 

Improper Coeffs 

       1      0.000      -1       2 
       2      0.000      -1       2 
       3      0.000      -1       2 
       4     10.500      -1       2 
       5     10.500      -1       2 
       6      0.000      -1       2 
       7      0.000      -1       2 
       8      0.000      -1       2 
       9      0.000      -1       2 
      10      0.000      -1       2 
      11      0.000      -1       2 
      12      0.000      -1       2 
      13      0.000      -1       2 
      14      0.000      -1       2 
      15      0.000      -1       2 
      16      0.000      -1       2 
      17      0.000      -1       2 
      18      0.000      -1       2 
      19      0.000      -1       2 
      20      0.000      -1       2 
      21      0.000      -1       2 
      22      0.000      -1       2 
      23      0.000      -1       2 
      24      0.000      -1       2 

Atoms 

     1      1      1 -0.22530000    1.000  1.00000  0.00000
     2      1      2 -0.15380000   -0.519  1.00000  0.00000
     3      1      3 -0.40620000   -1.153  1.00000  1.40452
     4      1      4 -0.22010000   -0.780  2.23250  2.21856
     5      1      5 1.27520000   -2.941  0.83493  1.20105
     6      1      6 -0.57330000   -3.427  1.98747  0.46684
     7      1      7 -0.57330000   -3.163 -0.50830  0.69479
     8      1      8 -0.49410000   -3.648  0.91149  2.84610
     9      1      9 -0.13330000   -5.177  0.84928  2.83881
    10      1     10 -0.25220000   -5.737 -0.45927  2.28752
    11      1     11 0.36590000   -7.251 -0.48824  2.29615
    12      1     12 -0.45670000   -7.904  0.08121  3.16898
    13      1     13 -0.22630000   -7.899 -1.31264  1.20010
    14      1     14 -0.22890000   -9.416 -1.27619  1.29443
    15      1     15 0.36110000  -10.072 -2.09689  0.20661
    16      1     16 -0.30230000  -11.579 -2.12932  0.20485
    17      1     17 -0.45210000   -9.427 -2.71297 -0.63944
    18      1     18 0.08790000    1.369  0.91893 -1.02782
    19      1     19 0.08790000    1.392  0.15275  0.57006
    20      1     20 0.08790000    1.401  1.92603  0.41986
    21      1     21 0.11320000   -0.855  0.11091 -0.54883
    22      1     22 0.11320000   -0.875  1.86584 -0.57210
    23      1     23 0.15680000   -0.832  0.10119  1.94552
    24      1     24 0.10090000   -1.137  3.15040  1.74084
    25      1     25 0.10090000    0.304  2.30919  2.34721
    26      1     26 0.10090000   -1.207  2.18887  3.22399
    27      1     27 0.15790000   -3.351  1.86968  3.28111
    28      1     28 0.15790000   -3.217  0.09727  3.43534
    29      1     29 0.12530000   -5.579  1.68957  2.25871
    30      1     30 0.12530000   -5.529  0.98926  3.86839
    31      1     31 0.13760000   -5.372 -1.31798  2.86019
    32      1     32 0.13760000   -5.440 -0.58283  1.24446
    33      1     33 0.14080000   -7.532 -2.34171  1.28569
    34      1     34 0.14080000   -7.574 -0.91039  0.23337
    35      1     35 0.13500000   -9.771 -0.24350  1.20417
    36      1     36 0.13500000   -9.741 -1.67352  2.26252
    37      1     37 0.11770000  -11.973 -1.52693  1.02766
    38      1     38 0.11770000  -11.916 -3.15998  0.33389
    39      1     39 0.11770000  -11.947 -1.71870 -0.73800

Bonds 

     1      1      2      1
     2      2      3      2
     3      3      4      3
     4      4      5      3
     5      5      6      5
     6      6      7      5
     7      7      8      5
     8      8      9      8
     9      9     10      9
    10     10     11     10
    11     11     12     11
    12     12     13     11
    13     13     14     13
    14     14     15     14
    15     15     16     15
    16     16     17     15
    17     17     18      1
    18     18     19      1
    19     19     20      1
    20     20     21      2
    21     21     22      2
    22     22     23      3
    23     23     24      4
    24     24     25      4
    25     25     26      4
    26     26     27      8
    27     27     28      8
    28     28     29      9
    29     29     30      9
    30     30     31     10
    31     31     32     10
    32     32     33     13
    33     33     34     13
    34     34     35     14
    35     35     36     14
    36     36     37     16
    37     37     38     16
    38     38     39     16

Angles 

     1      1      1      2      3
     2      2      2      3      4
     3      3      2      3      5
     4      4      3      5      6
     5      5      3      5      7
     6      6      3      5      8
     7      7      5      8      9
     8      8      8      9     10
     9      9      9     10     11
    10     10     10     11     12
    11     11     10     11     13
    12     12     11     13     14
    13     13     13     14     15
    14     14     14     15     16
    15     15     14     15     17
    16     16      2      1     18
    17     17      2      1     19
    18     18      2      1     20
    19     19      1      2     21
    20     20      1      2     22
    21     21      2      3     23
    22     22      3      4     24
    23     23      3      4     25
    24     24      3      4     26
    25     25      5      8     27
    26     26      5      8     28
    27     27      8      9     29
    28     28      8      9     30
    29     29      9     10     31
    30     30      9     10     32
    31     31     11     13     33
    32     32     11     13     34
    33     33     13     14     35
    34     34     13     14     36
    35     35     15     16     37
    36     36     15     16     38
    37     37     15     16     39
    38     38      9      8     28
    39     39     33     13     34
    40     40     10      9     30
    41     41     29      9     30
    42     42     15     14     35
    43     43     37     16     39
    44     44     14     13     33
    45     45     37     16     38
    46     46     10      9     29
    47     47     31     10     32
    48     48     24      4     26
    49     49     24      4     25
    50     50      5      3     23
    51     51     11     10     32
    52     52     18      1     20
    53     53     27      8     28
    54     54      4      3     23
    55     55      3      2     22
    56     56     14     13     34
    57     57      4      3      5
    58     58     18      1     19
    59     59      9      8     27
    60     60     35     14     36
    61     61      6      5      7
    62     62     19      1     20
    63     63     16     15     17
    64     64      6      5      8
    65     65     25      4     26
    66     66     12     11     13
    67     67      7      5      8
    68     68     15     14     36
    69     69      3      2     21
    70     70     21      2     22
    71     71     38     16     39
    72     72     11     10     31

Dihedrals

     1      1      4      3      2      1 
     2      2      6      5      3      2 
     3      3      9      8      5      3 
     4      4     10      9      8      5 
     5      5     11     10      9      8 
     6      6     12     11     10      9 
     7      7     14     13     11     10 
     8      8     15     14     13     11 
     9      9     16     15     14     13 
    10     10     18      1      2      3 
    11     11     24      4      3      2 
    12     12     37     16     15     14 
    13     13     24      4      3     23 
    14     14     28      8      9     10 
    15     15     31     10     11     12 
    16     16     25      4      3      5 
    17     17      8      5      3      2 
    18     18     39     16     15     14 
    19     19     26      4      3     23 
    20     20      8      5      3      4 
    21     21     34     13     11     12 
    22     22     38     16     15     14 
    23     23     27      8      5      3 
    24     24     19      1      2      3 
    25     25     35     14     15     17 
    26     26     36     14     15     16 
    27     27     34     13     14     15 
    28     28     31     10      9     29 
    29     29     22      2      3      5 
    30     30     35     14     13     33 
    31     31     33     13     14     15 
    32     32     17     15     14     13 
    33     33     39     16     15     17 
    34     34     32     10      9     30 
    35     35     36     14     15     17 
    36     36     23      3      5      6 
    37     37     27      8      5      6 
    38     38     31     10     11     13 
    39     39     32     10     11     12 
    40     40     23      3      2     22 
    41     41     26      4      3      2 
    42     42     33     13     11     10 
    43     43      6      5      3      4 
    44     44     13     11     10      9 
    45     45     32     10      9      8 
    46     46     35     14     13     11 
    47     47     38     16     15     17 
    48     48     22      2      1     20 
    49     49     21      2      1     18 
    50     50     23      3      5      7 
    51     51     30      9      8     27 
    52     52     29      9      8     28 
    53     53     26      4      3      5 
    54     54     27      8      9     10 
    55     55     33     13     11     12 
    56     56     29      9     10     11 
    57     57      7      5      3      4 
    58     58      9      8      5      6 
    59     59     24      4      3      5 
    60     60     32     10     11     13 
    61     61     21      2      1     20 
    62     62     22      2      1     19 
    63     63     30      9      8     28 
    64     64     14     13     11     12 
    65     65     30      9     10     11 
    66     66     31     10      9     30 
    67     67     25      4      3     23 
    68     68      7      5      3      2 
    69     69     35     14     15     16 
    70     70     35     14     13     34 
    71     71     36     14     13     33 
    72     72     29      9      8     27 
    73     73     28      8      5      3 
    74     74     23      3      2      1 
    75     75     36     14     13     11 
    76     76     23      3      2     21 
    77     77     21      2      3      4 
    78     78     36     14     13     34 
    79     79     30      9      8      5 
    80     80      9      8      5      7 
    81     81      5      3      2      1 
    82     82     20      1      2      3 
    83     83     28      8      5      6 
    84     84     27      8      5      7 
    85     85     29      9      8      5 
    86     86     31     10      9      8 
    87     87     21      2      3      5 
    88     88     22      2      3      4 
    89     89     22      2      1     18 
    90     90     21      2      1     19 
    91     91     23      3      5      8 
    92     92     25      4      3      2 
    93     93     32     10      9     29 
    94     94     34     13     11     10 
    95     95     37     16     15     17 
    96     96     28      8      5      7 

Impropers

     1      1      3      2      4      5 
     2      2      5      3      6      7 
     3      3      5      3      6      8 
     4      4     11     10     12     13 
     5      5     15     17     14     16 
     6      6      1      2     19     18 
     7      7      1      2     20     18 
     8      8      2      1      3     21 
     9      9      2      1      3     22 
    10     10      3      2      4     23 
    11     11      4     25      3     24 
    12     12      4     26      3     24 
    13     13      8      9     27      5 
    14     14      8      9     28      5 
    15     15      9     10     29      8 
    16     16      9     10     30      8 
    17     17     10      9     11     31 
    18     18     10      9     11     32 
    19     19     13     33     11     14 
    20     20     13     34     11     14 
    21     21     14     35     13     15 
    22     22     14     36     13     15 
    23     23     16     37     38     15 
    24     24     16     37     15     39 

