LAMMPS data file Created by LigParGen - (Written by Leela S. Dodda)

      53 atoms
      52 bonds
      98 angles
     130 dihedrals
      32 impropers
 
      53 atom types
      52 bond types
      98 angle types
     130 dihedral types
      32 improper types
 
  -12.244710    37.755290 xlo xhi
   -3.787100    46.212900 ylo yhi
   -1.028050    48.971950 zlo zhi

Masses

       1     12.011  
       2     12.011  
       3     12.011  
       4     12.011  
       5     12.011  
       6     12.011  
       7     15.999  
       8     12.011  
       9     15.999  
      10     12.011  
      11     12.011  
      12     12.011  
      13     12.011  
      14     12.011  
      15     12.011  
      16     12.011  
      17     12.011  
      18     12.011  
      19     15.999  
      20     15.999  
      21     12.011  
      22      1.008  
      23      1.008  
      24      1.008  
      25      1.008  
      26      1.008  
      27      1.008  
      28      1.008  
      29      1.008  
      30      1.008  
      31      1.008  
      32      1.008  
      33      1.008  
      34      1.008  
      35      1.008  
      36      1.008  
      37      1.008  
      38      1.008  
      39      1.008  
      40      1.008  
      41      1.008  
      42      1.008  
      43      1.008  
      44      1.008  
      45      1.008  
      46      1.008  
      47      1.008  
      48      1.008  
      49      1.008  
      50      1.008  
      51      1.008  
      52      1.008  
      53      1.008  

Pair Coeffs 

       1      0.066  3.5000000 
       2      0.066  3.5000000 
       3      0.066  3.5000000 
       4      0.066  3.5000000 
       5      0.066  3.5000000 
       6      0.066  3.5000000 
       7      0.140  2.9000000 
       8      0.070  3.5500000 
       9      0.210  2.9600000 
      10      0.066  3.5000000 
      11      0.066  3.5000000 
      12      0.066  3.5000000 
      13      0.066  3.5000000 
      14      0.066  3.5000000 
      15      0.066  3.5000000 
      16      0.066  3.5000000 
      17      0.066  3.5000000 
      18      0.070  3.5500000 
      19      0.210  2.9600000 
      20      0.140  2.9000000 
      21      0.066  3.5000000 
      22      0.030  2.5000000 
      23      0.030  2.5000000 
      24      0.030  2.5000000 
      25      0.030  2.5000000 
      26      0.030  2.5000000 
      27      0.030  2.5000000 
      28      0.030  2.5000000 
      29      0.030  2.5000000 
      30      0.030  2.5000000 
      31      0.030  2.5000000 
      32      0.030  2.5000000 
      33      0.030  2.5000000 
      34      0.030  2.5000000 
      35      0.030  2.5000000 
      36      0.030  2.5000000 
      37      0.030  2.5000000 
      38      0.030  2.5000000 
      39      0.030  2.5000000 
      40      0.030  2.5000000 
      41      0.030  2.5000000 
      42      0.030  2.5000000 
      43      0.030  2.5000000 
      44      0.030  2.5000000 
      45      0.030  2.5000000 
      46      0.030  2.5000000 
      47      0.030  2.5000000 
      48      0.030  2.5000000 
      49      0.030  2.5000000 
      50      0.030  2.5000000 
      51      0.030  2.5000000 
      52      0.030  2.5000000 
      53      0.030  2.5000000 

Bond Coeffs 

       1   268.0000     1.5290 
       2   268.0000     1.5290 
       3   268.0000     1.5290 
       4   268.0000     1.5290 
       5   268.0000     1.5290 
       6   320.0000     1.4100 
       7   214.0000     1.3270 
       8   570.0000     1.2290 
       9   317.0000     1.5220 
      10   268.0000     1.5290 
      11   268.0000     1.5290 
      12   268.0000     1.5290 
      13   268.0000     1.5290 
      14   268.0000     1.5290 
      15   268.0000     1.5290 
      16   268.0000     1.5290 
      17   317.0000     1.5220 
      18   570.0000     1.2290 
      19   214.0000     1.3270 
      20   320.0000     1.4100 
      21   340.0000     1.0900 
      22   340.0000     1.0900 
      23   340.0000     1.0900 
      24   340.0000     1.0900 
      25   340.0000     1.0900 
      26   340.0000     1.0900 
      27   340.0000     1.0900 
      28   340.0000     1.0900 
      29   340.0000     1.0900 
      30   340.0000     1.0900 
      31   340.0000     1.0900 
      32   340.0000     1.0900 
      33   340.0000     1.0900 
      34   340.0000     1.0900 
      35   340.0000     1.0900 
      36   340.0000     1.0900 
      37   340.0000     1.0900 
      38   340.0000     1.0900 
      39   340.0000     1.0900 
      40   340.0000     1.0900 
      41   340.0000     1.0900 
      42   340.0000     1.0900 
      43   340.0000     1.0900 
      44   340.0000     1.0900 
      45   340.0000     1.0900 
      46   340.0000     1.0900 
      47   340.0000     1.0900 
      48   340.0000     1.0900 
      49   340.0000     1.0900 
      50   340.0000     1.0900 
      51   340.0000     1.0900 
      52   340.0000     1.0900 

Angle Coeffs 

       1     58.350    112.700
       2     58.350    112.700
       3     58.350    112.700
       4     58.350    112.700
       5     50.000    109.500
       6     83.000    116.900
       7     83.000    123.400
       8     81.000    111.400
       9     63.000    111.100
      10     58.350    112.700
      11     58.350    112.700
      12     58.350    112.700
      13     58.350    112.700
      14     58.350    112.700
      15     58.350    112.700
      16     63.000    111.100
      17     80.000    120.400
      18     81.000    111.400
      19     83.000    116.900
      20     37.500    110.700
      21     37.500    110.700
      22     37.500    110.700
      23     37.500    110.700
      24     37.500    110.700
      25     37.500    110.700
      26     37.500    110.700
      27     37.500    110.700
      28     37.500    110.700
      29     37.500    110.700
      30     37.500    110.700
      31     37.500    110.700
      32     37.500    110.700
      33     35.000    109.500
      34     35.000    109.500
      35     37.500    110.700
      36     37.500    110.700
      37     37.500    110.700
      38     37.500    110.700
      39     37.500    110.700
      40     37.500    110.700
      41     37.500    110.700
      42     37.500    110.700
      43     37.500    110.700
      44     37.500    110.700
      45     37.500    110.700
      46     37.500    110.700
      47     37.500    110.700
      48     37.500    110.700
      49     35.000    109.500
      50     35.000    109.500
      51     35.000    109.500
      52     37.500    110.700
      53     33.000    107.800
      54     37.500    110.700
      55     33.000    107.800
      56     33.000    107.800
      57     33.000    107.800
      58     33.000    107.800
      59     37.500    110.700
      60     33.000    107.800
      61     33.000    107.800
      62     33.000    107.800
      63     33.000    107.800
      64     33.000    107.800
      65     33.000    107.800
      66     37.500    110.700
      67     37.500    110.700
      68     37.500    110.700
      69     37.500    110.700
      70     37.500    110.700
      71     33.000    107.800
      72     37.500    110.700
      73     37.500    110.700
      74     37.500    110.700
      75     33.000    107.800
      76     33.000    107.800
      77     33.000    107.800
      78     35.000    109.500
      79     37.500    110.700
      80     58.350    112.700
      81     80.000    120.400
      82     33.000    107.800
      83     35.000    109.500
      84     37.500    110.700
      85     33.000    107.800
      86     37.500    110.700
      87     37.500    110.700
      88     35.000    109.500
      89     83.000    123.400
      90     37.500    110.700
      91     33.000    107.800
      92     33.000    107.800
      93     37.500    110.700
      94     37.500    110.700
      95     37.500    110.700
      96     37.500    110.700
      97     33.000    107.800
      98     35.000    109.500

Dihedral Coeffs  

       1      1.300     -0.200      0.200      0.000 
       2      1.300     -0.200      0.200      0.000 
       3      1.300     -0.200      0.200      0.000 
       4      1.711     -0.500      0.663      0.000 
       5     -1.220     -0.126      0.422      0.000 
       6      0.000      5.124      0.000      0.000 
       7      0.000      0.000     -0.553      0.000 
       8     -2.060     -0.313      0.315      0.000 
       9      1.300     -0.200      0.200      0.000 
      10      1.300     -0.200      0.200      0.000 
      11      1.300     -0.200      0.200      0.000 
      12      1.300     -0.200      0.200      0.000 
      13     -2.060     -0.313      0.315      0.000 
      14      0.000      0.000      0.000      0.000 
      15      4.669      5.124      0.000      0.000 
      16      0.000      0.000      0.300      0.000 
      17      0.000      0.000      0.300      0.000 
      18      0.000      0.000      0.198      0.000 
      19      0.000      0.000      0.132      0.000 
      20      0.000      0.000      0.300      0.000 
      21      0.000      0.000      0.300      0.000 
      22      0.000      0.000      0.300      0.000 
      23      0.000      0.000      0.300      0.000 
      24      0.000      0.000      0.300      0.000 
      25      0.000      0.000      0.300      0.000 
      26      0.000      0.000      0.300      0.000 
      27      0.000      0.000      0.300      0.000 
      28      0.000      0.000      0.300      0.000 
      29      0.000      0.000      0.300      0.000 
      30      0.000      0.000      0.300      0.000 
      31      0.000      0.000      0.300      0.000 
      32      0.000      0.000      0.300      0.000 
      33      0.000      0.000      0.300      0.000 
      34      1.300     -0.200      0.200      0.000 
      35      0.000      5.124      0.000      0.000 
      36      0.000      0.000      0.300      0.000 
      37      0.000      0.000      0.300      0.000 
      38      0.000      0.000      0.468      0.000 
      39      0.000      0.000      0.300      0.000 
      40      0.000      0.000      0.300      0.000 
      41      0.000      0.000      0.300      0.000 
      42      0.000      0.000     -0.100      0.000 
      43      0.000      0.000      0.300      0.000 
      44      0.000      0.000      0.300      0.000 
      45      0.000      0.000     -0.553      0.000 
      46      0.000      0.000      0.300      0.000 
      47      0.000      0.000      0.300      0.000 
      48      0.000      0.000      0.300      0.000 
      49      0.000      0.000      0.300      0.000 
      50      1.300     -0.200      0.200      0.000 
      51      0.000      0.000      0.000      0.000 
      52      0.000      0.000      0.198      0.000 
      53      0.000      0.000      0.300      0.000 
      54      0.000      0.000      0.300      0.000 
      55      0.000      0.000      0.300      0.000 
      56      0.000      0.000      0.198      0.000 
      57      0.000      0.000      0.300      0.000 
      58      0.000      0.000      0.198      0.000 
      59      0.000      0.000      0.300      0.000 
      60      0.000      0.000      0.300      0.000 
      61      0.000      0.000      0.300      0.000 
      62      0.000      0.000      0.300      0.000 
      63      0.000      0.000      0.300      0.000 
      64      0.000      0.000      0.300      0.000 
      65      0.000      0.000      0.300      0.000 
      66      0.000      0.000      0.000      0.000 
      67      0.000      0.000      0.300      0.000 
      68      0.000      0.000      0.300      0.000 
      69      0.000      0.000      0.300      0.000 
      70      0.000      0.000      0.198      0.000 
      71      0.000      0.000      0.300      0.000 
      72      0.000      0.000      0.300      0.000 
      73      0.000      0.000      0.468      0.000 
      74      0.000      0.000      0.300      0.000 
      75      0.000      0.000      0.300      0.000 
      76      0.000      0.000      0.300      0.000 
      77      0.000      0.000      0.300      0.000 
      78      0.000      0.000      0.300      0.000 
      79      0.000      0.000      0.300      0.000 
      80      0.000      0.000      0.300      0.000 
      81      0.000      0.000      0.300      0.000 
      82      0.000      0.000      0.300      0.000 
      83      0.000      0.000      0.300      0.000 
      84      0.000      0.000      0.300      0.000 
      85      0.000      0.000      0.300      0.000 
      86      0.000      0.000      0.300      0.000 
      87      0.000      0.000      0.300      0.000 
      88      0.000      0.000      0.300      0.000 
      89      0.000      0.000      0.300      0.000 
      90      0.000      0.000      0.300      0.000 
      91     -2.060     -0.313      0.315      0.000 
      92      0.000      0.000      0.300      0.000 
      93      0.000      0.000      0.300      0.000 
      94      0.000      0.000      0.300      0.000 
      95      0.000      0.000      0.300      0.000 
      96      0.000      0.000      0.132      0.000 
      97      0.000      0.000      0.300      0.000 
      98      0.000      0.000      0.300      0.000 
      99      0.000      0.000      0.000      0.000 
     100      0.000      0.000      0.132      0.000 
     101      0.000      0.000      0.300      0.000 
     102      0.000      0.000      0.300      0.000 
     103      0.000      0.000      0.300      0.000 
     104      0.000      0.000      0.300      0.000 
     105      0.000      0.000      0.300      0.000 
     106      0.000      0.000      0.300      0.000 
     107      0.000      0.000      0.132      0.000 
     108      0.000      0.000     -0.100      0.000 
     109      0.000      0.000      0.300      0.000 
     110      0.000      0.000      0.000      0.000 
     111      0.000      0.000      0.300      0.000 
     112      0.000      0.000      0.300      0.000 
     113      0.000      0.000      0.300      0.000 
     114      0.000      0.000      0.300      0.000 
     115      0.000      0.000      0.300      0.000 
     116      0.000      0.000      0.300      0.000 
     117      4.669      5.124      0.000      0.000 
     118      0.000      0.000      0.000      0.000 
     119      0.000      0.000      0.300      0.000 
     120      0.000      0.000     -0.100      0.000 
     121      0.000      0.000      0.300      0.000 
     122      0.000      0.000      0.300      0.000 
     123      0.000      0.000      0.300      0.000 
     124      0.000      0.000      0.300      0.000 
     125      0.000      0.000      0.300      0.000 
     126      0.000      0.000      0.300      0.000 
     127      0.000      0.000      0.300      0.000 
     128      0.000      0.000      0.300      0.000 
     129      0.000      0.000      0.300      0.000 
     130      0.000      0.000      0.300      0.000 

Improper Coeffs 

       1     10.500      -1       2 
       2      0.000      -1       2 
       3     10.500      -1       2 
       4      0.000      -1       2 
       5      0.000      -1       2 
       6      0.000      -1       2 
       7      0.000      -1       2 
       8      0.000      -1       2 
       9      0.000      -1       2 
      10      0.000      -1       2 
      11      0.000      -1       2 
      12      0.000      -1       2 
      13      0.000      -1       2 
      14      0.000      -1       2 
      15      0.000      -1       2 
      16      0.000      -1       2 
      17      0.000      -1       2 
      18      0.000      -1       2 
      19      0.000      -1       2 
      20      0.000      -1       2 
      21      0.000      -1       2 
      22      0.000      -1       2 
      23      0.000      -1       2 
      24      0.000      -1       2 
      25      0.000      -1       2 
      26      0.000      -1       2 
      27      0.000      -1       2 
      28      0.000      -1       2 
      29      0.000      -1       2 
      30      0.000      -1       2 
      31      0.000      -1       2 
      32      0.000      -1       2 

Atoms 

     1      1      1 -0.23870000    1.000  1.00000  0.00000
     2      1      2 -0.18030000   -0.519  1.00000  0.00000
     3      1      3 -0.17500000   -1.081  1.00000  1.42268
     4      1      4 -0.17860000   -2.605  1.00181  1.39004
     5      1      5 -0.20280000   -3.228  1.00367  2.78646
     6      1      6 0.01030000   -4.743  1.00356  2.64339
     7      1      7 -0.37340000   -5.405  0.91983  3.90954
     8      1      8 0.44690000   -6.054  2.06230  4.26115
     9      1      9 -0.42980000   -5.662  3.19609  4.02667
    10      1     10 -0.19880000   -7.440  1.72702  4.74444
    11      1     11 -0.16950000   -7.476  0.81412  5.96569
    12      1     12 -0.17720000   -8.913  0.37885  6.24267
    13      1     13 -0.17540000   -9.013 -0.53858  7.45940
    14      1     14 -0.10230000  -10.466 -0.94566  7.80541
    15      1     15 -0.17430000  -11.199 -1.65456  6.64035
    16      1     16 -0.24050000  -10.598 -2.98676  6.20789
    17      1     17 -0.18840000  -10.507 -1.81552  9.07660
    18      1     18 0.43550000  -10.023 -1.07972 10.30488
    19      1     19 -0.44760000  -10.186  0.11282 10.52032
    20      1     20 -0.35760000   -9.379 -1.94657 11.13602
    21      1     21 -0.05840000   -8.879 -1.34592 12.33129
    22      1     22 0.08180000    1.376  1.00130 -1.02805
    23      1     23 0.08180000    1.390  0.11073  0.50413
    24      1     24 0.08180000    1.390  1.88727  0.50732
    25      1     25 0.08830000   -0.878  0.11777 -0.54316
    26      1     26 0.08830000   -0.878  1.88289 -0.54214
    27      1     27 0.09320000   -0.721  1.88289  1.96365
    28      1     28 0.09320000   -0.723  0.11455  1.96166
    29      1     29 0.08920000   -2.955  0.11898  0.83964
    30      1     30 0.08920000   -2.955  1.88265  0.83652
    31      1     31 0.10870000   -2.901  1.88113  3.35741
    32      1     32 0.10870000   -2.906  0.12365  3.35628
    33      1     33 0.10560000   -5.058  0.12079  2.08311
    34      1     34 0.10560000   -5.077  1.87735  2.07255
    35      1     35 0.12650000   -7.960  1.25548  3.89954
    36      1     36 0.12650000   -7.970  2.66100  4.95994
    37      1     37 0.10650000   -7.059  1.34169  6.82942
    38      1     38 0.10650000   -6.852 -0.07374  5.80087
    39      1     39 0.09240000   -9.290 -0.14061  5.35441
    40      1     40 0.09240000   -9.544  1.26221  6.39960
    41      1     41 0.09510000   -8.572 -0.01186  8.31634
    42      1     42 0.09510000   -8.394 -1.42942  7.30502
    43      1     43 0.11850000  -11.023 -0.01965  8.00572
    44      1     44 0.09080000  -11.241 -0.98496  5.77414
    45      1     45 0.09080000  -12.245 -1.82509  6.92579
    46      1     46 0.08320000   -9.506 -2.96175  6.16416
    47      1     47 0.08320000  -10.960 -3.25227  5.20936
    48      1     48 0.08320000  -10.896 -3.78710  6.89207
    49      1     49 0.13220000   -9.886 -2.70752  8.93010
    50      1     50 0.13220000  -11.532 -2.14370  9.28358
    51      1     51 0.10190000   -8.297 -2.09979 12.86814
    52      1     52 0.10190000   -9.708 -1.02482 12.96905
    53      1     53 0.10190000   -8.219 -0.50569 12.09491

Bonds 

     1      1      2      1
     2      2      3      2
     3      3      4      3
     4      4      5      4
     5      5      6      5
     6      6      7      6
     7      7      8      7
     8      8      9      8
     9      9     10      8
    10     10     11     10
    11     11     12     11
    12     12     13     12
    13     13     14     13
    14     14     15     14
    15     15     16     15
    16     16     17     14
    17     17     18     17
    18     18     19     18
    19     19     20     18
    20     20     21     20
    21     21     22      1
    22     22     23      1
    23     23     24      1
    24     24     25      2
    25     25     26      2
    26     26     27      3
    27     27     28      3
    28     28     29      4
    29     29     30      4
    30     30     31      5
    31     31     32      5
    32     32     33      6
    33     33     34      6
    34     34     35     10
    35     35     36     10
    36     36     37     11
    37     37     38     11
    38     38     39     12
    39     39     40     12
    40     40     41     13
    41     41     42     13
    42     42     43     14
    43     43     44     15
    44     44     45     15
    45     45     46     16
    46     46     47     16
    47     47     48     16
    48     48     49     17
    49     49     50     17
    50     50     51     21
    51     51     52     21
    52     52     53     21

Angles 

     1      1      1      2      3
     2      2      2      3      4
     3      3      3      4      5
     4      4      4      5      6
     5      5      5      6      7
     6      6      6      7      8
     7      7      7      8      9
     8      8      7      8     10
     9      9      8     10     11
    10     10     10     11     12
    11     11     11     12     13
    12     12     12     13     14
    13     13     13     14     15
    14     14     14     15     16
    15     15     13     14     17
    16     16     14     17     18
    17     17     17     18     19
    18     18     17     18     20
    19     19     18     20     21
    20     20      2      1     22
    21     21      2      1     23
    22     22      2      1     24
    23     23      1      2     25
    24     24      1      2     26
    25     25      2      3     27
    26     26      2      3     28
    27     27      3      4     29
    28     28      3      4     30
    29     29      4      5     31
    30     30      4      5     32
    31     31      5      6     33
    32     32      5      6     34
    33     33      8     10     35
    34     34      8     10     36
    35     35     10     11     37
    36     36     10     11     38
    37     37     11     12     39
    38     38     11     12     40
    39     39     12     13     41
    40     40     12     13     42
    41     41     13     14     43
    42     42     14     15     44
    43     43     14     15     45
    44     44     15     16     46
    45     45     15     16     47
    46     46     15     16     48
    47     47     14     17     49
    48     48     14     17     50
    49     49     20     21     51
    50     50     20     21     52
    51     51     20     21     53
    52     52     12     11     37
    53     53     29      4     30
    54     54      3      2     26
    55     55     39     12     40
    56     56     33      6     34
    57     57     47     16     48
    58     58     27      3     28
    59     59     11     10     36
    60     60     22      1     24
    61     61     46     16     47
    62     62     51     21     52
    63     63     51     21     53
    64     64     35     10     36
    65     65     44     15     45
    66     66     12     11     38
    67     67      6      5     32
    68     68     16     15     45
    69     69      3      2     25
    70     70     16     15     44
    71     71     23      1     24
    72     72     14     13     41
    73     73     14     13     42
    74     74     11     10     35
    75     75     41     13     42
    76     76     31      5     32
    77     77     49     17     50
    78     78     18     17     50
    79     79      4      3     28
    80     80     15     14     17
    81     81      9      8     10
    82     82     52     21     53
    83     83     18     17     49
    84     84      6      5     31
    85     85     25      2     26
    86     86     13     12     39
    87     87      4      3     27
    88     88      7      6     34
    89     89     19     18     20
    90     90     13     12     40
    91     91     46     16     48
    92     92     37     11     38
    93     93      5      4     29
    94     94     17     14     43
    95     95     15     14     43
    96     96      5      4     30
    97     97     22      1     23
    98     98      7      6     33

Dihedrals

     1      1      4      3      2      1 
     2      2      5      4      3      2 
     3      3      6      5      4      3 
     4      4      7      6      5      4 
     5      5      8      7      6      5 
     6      6      9      8      7      6 
     7      7     11     10      8      7 
     8      8     12     11     10      8 
     9      9     13     12     11     10 
    10     10     14     13     12     11 
    11     11     15     14     13     12 
    12     12     16     15     14     13 
    13     13     18     17     14     13 
    14     14     19     18     17     14 
    15     15     21     20     18     17 
    16     16     22      1      2      3 
    17     17     46     16     15     14 
    18     18     51     21     20     18 
    19     19     50     17     18     20 
    20     20     27      3      4      5 
    21     21     35     10     11     12 
    22     22     37     11     10     35 
    23     23     30      4      3      2 
    24     24     41     13     12     40 
    25     25     50     17     14     43 
    26     26     39     12     11     10 
    27     27     32      5      4      3 
    28     28     41     13     12     39 
    29     29     43     14     13     42 
    30     30     39     12     13     14 
    31     31     42     13     12     11 
    32     32     26      2      1     23 
    33     33     25      2      1     24 
    34     34     17     14     15     16 
    35     35     21     20     18     19 
    36     36     42     13     12     40 
    37     37     23      1      2      3 
    38     38     31      5      6      7 
    39     39     38     11     10     36 
    40     40     29      4      3     28 
    41     41     34      6      5      4 
    42     42     38     11     10      8 
    43     43     34      6      5     31 
    44     44     33      6      5     32 
    45     45     20     18     17     14 
    46     46     42     13     12     39 
    47     47     31      5      4     29 
    48     48     26      2      1     24 
    49     49     48     16     15     45 
    50     50     17     14     13     12 
    51     51     49     17     18     19 
    52     52     53     21     20     18 
    53     53     30      4      5      6 
    54     54     50     17     14     13 
    55     55     26      2      3      4 
    56     56     33      6      7      8 
    57     57     43     14     15     16 
    58     58     34      6      7      8 
    59     59     28      3      2     25 
    60     60     27      3      2     26 
    61     61     43     14     13     41 
    62     62     41     13     12     11 
    63     63     33      6      5     31 
    64     64     37     11     12     13 
    65     65     40     12     11     10 
    66     66     36     10      8      9 
    67     67     39     12     11     37 
    68     68     29      4      3      2 
    69     69     42     13     14     17 
    70     70     52     21     20     18 
    71     71     47     16     15     45 
    72     72     48     16     15     44 
    73     73     32      5      6      7 
    74     74     49     17     14     43 
    75     75     43     14     13     12 
    76     76     38     11     12     13 
    77     77     49     17     14     15 
    78     78     24      1      2      3 
    79     79     36     10     11     12 
    80     80     46     16     15     45 
    81     81     47     16     15     44 
    82     82     48     16     15     14 
    83     83     27      3      2      1 
    84     84     29      4      5      6 
    85     85     44     15     14     17 
    86     86     31      5      4      3 
    87     87     50     17     14     15 
    88     88     33      6      5      4 
    89     89     32      5      4     29 
    90     90     31      5      4     30 
    91     91     18     17     14     15 
    92     92     40     12     11     37 
    93     93     38     11     10     35 
    94     94     37     11     10     36 
    95     95     32      5      4     30 
    96     96     36     10      8      7 
    97     97     26      2      1     22 
    98     98     39     12     11     38 
    99     99     50     17     18     19 
   100    100     49     17     18     20 
   101    101     28      3      2     26 
   102    102     25      2      1     23 
   103    103     44     15     14     43 
   104    104     46     16     15     44 
   105    105     41     13     14     15 
   106    106     30      4      3     27 
   107    107     35     10      8      7 
   108    108     43     14     17     18 
   109    109     40     12     13     14 
   110    110     35     10      8      9 
   111    111     25      2      1     22 
   112    112     30      4      3     28 
   113    113     44     15     14     13 
   114    114     34      6      5     32 
   115    115     29      4      3     27 
   116    116     28      3      4      5 
   117    117     10      8      7      6 
   118    118     11     10      8      9 
   119    119     25      2      3      4 
   120    120     37     11     10      8 
   121    121     28      3      2      1 
   122    122     42     13     14     15 
   123    123     47     16     15     14 
   124    124     40     12     11     38 
   125    125     27      3      2     25 
   126    126     41     13     14     17 
   127    127     45     15     14     17 
   128    128     45     15     14     13 
   129    129     49     17     14     13 
   130    130     45     15     14     43 

Impropers

     1      1      8      9     10      7 
     2      2     14     17     13     15 
     3      3     18     17     19     20 
     4      4      1      2     22     23 
     5      5      1      2     22     24 
     6      6      2     25      3      1 
     7      7      2      1     26      3 
     8      8      3      2     27      4 
     9      9      3      4      2     28 
    10     10      4      5      3     29 
    11     11      4      3      5     30 
    12     12      5      4      6     31 
    13     13      5      4      6     32 
    14     14      6     33      5      7 
    15     15      6     34      5      7 
    16     16     10     35     11      8 
    17     17     10     11     36      8 
    18     18     11     10     12     37 
    19     19     11     10     12     38 
    20     20     12     11     13     39 
    21     21     12     11     13     40 
    22     22     13     41     12     14 
    23     23     13     42     12     14 
    24     24     14     43     13     15 
    25     25     15     44     14     16 
    26     26     15     45     14     16 
    27     27     16     46     15     47 
    28     28     16     46     15     48 
    29     29     17     49     14     18 
    30     30     17     50     14     18 
    31     31     21     20     51     52 
    32     32     21     51     20     53 

