LAMMPS data file Created by LigParGen - (Written by Leela S. Dodda)

      25 atoms
      24 bonds
      44 angles
      54 dihedrals
      14 impropers
 
      25 atom types
      24 bond types
      44 angle types
      54 dihedral types
      14 improper types
 
   -5.105360    44.894640 xlo xhi
   -1.255670    48.744330 ylo yhi
   -1.031340    48.968660 zlo zhi

Masses

       1     12.011  
       2     32.060  
       3     12.011  
       4     12.011  
       5     14.007  
       6     12.011  
       7     12.011  
       8     12.011  
       9     12.011  
      10     12.011  
      11      1.008  
      12      1.008  
      13      1.008  
      14      1.008  
      15      1.008  
      16      1.008  
      17      1.008  
      18      1.008  
      19      1.008  
      20      1.008  
      21      1.008  
      22      1.008  
      23      1.008  
      24      1.008  
      25      1.008  

Pair Coeffs 

       1      0.066  3.5000000 
       2      0.355  3.6000000 
       3      0.066  3.5000000 
       4      0.066  3.3000000 
       5      0.170  3.2000000 
       6      0.066  3.5000000 
       7      0.066  3.5000000 
       8      0.066  3.5000000 
       9      0.066  3.5000000 
      10      0.066  3.5000000 
      11      0.030  2.5000000 
      12      0.030  2.5000000 
      13      0.030  2.5000000 
      14      0.030  2.5000000 
      15      0.030  2.5000000 
      16      0.030  2.5000000 
      17      0.030  2.5000000 
      18      0.030  2.5000000 
      19      0.030  2.5000000 
      20      0.030  2.5000000 
      21      0.030  2.5000000 
      22      0.030  2.5000000 
      23      0.030  2.5000000 
      24      0.030  2.5000000 
      25      0.030  2.5000000 

Bond Coeffs 

       1   222.0000     1.8100 
       2   222.0000     1.8100 
       3   390.0000     1.4700 
       4   650.0000     1.1570 
       5   268.0000     1.5290 
       6   268.0000     1.5290 
       7   268.0000     1.5290 
       8   268.0000     1.5290 
       9   268.0000     1.5290 
      10   340.0000     1.0900 
      11   340.0000     1.0900 
      12   340.0000     1.0900 
      13   340.0000     1.0900 
      14   340.0000     1.0900 
      15   340.0000     1.0900 
      16   340.0000     1.0900 
      17   340.0000     1.0900 
      18   340.0000     1.0900 
      19   340.0000     1.0900 
      20   340.0000     1.0900 
      21   340.0000     1.0900 
      22   340.0000     1.0900 
      23   340.0000     1.0900 
      24   340.0000     1.0900 

Angle Coeffs 

       1     62.000     98.900
       2     51.650    110.580
       3    150.000    180.000
       4     50.000    114.700
       5     58.350    112.700
       6     58.350    112.700
       7     58.350    112.700
       8     58.350    112.700
       9     35.000    109.500
      10     35.000    109.500
      11     35.000    109.500
      12     35.000    109.500
      13     37.500    110.700
      14     37.500    110.700
      15     37.500    110.700
      16     37.500    110.700
      17     37.500    110.700
      18     37.500    110.700
      19     37.500    110.700
      20     37.500    110.700
      21     37.500    110.700
      22     37.500    110.700
      23     37.500    110.700
      24     33.000    107.800
      25     58.350    112.700
      26     33.000    107.800
      27     33.000    107.800
      28     33.000    107.800
      29     58.350    112.700
      30     33.000    107.800
      31     33.000    107.800
      32     58.350    112.700
      33     33.000    107.800
      34     37.500    110.700
      35     33.000    107.800
      36     33.000    107.800
      37     33.000    107.800
      38     33.000    107.800
      39     58.350    112.700
      40     37.500    110.700
      41     33.000    107.800
      42     35.000    108.500
      43     37.500    110.700
      44     33.000    107.800

Dihedral Coeffs  

       1      0.925     -0.576      0.677      0.000 
       2      0.000      0.000      0.000      0.000 
       3      2.619     -0.620      0.258      0.000 
       4      1.300     -0.200      0.200      0.000 
       5      0.000      0.000      0.647      0.000 
       6      0.000      0.000      0.300      0.000 
       7      0.000      0.000      0.300      0.000 
       8      0.000      0.000      0.300      0.000 
       9      0.000      0.000      0.000      0.000 
      10      0.000      0.000      0.366      0.000 
      11      0.000      0.000      0.300      0.000 
      12      0.000      0.000      0.300      0.000 
      13      0.000      0.000      0.300      0.000 
      14      0.000      0.000      0.300      0.000 
      15      0.000      0.000      0.300      0.000 
      16      0.000      0.000      0.300      0.000 
      17      0.000      0.000      0.366      0.000 
      18      0.000      0.000      0.300      0.000 
      19      0.000      0.000      0.300      0.000 
      20      0.000      0.000      0.300      0.000 
      21      0.000      0.000      0.300      0.000 
      22      0.000      0.000      0.647      0.000 
      23      0.000      0.000      0.300      0.000 
      24      0.000      0.000      0.300      0.000 
      25      0.000      0.000      0.300      0.000 
      26      1.300     -0.200      0.200      0.000 
      27      0.000      0.000      0.300      0.000 
      28      0.000      0.000      0.300      0.000 
      29      0.000      0.000      0.300      0.000 
      30      0.000      0.000      0.300      0.000 
      31      0.925     -0.576      0.677      0.000 
      32      0.000      0.000      0.300      0.000 
      33      0.000      0.000      0.647      0.000 
      34      0.000      0.000      0.300      0.000 
      35      0.000      0.000      0.300      0.000 
      36      0.000      0.000      0.300      0.000 
      37      0.000      0.000      0.452      0.000 
      38      0.000      0.000      0.300      0.000 
      39      0.000      0.000      0.300      0.000 
      40      0.000      0.000      0.300      0.000 
      41      0.000      0.000      0.300      0.000 
      42      0.000      0.000      0.452      0.000 
      43      0.000      0.000      0.000      0.000 
      44      0.000     -0.650      0.000      0.000 
      45      1.300     -0.200      0.200      0.000 
      46      0.000      0.000      0.300      0.000 
      47      0.000      0.000      0.300      0.000 
      48      0.000      0.000      0.647      0.000 
      49      0.000      0.000      0.300      0.000 
      50      0.000      0.000      0.300      0.000 
      51      0.000      0.000      0.300      0.000 
      52      0.000      0.000      0.300      0.000 
      53      0.000      0.000      0.300      0.000 
      54      0.000      0.000      0.300      0.000 

Improper Coeffs 

       1      0.000      -1       2 
       2      0.000      -1       2 
       3      0.000      -1       2 
       4      0.000      -1       2 
       5      0.000      -1       2 
       6      0.000      -1       2 
       7      0.000      -1       2 
       8      0.000      -1       2 
       9      0.000      -1       2 
      10      0.000      -1       2 
      11      0.000      -1       2 
      12      0.000      -1       2 
      13      0.000      -1       2 
      14      0.000      -1       2 

Atoms 

     1      1      1 -0.15670000    1.000  1.00000  0.00000
     2      1      2 -0.33550000   -0.813  1.00000  0.00000
     3      1      3 0.11880000   -1.109  1.00000  1.81251
     4      1      4 0.13620000   -0.525  2.23053  2.48746
     5      1      5 -0.38190000   -0.042  3.25227  3.04642
     6      1      6 -0.15360000   -2.640  0.99682  2.08920
     7      1      7 -0.04860000   -3.135  0.90722  3.58011
     8      1      8 -0.23740000   -2.772  2.13130  4.44546
     9      1      9 -0.23460000   -4.677  0.83783  3.56124
    10      1     10 -0.23440000   -2.586 -0.35485  4.26237
    11      1     11 0.12210000    1.353  0.91865 -1.03134
    12      1     12 0.12210000    1.381  0.14506  0.56533
    13      1     13 0.12210000    1.390  1.92963  0.42149
    14      1     14 0.15440000   -0.650  0.09759  2.22708
    15      1     15 0.11390000   -3.076  0.14379  1.54918
    16      1     16 0.11390000   -3.085  1.90065  1.64602
    17      1     17 0.08960000   -2.968  3.06920  3.91437
    18      1     18 0.08960000   -1.727  2.11332  4.76759
    19      1     19 0.08960000   -3.364  2.15232  5.36925
    20      1     20 0.08590000   -5.105  1.76967  3.17313
    21      1     21 0.08590000   -5.079  0.68704  4.56994
    22      1     22 0.08590000   -5.033  0.01307  2.93396
    23      1     23 0.08420000   -1.494 -0.33186  4.33438
    24      1     24 0.08420000   -2.871 -1.25567  3.70969
    25      1     25 0.08420000   -2.975 -0.45021  5.28296

Bonds 

     1      1      2      1
     2      2      3      2
     3      3      4      3
     4      4      5      4
     5      5      6      3
     6      6      7      6
     7      7      8      7
     8      8      9      7
     9      9     10      7
    10     10     11      1
    11     11     12      1
    12     12     13      1
    13     13     14      3
    14     14     15      6
    15     15     16      6
    16     16     17      8
    17     17     18      8
    18     18     19      8
    19     19     20      9
    20     20     21      9
    21     21     22      9
    22     22     23     10
    23     23     24     10
    24     24     25     10

Angles 

     1      1      1      2      3
     2      2      2      3      4
     3      3      3      4      5
     4      4      2      3      6
     5      5      3      6      7
     6      6      6      7      8
     7      7      6      7      9
     8      8      6      7     10
     9      9      2      1     11
    10     10      2      1     12
    11     11      2      1     13
    12     12      2      3     14
    13     13      3      6     15
    14     14      3      6     16
    15     15      7      8     17
    16     16      7      8     18
    17     17      7      8     19
    18     18      7      9     20
    19     19      7      9     21
    20     20      7      9     22
    21     21      7     10     23
    22     22      7     10     24
    23     23      7     10     25
    24     24     20      9     22
    25     25      9      7     10
    26     26     11      1     13
    27     27     17      8     18
    28     28     18      8     19
    29     29      8      7     10
    30     30     24     10     25
    31     31     17      8     19
    32     32      8      7      9
    33     33     20      9     21
    34     34      7      6     15
    35     35     23     10     25
    36     36     21      9     22
    37     37     11      1     12
    38     38     12      1     13
    39     39      4      3      6
    40     40      7      6     16
    41     41     23     10     24
    42     42      4      3     14
    43     43      6      3     14
    44     44     15      6     16

Dihedrals

     1      1      4      3      2      1 
     2      2      5      4      3      2 
     3      3      7      6      3      2 
     4      4      8      7      6      3 
     5      5     11      1      2      3 
     6      6     17      8      7      6 
     7      7     20      9      7      6 
     8      8     23     10      7      6 
     9      9     14      3      4      5 
    10     10     16      6      3      4 
    11     11     14      3      6      7 
    12     12     19      8      7     10 
    13     13     19      8      7      6 
    14     14     21      9      7      6 
    15     15     15      6      3     14 
    16     16     17      8      7      9 
    17     17     15      6      3      4 
    18     18     22      9      7     10 
    19     19     21      9      7     10 
    20     20     16      6      7      8 
    21     21     15      6      7      9 
    22     22     12      1      2      3 
    23     23     22      9      7      8 
    24     24     20      9      7      8 
    25     25     17      8      7     10 
    26     26      9      7      6      3 
    27     27     21      9      7      8 
    28     28     16      6      3     14 
    29     29     25     10      7      6 
    30     30     24     10      7      6 
    31     31      6      3      2      1 
    32     32     15      6      7      8 
    33     33     13      1      2      3 
    34     34     25     10      7      8 
    35     35     25     10      7      9 
    36     36     16      6      7     10 
    37     37     15      6      3      2 
    38     38     19      8      7      9 
    39     39     18      8      7     10 
    40     40     20      9      7     10 
    41     41     18      8      7      9 
    42     42     16      6      3      2 
    43     43      6      3      4      5 
    44     44      7      6      3      4 
    45     45     10      7      6      3 
    46     46     18      8      7      6 
    47     47     22      9      7      6 
    48     48     14      3      2      1 
    49     49     24     10      7      8 
    50     50     24     10      7      9 
    51     51     23     10      7      9 
    52     52     16      6      7      9 
    53     53     15      6      7     10 
    54     54     23     10      7      8 

Impropers

     1      1      3      2      4      6 
     2      2      7      9      6      8 
     3      3      7     10      6      8 
     4      4      1      2     11     12 
     5      5      1      2     11     13 
     6      6      3      2      4     14 
     7      7      6      3      7     15 
     8      8      6      3      7     16 
     9      9      8     17     18      7 
    10     10      8     17     19      7 
    11     11      9     20     21      7 
    12     12      9     20     22      7 
    13     13     10     23      7     24 
    14     14     10     25     23      7 

