LAMMPS data file Created by LigParGen - (Written by Leela S. Dodda)

      40 atoms
      41 bonds
      84 angles
     123 dihedrals
      27 impropers
 
      40 atom types
      41 bond types
      84 angle types
     123 dihedral types
      27 improper types
 
   -6.640590    43.359410 xlo xhi
   -1.116110    48.883890 ylo yhi
   -1.032800    48.967200 zlo zhi

Masses

       1     12.011  
       2     12.011  
       3     12.011  
       4     12.011  
       5     12.011  
       6     12.011  
       7     12.011  
       8     12.011  
       9     12.011  
      10     12.011  
      11     12.011  
      12     12.011  
      13     12.011  
      14     12.011  
      15      1.008  
      16      1.008  
      17      1.008  
      18      1.008  
      19      1.008  
      20      1.008  
      21      1.008  
      22      1.008  
      23      1.008  
      24      1.008  
      25      1.008  
      26      1.008  
      27      1.008  
      28      1.008  
      29      1.008  
      30      1.008  
      31      1.008  
      32      1.008  
      33      1.008  
      34      1.008  
      35      1.008  
      36      1.008  
      37      1.008  
      38      1.008  
      39      1.008  
      40      1.008  

Pair Coeffs 

       1      0.066  3.5000000 
       2      0.066  3.5000000 
       3      0.066  3.5000000 
       4      0.066  3.5000000 
       5      0.066  3.5000000 
       6      0.083  3.4500000 
       7      0.083  3.4500000 
       8      0.083  3.4500000 
       9      0.066  3.5000000 
      10      0.083  3.4500000 
      11      0.066  3.5000000 
      12      0.066  3.5000000 
      13      0.083  3.4500000 
      14      0.083  3.4500000 
      15      0.030  2.5000000 
      16      0.030  2.5000000 
      17      0.030  2.5000000 
      18      0.030  2.5000000 
      19      0.030  2.5000000 
      20      0.030  2.5000000 
      21      0.030  2.5000000 
      22      0.030  2.5000000 
      23      0.030  2.5000000 
      24      0.030  2.5000000 
      25      0.030  2.5000000 
      26      0.030  2.5000000 
      27      0.030  2.5000000 
      28      0.030  2.5000000 
      29      0.030  2.5000000 
      30      0.030  2.5000000 
      31      0.030  2.5000000 
      32      0.030  2.5000000 
      33      0.030  2.5000000 
      34      0.030  2.5000000 
      35      0.030  2.5000000 
      36      0.030  2.5000000 
      37      0.030  2.5000000 
      38      0.030  2.5000000 
      39      0.030  2.5000000 
      40      0.030  2.5000000 

Bond Coeffs 

       1   268.0000     1.5290 
       2   268.0000     1.5290 
       3   268.0000     1.5290 
       4   268.0000     1.5290 
       5   280.0000     1.5100 
       6   260.0000     1.5200 
       7   260.0000     1.5200 
       8   280.0000     1.5100 
       9   260.0000     1.5200 
      10   280.0000     1.5100 
      11   280.0000     1.5100 
      12   260.0000     1.5200 
      13   260.0000     1.5200 
      14   340.0000     1.0900 
      15   340.0000     1.0900 
      16   340.0000     1.0900 
      17   340.0000     1.0900 
      18   340.0000     1.0900 
      19   340.0000     1.0900 
      20   340.0000     1.0900 
      21   340.0000     1.0900 
      22   340.0000     1.0900 
      23   340.0000     1.0900 
      24   340.0000     1.0900 
      25   340.0000     1.0880 
      26   340.0000     1.0880 
      27   340.0000     1.0900 
      28   340.0000     1.0900 
      29   340.0000     1.0900 
      30   340.0000     1.0900 
      31   340.0000     1.0900 
      32   340.0000     1.0900 
      33   340.0000     1.0900 
      34   340.0000     1.0900 
      35   340.0000     1.0900 
      36   340.0000     1.0880 
      37   340.0000     1.0880 
      38   340.0000     1.0880 
      39   340.0000     1.0880 
      40   260.0000     1.5200 
      41   260.0000     1.5200 

Angle Coeffs 

       1     58.350    112.700
       2     58.350    112.700
       3     58.350    112.700
       4     58.350    112.700
       5     37.500    117.200
       6     30.000     83.000
       7     37.500    117.200
       8     30.000     83.000
       9     37.500    117.200
      10     37.500    117.200
      11     37.500    117.200
      12     37.500    117.200
      13     37.500    110.700
      14     37.500    110.700
      15     37.500    110.700
      16     37.500    110.700
      17     37.500    110.700
      18     37.500    110.700
      19     37.500    110.700
      20     37.500    110.700
      21     37.500    110.700
      22     37.500    110.700
      23     37.500    110.700
      24     37.500    117.200
      25     37.500    117.200
      26     37.500    110.700
      27     37.500    110.700
      28     37.500    110.700
      29     37.500    110.700
      30     37.500    110.700
      31     37.500    110.700
      32     37.500    110.700
      33     37.500    110.700
      34     37.500    110.700
      35     37.500    117.200
      36     37.500    117.200
      37     37.500    117.200
      38     37.500    117.200
      39     35.000    114.300
      40     30.000     83.000
      41     30.000     83.000
      42     35.000    114.300
      43     33.000    107.800
      44     37.500    117.200
      45     37.500    110.700
      46     30.000     83.000
      47     37.500    110.700
      48     33.000    107.800
      49     33.000    107.800
      50     33.000    107.800
      51     33.000    107.800
      52     58.350    112.700
      53     37.500    110.700
      54     37.500    117.200
      55     33.000    107.800
      56     37.500    117.200
      57     35.000    114.300
      58     33.000    107.800
      59     37.500    117.200
      60     37.500    110.700
      61     33.000    107.800
      62     37.500    117.200
      63     30.000     83.000
      64     33.000    107.800
      65     33.000    107.800
      66     30.000     83.000
      67     35.000    114.300
      68     33.000    107.800
      69     30.000     83.000
      70     33.000    107.800
      71     33.000    107.800
      72     30.000     83.000
      73     37.500    110.700
      74     33.000    107.800
      75     33.000    107.800
      76     37.500    117.200
      77     30.000     83.000
      78     37.500    117.200
      79     37.500    117.200
      80     37.500    110.700
      81     37.500    117.200
      82     37.500    117.200
      83     33.000    107.800
      84     33.000    107.800

Dihedral Coeffs  

       1      1.300     -0.200      0.200      0.000 
       2      1.300     -0.200      0.200      0.000 
       3      0.000      0.000      0.000      0.000 
       4      0.000      0.000      0.000      0.000 
       5      0.000      0.000      0.000      0.000 
       6      0.000      0.000      0.000      0.000 
       7      0.000      0.000      0.000      0.000 
       8      0.000      0.000      0.000      0.000 
       9      0.000      0.000      0.300      0.000 
      10      0.000      0.000      0.300      0.000 
      11      0.000      0.000      0.300      0.000 
      12      0.000      0.000      0.300      0.000 
      13      0.000      0.000      0.300      0.000 
      14      0.000      0.000      0.000      0.000 
      15      0.000      0.000      0.000      0.000 
      16      0.000      0.000      0.000      0.000 
      17      0.000      0.000      0.000      0.000 
      18      0.000      0.000      0.300      0.000 
      19      0.000      0.000      0.300      0.000 
      20      0.000      0.000      0.000      0.000 
      21      0.000      0.000      0.000      0.000 
      22      0.000      0.000      0.000      0.000 
      23      0.000      0.000      0.000      0.000 
      24      0.000      0.000      0.000      0.000 
      25      0.000      0.000      0.300      0.000 
      26      0.000      0.000      0.300      0.000 
      27      0.000      0.000      0.300      0.000 
      28      0.000      0.000      0.300      0.000 
      29      0.000      0.000      0.300      0.000 
      30      0.000      0.000      0.300      0.000 
      31      0.000      0.000      0.000      0.000 
      32      0.000      0.000      0.300      0.000 
      33      0.000      0.000      0.000      0.000 
      34      0.000      0.000      0.000      0.000 
      35      0.000      0.000      0.300      0.000 
      36      0.000      0.000      0.000      0.000 
      37      0.000      0.000      0.300      0.000 
      38      0.000      0.000      0.300      0.000 
      39      0.000      0.000      0.000      0.000 
      40      0.000      0.000      0.000      0.000 
      41      0.000      0.000      0.300      0.000 
      42      0.000      0.000      0.000      0.000 
      43      0.000      0.000      0.000      0.000 
      44      0.000      0.000      0.000      0.000 
      45      0.000      0.000      0.300      0.000 
      46      0.000      0.000      0.000      0.000 
      47      0.000      0.000      0.300      0.000 
      48      0.000      0.000      0.300      0.000 
      49      0.000      0.000      0.000      0.000 
      50      0.000      0.000      0.300      0.000 
      51      0.000      0.000      0.300      0.000 
      52      1.300     -0.200      0.200      0.000 
      53      0.000      0.000      0.300      0.000 
      54      0.000      0.000      0.000      0.000 
      55      0.000      0.000      0.300      0.000 
      56      0.000      0.000      0.300      0.000 
      57      0.000      0.000      0.300      0.000 
      58      0.000      0.000      0.300      0.000 
      59      0.000      0.000      0.000      0.000 
      60      0.000      0.000      0.000      0.000 
      61      0.000      0.000      0.300      0.000 
      62      0.000      0.000      0.300      0.000 
      63      0.000      0.000      0.300      0.000 
      64      0.000      0.000      0.000      0.000 
      65      0.000      0.000      0.000      0.000 
      66      0.000      0.000      0.000      0.000 
      67      0.000      0.000      0.300      0.000 
      68      0.000      0.000      0.000      0.000 
      69      0.000      0.000      0.000      0.000 
      70      0.000      0.000      0.300      0.000 
      71      0.000      0.000      0.300      0.000 
      72      0.000      0.000      0.300      0.000 
      73      0.000      0.000      0.000      0.000 
      74      0.000      0.000      0.000      0.000 
      75      0.000      0.000      0.300      0.000 
      76      0.000      0.000      0.000      0.000 
      77      0.000      0.000      0.000      0.000 
      78      0.000      0.000      0.300      0.000 
      79      0.000      0.000      0.000      0.000 
      80      0.000      0.000      0.300      0.000 
      81      0.000      0.000      0.300      0.000 
      82      0.000      0.000      0.300      0.000 
      83      0.000      0.000      0.000      0.000 
      84      0.000      0.000      0.300      0.000 
      85      0.000      0.000      0.300      0.000 
      86      0.000      0.000      0.000      0.000 
      87      0.000      0.000      0.000      0.000 
      88      0.000      0.000      0.300      0.000 
      89      0.000      0.000      0.300      0.000 
      90      0.000      0.000      0.000      0.000 
      91      0.000      0.000      0.300      0.000 
      92      0.000      0.000      0.300      0.000 
      93      0.000      0.000      0.300      0.000 
      94      0.000      0.000      0.300      0.000 
      95      0.000      0.000      0.300      0.000 
      96      0.000      0.000      0.000      0.000 
      97      0.000      0.000      0.000      0.000 
      98      0.000      0.000      0.000      0.000 
      99      0.000      0.000      0.300      0.000 
     100      0.000      0.000      0.300      0.000 
     101      1.300     -0.200      0.200      0.000 
     102      0.000      0.000      0.300      0.000 
     103      0.000      0.000      0.300      0.000 
     104      0.000      0.000      0.300      0.000 
     105      0.000      0.000      0.300      0.000 
     106      0.000      0.000      0.300      0.000 
     107      0.000      0.000      0.000      0.000 
     108      0.000      0.000      0.300      0.000 
     109      0.000      0.000      0.000      0.000 
     110      0.000      0.000      0.300      0.000 
     111      0.000      0.000      0.300      0.000 
     112      0.000      0.000      0.000      0.000 
     113      0.000      0.000      0.300      0.000 
     114      0.000      0.000      0.300      0.000 
     115      0.000      0.000      0.000      0.000 
     116      0.000      0.000      0.300      0.000 
     117      0.000      0.000      0.000      0.000 
     118      0.000      0.000      0.000      0.000 
     119      0.000      0.000      0.300      0.000 
     120      0.000      0.000      0.000      0.000 
     121      0.000      0.000      0.000      0.000 
     122      0.000      0.000      0.300      0.000 
     123      0.000      0.000      0.300      0.000 

Improper Coeffs 

       1      0.000      -1       2 
       2      0.000      -1       2 
       3      0.000      -1       2 
       4      0.000      -1       2 
       5      0.000      -1       2 
       6      0.000      -1       2 
       7      0.000      -1       2 
       8      0.000      -1       2 
       9      0.000      -1       2 
      10      0.000      -1       2 
      11      0.000      -1       2 
      12      0.000      -1       2 
      13      0.000      -1       2 
      14      0.000      -1       2 
      15      0.000      -1       2 
      16      0.000      -1       2 
      17      0.000      -1       2 
      18      0.000      -1       2 
      19      0.000      -1       2 
      20      0.000      -1       2 
      21      0.000      -1       2 
      22      0.000      -1       2 
      23      0.000      -1       2 
      24      0.000      -1       2 
      25      0.000      -1       2 
      26      0.000      -1       2 
      27      0.000      -1       2 

Atoms 

     1      1      1 -0.23470000    1.000  1.00000  0.00000
     2      1      2 -0.17170000   -0.523  1.00000  0.00000
     3      1      3 -0.10910000   -1.203  1.00000  1.38668
     4      1      4 -0.23530000   -0.728 -0.16405  2.25901
     5      1      5 -0.13100000   -1.061  2.33759  2.14938
     6      1      6 -0.07120000   -1.831  3.51697  1.52299
     7      1      7 -0.12980000   -3.313  3.20214  1.18543
     8      1      8 -0.17680000   -4.325  2.86559  2.27180
     9      1      9 -0.20330000   -4.012  3.06613  3.71697
    10      1     10 -0.09850000   -4.607  4.00592  1.31293
    11      1     11 -0.19970000   -4.672  5.41564  1.82735
    12      1     12 -0.20660000   -5.668  3.74212  0.25887
    13      1     13 -0.23570000   -1.331  4.89608  1.92346
    14      1     14 -0.24490000   -1.018  4.37043  0.55901
    15      1     15 0.07910000    1.366  0.99869 -1.03280
    16      1     16 0.07910000    1.402  0.10513  0.48485
    17      1     17 0.07910000    1.410  1.88346  0.49549
    18      1     18 0.08740000   -0.857  0.10833 -0.54465
    19      1     19 0.08740000   -0.874  1.85597 -0.58657
    20      1     20 0.09720000   -2.268  0.81544  1.20781
    21      1     21 0.08070000    0.326 -0.07136  2.53461
    22      1     22 0.08070000   -0.869 -1.11611  1.73593
    23      1     23 0.08070000   -1.311 -0.20825  3.18651
    24      1     24 0.09230000    0.003  2.58681  2.25980
    25      1     25 0.09230000   -1.435  2.20569  3.17172
    26      1     26 0.12660000   -3.348  2.54011  0.31222
    27      1     27 0.12230000   -4.902  1.95448  2.14484
    28      1     28 0.08520000   -3.269  3.84782  3.89391
    29      1     29 0.08520000   -3.619  2.13326  4.13490
    30      1     30 0.08520000   -4.918  3.32393  4.27135
    31      1     31 0.08580000   -3.917  5.66109  2.57182
    32      1     32 0.08580000   -5.644  5.59583  2.29585
    33      1     33 0.08580000   -4.578  6.12454  0.99055
    34      1     34 0.08570000   -5.788  2.67155  0.05781
    35      1     35 0.08570000   -5.394  4.23200 -0.68117
    36      1     36 0.08570000   -6.641  4.12613  0.58324
    37      1     37 0.12300000   -0.526  4.95731  2.64900
    38      1     38 0.12300000   -1.983  5.75531  1.95364
    39      1     39 0.12370000    0.012  4.10225  0.35424
    40      1     40 0.12370000   -1.534  4.81124 -0.28546

Bonds 

     1      1      2      1
     2      2      3      2
     3      3      4      3
     4      4      5      3
     5      5      6      5
     6      6      7      6
     7      7      8      7
     8      8      9      8
     9      9     10      7
    10     10     11     10
    11     11     12     10
    12     12     13      6
    13     13     14      6
    14     14     15      1
    15     15     16      1
    16     16     17      1
    17     17     18      2
    18     18     19      2
    19     19     20      3
    20     20     21      4
    21     21     22      4
    22     22     23      4
    23     23     24      5
    24     24     25      5
    25     25     26      7
    26     26     27      8
    27     27     28      9
    28     28     29      9
    29     29     30      9
    30     30     31     11
    31     31     32     11
    32     32     33     11
    33     33     34     12
    34     34     35     12
    35     35     36     12
    36     36     37     13
    37     37     38     13
    38     38     39     14
    39     39     40     14
    40     40     10      8
    41     41     14     13

Angles 

     1      1      1      2      3
     2      2      2      3      4
     3      3      2      3      5
     4      4      3      5      6
     5      5      5      6      7
     6      6      6      7      8
     7      7      7      8      9
     8      8      6      7     10
     9      9      7     10     11
    10     10      7     10     12
    11     11      5      6     13
    12     12      5      6     14
    13     13      2      1     15
    14     14      2      1     16
    15     15      2      1     17
    16     16      1      2     18
    17     17      1      2     19
    18     18      2      3     20
    19     19      3      4     21
    20     20      3      4     22
    21     21      3      4     23
    22     22      3      5     24
    23     23      3      5     25
    24     24      6      7     26
    25     25      7      8     27
    26     26      8      9     28
    27     27      8      9     29
    28     28      8      9     30
    29     29     10     11     31
    30     30     10     11     32
    31     31     10     11     33
    32     32     10     12     34
    33     33     10     12     35
    34     34     10     12     36
    35     35      6     13     37
    36     36      6     13     38
    37     37      6     14     39
    38     38      6     14     40
    39     39     11     10     12
    40     40      7     10      8
    41     41      7      6     14
    42     42     37     13     38
    43     43     29      9     30
    44     44      8      7     26
    45     45      3      2     18
    46     46      8      7     10
    47     47      5      3     20
    48     48     22      4     23
    49     49     18      2     19
    50     50     31     11     32
    51     51     21      4     22
    52     52      4      3      5
    53     53      6      5     24
    54     54     13     14     40
    55     55     28      9     30
    56     56      8     10     11
    57     57      9      8     27
    58     58     24      5     25
    59     59     10      8     27
    60     60      3      2     19
    61     61     15      1     16
    62     62     14     13     38
    63     63      7      8     10
    64     64     34     12     35
    65     65     32     11     33
    66     66     13      6     14
    67     67     39     14     40
    68     68     28      9     29
    69     69      7      6     13
    70     70     15      1     17
    71     71     16      1     17
    72     72      6     14     13
    73     73      6      5     25
    74     74     34     12     36
    75     75     21      4     23
    76     76     10      7     26
    77     77      6     13     14
    78     78     13     14     39
    79     79      8     10     12
    80     80      4      3     20
    81     81     14     13     37
    82     82      9      8     10
    83     83     31     11     33
    84     84     35     12     36

Dihedrals

     1      1      4      3      2      1 
     2      2      6      5      3      2 
     3      3      7      6      5      3 
     4      4      8      7      6      5 
     5      5      9      8      7      6 
     6      6     10      7      6      8 
     7      7     11     10      7      8 
     8      8     12     10      7      8 
     9      9     15      1      2      3 
    10     10     21      4      3      2 
    11     11     28      9      8      7 
    12     12     31     11     10      7 
    13     13     34     12     10      7 
    14     14     37     13      6     14 
    15     15     38     13      6     14 
    16     16     39     14      6     13 
    17     17     40     14      6     13 
    18     18     28      9      8     10 
    19     19     31     11     10     12 
    20     20     12     10      7      6 
    21     21     26      7      6     14 
    22     22     27      8      7     10 
    23     23     40     14     13     38 
    24     24     37     13      6      5 
    25     25     35     12     10      8 
    26     26     20      3      2     19 
    27     27     19      2      3      5 
    28     28     32     11     10      7 
    29     29     31     11     10      8 
    30     30     25      5      6     13 
    31     31     12     10      8      7 
    32     32     30      9      8     10 
    33     33     40     14      6      7 
    34     34     26      7     10     12 
    35     35     23      4      3      5 
    36     36     27      8     10     11 
    37     37     29      9      8      7 
    38     38     24      5      6     14 
    39     39     14      6      7      8 
    40     40     37     13      6      7 
    41     41     18      2      1     15 
    42     42     40     14     13      6 
    43     43     27      8      7     26 
    44     44      9      8     10      7 
    45     45     24      5      3     20 
    46     46     26      7      8     10 
    47     47     32     11     10     12 
    48     48     28      9      8     27 
    49     49     11     10      7      6 
    50     50     25      5      6     14 
    51     51     35     12     10     11 
    52     52      6      5      3      4 
    53     53     20      3      2      1 
    54     54     14      6      5      3 
    55     55     20      3      2     18 
    56     56     33     11     10      8 
    57     57     22      4      3     20 
    58     58     18      2      1     17 
    59     59     27      8      7      6 
    60     60     38     13      6      5 
    61     61     30      9      8      7 
    62     62     34     12     10     11 
    63     63     30      9      8     27 
    64     64     40     14      6      5 
    65     65     13      6      7      8 
    66     66     27      8     10     12 
    67     67     24      5      3      4 
    68     68     39     14     13      6 
    69     69     26      7      6     13 
    70     70     24      5      6      7 
    71     71     36     12     10      7 
    72     72     23      4      3      2 
    73     73     39     14     13     38 
    74     74     40     14     13     37 
    75     75     19      2      1     16 
    76     76     14      6      7     10 
    77     77     38     13      6      7 
    78     78     29      9      8     10 
    79     79     13      6      5      3 
    80     80     25      5      3      2 
    81     81     21      4      3      5 
    82     82     24      5      3      2 
    83     83     12     10      8      9 
    84     84     20      3      5      6 
    85     85     32     11     10      8 
    86     86     10      7      6      5 
    87     87     26      7     10     11 
    88     88     25      5      3      4 
    89     89     25      5      3     20 
    90     90     39     14      6      7 
    91     91     29      9      8     27 
    92     92     16      1      2      3 
    93     93     36     12     10      8 
    94     94     24      5      6     13 
    95     95     17      1      2      3 
    96     96     39     14      6      5 
    97     97     13      6      7     10 
    98     98     11     10      8      7 
    99     99     33     11     10     12 
   100    100     21      4      3     20 
   101    101      5      3      2      1 
   102    102     25      5      6      7 
   103    103     19      2      3      4 
   104    104     18      2      3      5 
   105    105     35     12     10      7 
   106    106     22      4      3      2 
   107    107     26      7      8      9 
   108    108     34     12     10      8 
   109    109     39     14     13     37 
   110    110     33     11     10      7 
   111    111     23      4      3     20 
   112    112     11     10      8      9 
   113    113     18      2      3      4 
   114    114     19      2      1     17 
   115    115     26      7      6      5 
   116    116     22      4      3      5 
   117    117     26      7     10      8 
   118    118     27      8     10      7 
   119    119     36     12     10     11 
   120    120     37     13     14      6 
   121    121     38     13     14      6 
   122    122     18      2      1     16 
   123    123     19      2      1     15 

Impropers

     1      1      3      2      4      5 
     2      2      6      5     13      7 
     3      3      6      5     14      7 
     4      4      1      2     15     16 
     5      5      1     17     15      2 
     6      6      2      1     18      3 
     7      7      2      1     19      3 
     8      8      3      4      2     20 
     9      9      4      3     21     22 
    10     10      4      3     21     23 
    11     11      5      3      6     24 
    12     12      5     25      3      6 
    13     13      7     26      6      8 
    14     14      8      9     27      7 
    15     15      9     28     29      8 
    16     16      9     28     30      8 
    17     17     11     10     31     32 
    18     18     11     33     10     31 
    19     19     12     10     35     34 
    20     20     12     10     36     34 
    21     21      8     10      7      9 
    22     22      6     13     14      5 
    23     23      6     13     14      7 
    24     24      6     13     14      5 
    25     25      6     13     14      7 
    26     26      7     10      8      6 
    27     27      7     10      8      6 

