LAMMPS data file Created by LigParGen - (Written by Leela S. Dodda)

      44 atoms
      43 bonds
      82 angles
     114 dihedrals
      27 impropers
 
      44 atom types
      43 bond types
      82 angle types
     114 dihedral types
      27 improper types
 
   -8.766950    41.233050 xlo xhi
   -2.560670    47.439330 ylo yhi
   -1.025200    48.974800 zlo zhi

Masses

       1     12.011  
       2     12.011  
       3     12.011  
       4     12.011  
       5     12.011  
       6     12.011  
       7     12.011  
       8     12.011  
       9     14.007  
      10     12.011  
      11     12.011  
      12     12.011  
      13     12.011  
      14     15.999  
      15     12.011  
      16     12.011  
      17     12.011  
      18      1.008  
      19      1.008  
      20      1.008  
      21      1.008  
      22      1.008  
      23      1.008  
      24      1.008  
      25      1.008  
      26      1.008  
      27      1.008  
      28      1.008  
      29      1.008  
      30      1.008  
      31      1.008  
      32      1.008  
      33      1.008  
      34      1.008  
      35      1.008  
      36      1.008  
      37      1.008  
      38      1.008  
      39      1.008  
      40      1.008  
      41      1.008  
      42      1.008  
      43      1.008  
      44      1.008  

Pair Coeffs 

       1      0.066  3.5000000 
       2      0.066  3.5000000 
       3      0.066  3.5000000 
       4      0.066  3.5000000 
       5      0.066  3.5000000 
       6      0.066  3.5000000 
       7      0.066  3.5000000 
       8      0.066  3.3000000 
       9      0.170  3.2000000 
      10      0.066  3.5000000 
      11      0.066  3.5000000 
      12      0.066  3.5000000 
      13      0.070  3.5500000 
      14      0.210  2.9600000 
      15      0.066  3.5000000 
      16      0.066  3.5000000 
      17      0.066  3.5000000 
      18      0.030  2.5000000 
      19      0.030  2.5000000 
      20      0.030  2.5000000 
      21      0.030  2.5000000 
      22      0.030  2.5000000 
      23      0.030  2.5000000 
      24      0.030  2.5000000 
      25      0.030  2.5000000 
      26      0.030  2.5000000 
      27      0.030  2.5000000 
      28      0.030  2.5000000 
      29      0.030  2.5000000 
      30      0.030  2.5000000 
      31      0.030  2.5000000 
      32      0.030  2.5000000 
      33      0.030  2.5000000 
      34      0.030  2.5000000 
      35      0.030  2.5000000 
      36      0.030  2.5000000 
      37      0.030  2.5000000 
      38      0.030  2.5000000 
      39      0.030  2.5000000 
      40      0.030  2.5000000 
      41      0.030  2.5000000 
      42      0.030  2.5000000 
      43      0.030  2.5000000 
      44      0.030  2.5000000 

Bond Coeffs 

       1   268.0000     1.5290 
       2   268.0000     1.5290 
       3   268.0000     1.5290 
       4   268.0000     1.5290 
       5   268.0000     1.5290 
       6   268.0000     1.5290 
       7   390.0000     1.4700 
       8   650.0000     1.1570 
       9   268.0000     1.5290 
      10   268.0000     1.5290 
      11   268.0000     1.5290 
      12   317.0000     1.5220 
      13   570.0000     1.2290 
      14   317.0000     1.5220 
      15   268.0000     1.5290 
      16   268.0000     1.5290 
      17   340.0000     1.0900 
      18   340.0000     1.0900 
      19   340.0000     1.0900 
      20   340.0000     1.0900 
      21   340.0000     1.0900 
      22   340.0000     1.0900 
      23   340.0000     1.0900 
      24   340.0000     1.0900 
      25   340.0000     1.0900 
      26   340.0000     1.0900 
      27   340.0000     1.0900 
      28   340.0000     1.0900 
      29   340.0000     1.0900 
      30   340.0000     1.0900 
      31   340.0000     1.0900 
      32   340.0000     1.0900 
      33   340.0000     1.0900 
      34   340.0000     1.0900 
      35   340.0000     1.0900 
      36   340.0000     1.0900 
      37   340.0000     1.0900 
      38   340.0000     1.0900 
      39   340.0000     1.0900 
      40   340.0000     1.0900 
      41   340.0000     1.0900 
      42   340.0000     1.0900 
      43   340.0000     1.0900 

Angle Coeffs 

       1     58.350    112.700
       2     58.350    112.700
       3     58.350    112.700
       4     58.350    112.700
       5     58.350    112.700
       6     58.350    112.700
       7    150.000    180.000
       8     58.350    112.700
       9     58.350    112.700
      10     58.350    112.700
      11     63.000    111.100
      12     80.000    120.400
      13     70.000    116.000
      14     63.000    111.100
      15     63.000    111.100
      16     37.500    110.700
      17     37.500    110.700
      18     37.500    110.700
      19     37.500    110.700
      20     37.500    110.700
      21     37.500    110.700
      22     37.500    110.700
      23     37.500    110.700
      24     37.500    110.700
      25     37.500    110.700
      26     37.500    110.700
      27     37.500    110.700
      28     37.500    110.700
      29     37.500    110.700
      30     37.500    110.700
      31     37.500    110.700
      32     37.500    110.700
      33     37.500    110.700
      34     37.500    110.700
      35     37.500    110.700
      36     35.000    109.500
      37     37.500    110.700
      38     37.500    110.700
      39     37.500    110.700
      40     37.500    110.700
      41     37.500    110.700
      42     37.500    110.700
      43     33.000    107.800
      44     33.000    107.800
      45     33.000    107.800
      46     37.500    110.700
      47     33.000    107.800
      48     33.000    107.800
      49     37.500    110.700
      50     80.000    120.400
      51     37.500    110.700
      52     37.500    110.700
      53     35.000    109.500
      54     37.500    110.700
      55     37.500    110.700
      56     37.500    110.700
      57     33.000    107.800
      58     33.000    107.800
      59     37.500    110.700
      60     63.000    111.100
      61     33.000    107.800
      62     33.000    107.800
      63     33.000    107.800
      64     33.000    107.800
      65     33.000    107.800
      66     37.500    110.700
      67     37.500    110.700
      68     35.000    108.500
      69     37.500    110.700
      70     37.500    110.700
      71     58.350    112.700
      72     33.000    107.800
      73     33.000    107.800
      74     33.000    107.800
      75     33.000    107.800
      76     37.500    110.700
      77     33.000    107.800
      78     37.500    110.700
      79     35.000    108.500
      80     37.500    110.700
      81     58.350    112.700
      82     33.000    107.800

Dihedral Coeffs  

       1      1.300     -0.200      0.200      0.000 
       2      1.300     -0.200      0.200      0.000 
       3      1.300     -0.200      0.200      0.000 
       4      1.300     -0.200      0.200      0.000 
       5      0.000     -0.650      0.000      0.000 
       6      0.000      0.000      0.000      0.000 
       7      1.300     -0.200      0.200      0.000 
       8      1.300     -0.200      0.200      0.000 
       9      0.000      0.000      0.000      0.000 
      10      1.454     -0.144     -0.775      0.000 
      11      0.000      0.000      0.300      0.000 
      12      0.000      0.000      0.300      0.000 
      13      0.000      0.000     -0.100      0.000 
      14      0.000      0.000     -0.100      0.000 
      15      0.000      0.000     -0.100      0.000 
      16      0.000      0.000      0.300      0.000 
      17      0.000      0.000      0.000      0.000 
      18      0.000      0.000      0.366      0.000 
      19      0.000      0.000      0.300      0.000 
      20      0.000      0.000      0.300      0.000 
      21      0.000      0.000      0.000      0.000 
      22      0.000      0.000      0.300      0.000 
      23      0.000      0.000      0.300      0.000 
      24     -2.060     -0.313      0.315      0.000 
      25      0.000      0.000      0.300      0.000 
      26      0.000      0.000      0.300      0.000 
      27      0.000      0.000     -0.100      0.000 
      28      0.000      0.000      0.300      0.000 
      29      0.000      0.000      0.300      0.000 
      30      0.000      0.000      0.300      0.000 
      31      0.000      0.000      0.275      0.000 
      32      0.000      0.000      0.300      0.000 
      33      0.000      0.000      0.300      0.000 
      34      0.000      0.000      0.300      0.000 
      35      0.000      0.000      0.300      0.000 
      36      0.000      0.000      0.300      0.000 
      37      0.000      0.000      0.300      0.000 
      38      0.000      0.000      0.300      0.000 
      39      0.000      0.000      0.300      0.000 
      40      0.000      0.000      0.275      0.000 
      41      0.000      0.000      0.300      0.000 
      42      0.000      0.000      0.300      0.000 
      43      0.000      0.000      0.300      0.000 
      44      1.454     -0.144     -0.775      0.000 
      45      0.000      0.000      0.300      0.000 
      46      0.000      0.000      0.300      0.000 
      47      0.000      0.000     -0.100      0.000 
      48      0.000      0.000      0.300      0.000 
      49      0.000      0.000      0.300      0.000 
      50      0.000      0.000      0.300      0.000 
      51      1.300     -0.200      0.200      0.000 
      52      0.000      0.000      0.000      0.000 
      53      0.000      0.000      0.300      0.000 
      54      0.000      0.000      0.300      0.000 
      55      0.000      0.000      0.300      0.000 
      56      0.000      0.000      0.300      0.000 
      57      0.000      0.000      0.300      0.000 
      58      0.000      0.000     -0.100      0.000 
      59      0.000      0.000      0.300      0.000 
      60      0.000      0.000      0.300      0.000 
      61      1.300     -0.200      0.200      0.000 
      62      0.000      0.000      0.300      0.000 
      63      0.000      0.000      0.000      0.000 
      64      0.000      0.000      0.300      0.000 
      65      0.000      0.000     -0.100      0.000 
      66      0.000      0.000      0.300      0.000 
      67      0.000      0.000      0.300      0.000 
      68      0.000      0.000      0.300      0.000 
      69      0.000      0.000      0.300      0.000 
      70      0.000      0.000      0.300      0.000 
      71      1.454     -0.144     -0.775      0.000 
      72      0.000      0.000      0.366      0.000 
      73      0.000      0.000      0.300      0.000 
      74      0.000      0.000      0.300      0.000 
      75      0.000      0.000      0.300      0.000 
      76      0.000      0.000      0.000      0.000 
      77      0.000      0.000      0.300      0.000 
      78     -2.060     -0.313      0.315      0.000 
      79      0.000      0.000      0.300      0.000 
      80      0.000      0.000      0.300      0.000 
      81      0.000      0.000     -0.100      0.000 
      82      0.000      0.000      0.300      0.000 
      83      0.000      0.000      0.300      0.000 
      84      0.000      0.000      0.300      0.000 
      85      0.000      0.000      0.000      0.000 
      86      0.000      0.000      0.300      0.000 
      87      0.000      0.000      0.300      0.000 
      88      0.000      0.000      0.300      0.000 
      89      0.000      0.000      0.000      0.000 
      90      0.000      0.000      0.300      0.000 
      91      0.000      0.000      0.300      0.000 
      92      0.000      0.000      0.300      0.000 
      93      0.000      0.000      0.300      0.000 
      94      0.000      0.000      0.300      0.000 
      95      0.000      0.000      0.300      0.000 
      96      0.000      0.000      0.300      0.000 
      97      0.000      0.000      0.300      0.000 
      98      0.000      0.000      0.300      0.000 
      99      0.000      0.000      0.300      0.000 
     100      0.000      0.000      0.300      0.000 
     101      0.000      0.000      0.300      0.000 
     102      0.000      0.000      0.300      0.000 
     103      0.000      0.000      0.300      0.000 
     104      0.000      0.000      0.300      0.000 
     105      0.000      0.000      0.300      0.000 
     106      0.000      0.000      0.300      0.000 
     107      1.454     -0.144     -0.775      0.000 
     108      0.000      0.000     -0.100      0.000 
     109      0.000      0.000      0.300      0.000 
     110      0.000      0.000      0.300      0.000 
     111      0.000      0.000      0.300      0.000 
     112      0.000      0.000      0.300      0.000 
     113     -2.060     -0.313      0.315      0.000 
     114      1.300     -0.200      0.200      0.000 

Improper Coeffs 

       1      0.000      -1       2 
       2      0.000      -1       2 
       3     10.500      -1       2 
       4      0.000      -1       2 
       5      0.000      -1       2 
       6      0.000      -1       2 
       7      0.000      -1       2 
       8      0.000      -1       2 
       9      0.000      -1       2 
      10      0.000      -1       2 
      11      0.000      -1       2 
      12      0.000      -1       2 
      13      0.000      -1       2 
      14      0.000      -1       2 
      15      0.000      -1       2 
      16      0.000      -1       2 
      17      0.000      -1       2 
      18      0.000      -1       2 
      19      0.000      -1       2 
      20      0.000      -1       2 
      21      0.000      -1       2 
      22      0.000      -1       2 
      23      0.000      -1       2 
      24      0.000      -1       2 
      25      0.000      -1       2 
      26      0.000      -1       2 
      27      0.000      -1       2 

Atoms 

     1      1      1 -0.23950000    1.000  1.00000  0.00000
     2      1      2 -0.17900000   -0.523  1.00000  0.00000
     3      1      3 -0.17980000   -1.077  1.00000  1.42607
     4      1      4 -0.17770000   -2.610  0.88822  1.45746
     5      1      5 -0.09650000   -3.220  0.88614  2.89293
     6      1      6 -0.17900000   -2.769  2.13105  3.71342
     7      1      7 -0.04070000   -3.178  3.43903  3.06105
     8      1      8 0.12520000   -2.753  4.67241  3.84090
     9      1      9 -0.39390000   -2.399  5.69471  4.48866
    10      1     10 -0.15550000   -4.793  0.74658  2.87442
    11      1     11 -0.16610000   -5.318 -0.43669  2.03605
    12      1     12 -0.24250000   -4.952 -1.81357  2.57131
    13      1     13 0.37000000   -5.366  0.65090  4.30068
    14      1     14 -0.44220000   -4.754  0.05130  5.18496
    15      1     15 -0.15870000   -6.744  1.26839  4.57068
    16      1     16 -0.22900000   -7.842  0.22714  4.37690
    17      1     17 -0.23420000   -6.798  1.83013  5.99236
    18      1     18 0.08320000    1.385  1.00130 -1.02520
    19      1     19 0.08320000    1.390  0.11091  0.50674
    20      1     20 0.08320000    1.392  1.88657  0.50963
    21      1     21 0.08810000   -0.880  0.11834 -0.54855
    22      1     22 0.08810000   -0.880  1.88552 -0.53805
    23      1     23 0.09300000   -0.745  1.92337  1.91012
    24      1     24 0.09300000   -0.647  0.16104  1.98632
    25      1     25 0.09000000   -2.870 -0.04705  0.94957
    26      1     26 0.09000000   -3.053  1.69571  0.86151
    27      1     27 0.12610000   -2.803  0.01489  3.41572
    28      1     28 0.11290000   -1.681  2.11067  3.85293
    29      1     29 0.11290000   -3.177  2.08522  4.72922
    30      1     30 0.12370000   -4.266  3.49928  2.95956
    31      1     31 0.12370000   -2.750  3.53405  2.05801
    32      1     32 0.10540000   -5.198  1.65257  2.41695
    33      1     33 0.09350000   -4.966 -0.34382  1.00337
    34      1     34 0.09350000   -6.409 -0.37825  1.96348
    35      1     35 0.08950000   -3.928 -1.85932  2.94839
    36      1     36 0.08950000   -5.050 -2.56067  1.77587
    37      1     37 0.08950000   -5.629 -2.10450  3.38127
    38      1     38 0.11060000   -6.900  2.10290  3.87904
    39      1     39 0.09170000   -7.539 -0.75470  4.75671
    40      1     40 0.09170000   -8.082  0.11274  3.31426
    41      1     41 0.09170000   -8.767  0.51966  4.88625
    42      1     42 0.09380000   -6.622  1.04980  6.74173
    43      1     43 0.09380000   -7.778  2.27683  6.19850
    44      1     44 0.09380000   -6.037  2.60471  6.13424

Bonds 

     1      1      2      1
     2      2      3      2
     3      3      4      3
     4      4      5      4
     5      5      6      5
     6      6      7      6
     7      7      8      7
     8      8      9      8
     9      9     10      5
    10     10     11     10
    11     11     12     11
    12     12     13     10
    13     13     14     13
    14     14     15     13
    15     15     16     15
    16     16     17     15
    17     17     18      1
    18     18     19      1
    19     19     20      1
    20     20     21      2
    21     21     22      2
    22     22     23      3
    23     23     24      3
    24     24     25      4
    25     25     26      4
    26     26     27      5
    27     27     28      6
    28     28     29      6
    29     29     30      7
    30     30     31      7
    31     31     32     10
    32     32     33     11
    33     33     34     11
    34     34     35     12
    35     35     36     12
    36     36     37     12
    37     37     38     15
    38     38     39     16
    39     39     40     16
    40     40     41     16
    41     41     42     17
    42     42     43     17
    43     43     44     17

Angles 

     1      1      1      2      3
     2      2      2      3      4
     3      3      3      4      5
     4      4      4      5      6
     5      5      5      6      7
     6      6      6      7      8
     7      7      7      8      9
     8      8      4      5     10
     9      9      5     10     11
    10     10     10     11     12
    11     11      5     10     13
    12     12     10     13     14
    13     13     10     13     15
    14     14     13     15     16
    15     15     13     15     17
    16     16      2      1     18
    17     17      2      1     19
    18     18      2      1     20
    19     19      1      2     21
    20     20      1      2     22
    21     21      2      3     23
    22     22      2      3     24
    23     23      3      4     25
    24     24      3      4     26
    25     25      4      5     27
    26     26      5      6     28
    27     27      5      6     29
    28     28      6      7     30
    29     29      6      7     31
    30     30      5     10     32
    31     31     10     11     33
    32     32     10     11     34
    33     33     11     12     35
    34     34     11     12     36
    35     35     11     12     37
    36     36     13     15     38
    37     37     15     16     39
    38     38     15     16     40
    39     39     15     16     41
    40     40     15     17     42
    41     41     15     17     43
    42     42     15     17     44
    43     43     28      6     29
    44     44     35     12     37
    45     45     42     17     43
    46     46      3      2     21
    47     47     39     16     41
    48     48     39     16     40
    49     49      5      4     26
    50     50     14     13     15
    51     51     12     11     33
    52     52      7      6     28
    53     53     13     10     32
    54     54     11     10     32
    55     55      4      3     23
    56     56      3      2     22
    57     57     23      3     24
    58     58     35     12     36
    59     59      6      5     27
    60     60     11     10     13
    61     61     18      1     19
    62     62     36     12     37
    63     63     33     11     34
    64     64     42     17     44
    65     65     40     16     41
    66     66      7      6     29
    67     67      4      3     24
    68     68      8      7     31
    69     69      5      4     25
    70     70     12     11     34
    71     71     16     15     17
    72     72     21      2     22
    73     73     30      7     31
    74     74     18      1     20
    75     75     25      4     26
    76     76     16     15     38
    77     77     19      1     20
    78     78     17     15     38
    79     79      8      7     30
    80     80     10      5     27
    81     81      6      5     10
    82     82     43     17     44

Dihedrals

     1      1      4      3      2      1 
     2      2      5      4      3      2 
     3      3      6      5      4      3 
     4      4      7      6      5      4 
     5      5      8      7      6      5 
     6      6      9      8      7      6 
     7      7     11     10      5      4 
     8      8     12     11     10      5 
     9      9     14     13     10      5 
    10     10     16     15     13     10 
    11     11     18      1      2      3 
    12     12     35     12     11     10 
    13     13     39     16     15     13 
    14     14     42     17     15     13 
    15     15     34     11     10     13 
    16     16     31      7      6      5 
    17     17     31      7      8      9 
    18     18     28      6      7      8 
    19     19     29      6      5      4 
    20     20     43     17     15     38 
    21     21     14     13     10     11 
    22     22     26      4      3     23 
    23     23     25      4      3     24 
    24     24     13     10      5      6 
    25     25     19      1      2      3 
    26     26     27      5     10     11 
    27     27     33     11     10     13 
    28     28     33     11     10      5 
    29     29     34     11     10      5 
    30     30     28      6      5      4 
    31     31     38     15     13     10 
    32     32     25      4      5      6 
    33     33     23      3      4      5 
    34     34     24      3      2     22 
    35     35     42     17     15     38 
    36     36     44     17     15     16 
    37     37     28      6      5     10 
    38     38     32     10      5      6 
    39     39     35     12     11     33 
    40     40     32     10     13     15 
    41     41     34     11     10     32 
    42     42     32     10     11     12 
    43     43     37     12     11     10 
    44     44     17     15     13     10 
    45     45     23      3      2     22 
    46     46     26      4      3      2 
    47     47     40     16     15     13 
    48     48     29      6      5     10 
    49     49     30      7      6     29 
    50     50     31      7      6     28 
    51     51     10      5      6      7 
    52     52     16     15     13     14 
    53     53     22      2      1     20 
    54     54     21      2      1     18 
    55     55     41     16     15     17 
    56     56     25      4      5     10 
    57     57     27      5      4     25 
    58     58     44     17     15     13 
    59     59     42     17     15     16 
    60     60     27      5      6      7 
    61     61     10      5      4      3 
    62     62     25      4      3      2 
    63     63     30      7      8      9 
    64     64     24      3      4      5 
    65     65     27      5     10     13 
    66     66     21      2      1     20 
    67     67     22      2      1     19 
    68     68     44     17     15     38 
    69     69     40     16     15     17 
    70     70     43     17     15     16 
    71     71     15     13     10     11 
    72     72     29      6      7      8 
    73     73     31      7      6     29 
    74     74     25      4      3     23 
    75     75     37     12     11     34 
    76     76     38     15     13     14 
    77     77     41     16     15     38 
    78     78     13     10     11     12 
    79     79     29      6      5     27 
    80     80     23      3      2      1 
    81     81     43     17     15     13 
    82     82     35     12     11     34 
    83     83     36     12     11     33 
    84     84     23      3      2     21 
    85     85     17     15     13     14 
    86     86     21      2      3      4 
    87     87     24      3      2     21 
    88     88     24      3      2      1 
    89     89     32     10     13     14 
    90     90     40     16     15     38 
    91     91     39     16     15     38 
    92     92     20      1      2      3 
    93     93     27      5      4     26 
    94     94     37     12     11     33 
    95     95     36     12     11     34 
    96     96     26      4      5      6 
    97     97     39     16     15     17 
    98     98     27      5      4      3 
    99     99     22      2      3      4 
   100    100     22      2      1     18 
   101    101     26      4      5     10 
   102    102     21      2      1     19 
   103    103     28      6      5     27 
   104    104     33     11     10     32 
   105    105     30      7      6      5 
   106    106     36     12     11     10 
   107    107     15     13     10      5 
   108    108     41     16     15     13 
   109    109     26      4      3     24 
   110    110     32     10      5     27 
   111    111     32     10      5      4 
   112    112     30      7      6     28 
   113    113     13     10      5      4 
   114    114     11     10      5      6 

Impropers

     1      1      5     10      4      6 
     2      2     10     11     13      5 
     3      3     13     10     14     15 
     4      4     15     17     13     16 
     5      5      1      2     19     18 
     6      6      1      2     20     18 
     7      7      2      1      3     21 
     8      8      2      1      3     22 
     9      9      3      2      4     23 
    10     10      3      2      4     24 
    11     11      4     25      3      5 
    12     12      4     26      3      5 
    13     13      5     27      4      6 
    14     14      6     28      5      7 
    15     15      6      5     29      7 
    16     16      7      8     30      6 
    17     17      7      8     31      6 
    18     18     10     11      5     32 
    19     19     11     33     10     12 
    20     20     11     34     12     10 
    21     21     12     11     36     35 
    22     22     12     11     37     35 
    23     23     15     13     38     16 
    24     24     16     39     15     40 
    25     25     16     41     39     15 
    26     26     17     42     43     15 
    27     27     17     42     44     15 

