LAMMPS data file Created by LigParGen - (Written by Leela S. Dodda)

      31 atoms
      31 bonds
      56 angles
      74 dihedrals
      17 impropers
 
      31 atom types
      31 bond types
      56 angle types
      74 dihedral types
      17 improper types
 
   -6.229800    43.770200 xlo xhi
   -2.273090    47.726910 ylo yhi
   -3.729130    46.270870 zlo zhi

Masses

       1     12.011  
       2     12.011  
       3     15.999  
       4     14.007  
       5     12.011  
       6     12.011  
       7     12.011  
       8     15.999  
       9     12.011  
      10     15.999  
      11     15.999  
      12     12.011  
      13     12.011  
      14     12.011  
      15     12.011  
      16     15.999  
      17      1.008  
      18      1.008  
      19      1.008  
      20      1.008  
      21      1.008  
      22      1.008  
      23      1.008  
      24      1.008  
      25      1.008  
      26      1.008  
      27      1.008  
      28      1.008  
      29      1.008  
      30      1.008  
      31      1.008  

Pair Coeffs 

       1      0.066  3.5000000 
       2      0.070  3.5500000 
       3      0.210  2.9600000 
       4      0.170  3.2500000 
       5      0.066  3.5000000 
       6      0.066  3.5000000 
       7      0.066  3.5000000 
       8      0.140  2.9000000 
       9      0.070  3.5500000 
      10      0.210  2.9600000 
      11      0.140  2.9000000 
      12      0.066  3.5000000 
      13      0.066  3.5000000 
      14      0.066  3.5000000 
      15      0.070  3.5500000 
      16      0.210  2.9600000 
      17      0.030  2.5000000 
      18      0.030  2.5000000 
      19      0.030  2.5000000 
      20      0.030  2.5000000 
      21      0.030  2.5000000 
      22      0.030  2.5000000 
      23      0.030  2.5000000 
      24      0.030  2.5000000 
      25      0.030  2.5000000 
      26      0.030  2.5000000 
      27      0.030  2.5000000 
      28      0.030  2.5000000 
      29      0.030  2.5000000 
      30      0.030  2.5000000 
      31      0.030  2.5000000 

Bond Coeffs 

       1   317.0000     1.5220 
       2   570.0000     1.2290 
       3   490.0000     1.3350 
       4   337.0000     1.4490 
       5   337.0000     1.4490 
       6   268.0000     1.5290 
       7   320.0000     1.4100 
       8   214.0000     1.3270 
       9   570.0000     1.2290 
      10   214.0000     1.3270 
      11   320.0000     1.4100 
      12   268.0000     1.5290 
      13   268.0000     1.5290 
      14   317.0000     1.5220 
      15   570.0000     1.2290 
      16   340.0000     1.0900 
      17   340.0000     1.0900 
      18   340.0000     1.0900 
      19   340.0000     1.0900 
      20   340.0000     1.0900 
      21   340.0000     1.0900 
      22   340.0000     1.0900 
      23   340.0000     1.0900 
      24   340.0000     1.0900 
      25   340.0000     1.0900 
      26   340.0000     1.0900 
      27   340.0000     1.0900 
      28   340.0000     1.0900 
      29   340.0000     1.0900 
      30   340.0000     1.0900 
      31   268.0000     1.5290 

Angle Coeffs 

       1     80.000    120.400
       2     70.000    116.600
       3     50.000    121.900
       4     50.000    121.900
       5     80.000    109.700
       6     50.000    109.500
       7     83.000    116.900
       8     83.000    123.400
       9     69.900    118.180
      10     83.000    116.900
      11     50.000    109.500
      12     80.000    109.700
      13     63.000    111.100
      14     80.000    120.400
      15     35.000    109.500
      16     35.000    109.500
      17     35.000    109.500
      18     35.000    109.500
      19     35.000    109.500
      20     35.000    109.500
      21     35.000    109.500
      22     37.500    110.700
      23     37.500    110.700
      24     35.000    109.500
      25     37.500    110.700
      26     37.500    110.700
      27     37.500    110.700
      28     37.500    110.700
      29     35.000    115.000
      30     58.350    112.700
      31     50.000    118.000
      32     50.000    109.500
      33     58.350    112.700
      34     37.500    110.700
      35     33.000    107.800
      36     35.000    123.000
      37     58.350    112.700
      38     83.000    123.400
      39     63.000    111.100
      40     33.000    107.800
      41     37.500    110.700
      42     33.000    107.800
      43     33.000    107.800
      44     35.000    109.500
      45     80.000    122.900
      46     33.000    107.800
      47     33.000    107.800
      48     33.000    107.800
      49     33.000    107.800
      50     35.000    109.500
      51     33.000    107.800
      52     35.000    109.500
      53     37.500    110.700
      54     37.500    110.700
      55     37.500    110.700
      56     33.000    107.800

Dihedral Coeffs  

       1      2.300      6.089      0.000      0.000 
       2      0.000      0.462      0.000      0.000 
       3      6.280     -1.467      2.030      0.000 
       4     -1.220     -0.126      0.422      0.000 
       5      0.000      5.124      0.000      0.000 
       6      4.669      5.124      0.000      0.000 
       7     -1.220     -0.126      0.422      0.000 
       8      0.000      0.000      0.000      0.000 
       9      0.000      0.000      0.000      0.000 
      10      0.000      0.000      0.000      0.000 
      11      0.000      0.000      0.468      0.000 
      12      0.000      0.462      0.000      0.000 
      13      0.000      0.000      0.000      0.000 
      14      0.000      0.000      0.300      0.000 
      15      0.000      0.000      0.300      0.000 
      16      1.300     -0.200      0.200      0.000 
      17     -9.000      2.000      0.800      0.000 
      18      0.000      0.000      0.300      0.000 
      19      0.000      0.000      0.300      0.000 
      20      0.000      0.000      0.000      0.000 
      21      0.000      0.000     -0.100      0.000 
      22      0.000      0.000      0.000      0.000 
      23      0.000      6.089      0.000      0.000 
      24      0.000      0.000      0.000      0.000 
      25      0.000      0.000      0.000      0.000 
      26      0.000      0.000     -0.100      0.000 
      27     -1.220     -0.126      0.422      0.000 
      28      0.000      0.000      0.000      0.000 
      29      0.000      0.000      0.000      0.000 
      30      0.000      0.000      0.000      0.000 
      31      0.000      0.000      0.300      0.000 
      32      0.000      0.000      0.360      0.000 
      33      0.000      0.000      0.000      0.000 
      34      0.000      0.000      0.000      0.000 
      35      0.000      0.000      0.000      0.000 
      36      0.000      0.000      0.464      0.000 
      37      0.845     -0.962      0.713      0.000 
      38      0.000      0.000      0.468      0.000 
      39      0.000      0.000      0.198      0.000 
      40      0.000      0.000      0.300      0.000 
      41     -6.180      0.000      0.000      0.000 
      42      2.300      6.089      0.000      0.000 
      43      0.000      0.000      0.468      0.000 
      44      0.000      0.000      0.468      0.000 
      45      0.000      0.000      0.300      0.000 
      46      0.000      0.000      0.198      0.000 
      47      0.000      0.000      0.000      0.000 
      48      0.000      0.000      0.000      0.000 
      49      1.711     -0.500      0.663      0.000 
      50      0.000      0.000      0.300      0.000 
      51      0.000      0.000      0.464      0.000 
      52      4.669      5.124      0.000      0.000 
      53      0.000      0.000      0.300      0.000 
      54      0.000      0.000      0.300      0.000 
      55      0.000      6.089      0.000      0.000 
      56      1.300     -0.200      0.200      0.000 
      57      0.000      0.000      0.300      0.000 
      58      0.000      0.000      0.300      0.000 
      59      0.000      0.000      0.468      0.000 
      60      1.711     -0.500      0.663      0.000 
      61      0.000      0.000      0.300      0.000 
      62      4.753     -0.734      0.000      0.000 
      63      0.000      0.000      0.300      0.000 
      64      0.000      0.000      0.198      0.000 
      65     -2.060     -0.313      0.315      0.000 
      66      0.000      0.000      0.000      0.000 
      67      0.000      0.000      0.000      0.000 
      68      0.000      0.000      0.000      0.000 
      69      0.000      0.000      0.300      0.000 
      70      0.000      0.000      0.464      0.000 
      71      0.000      5.124      0.000      0.000 
      72      4.753     -0.734      0.000      0.000 
      73      0.000      0.000      0.300      0.000 
      74     -2.060     -0.313      0.315      0.000 

Improper Coeffs 

       1     10.500      -1       2 
       2      2.500      -1       2 
       3     10.500      -1       2 
       4      0.000      -1       2 
       5      0.000      -1       2 
       6      0.000      -1       2 
       7      0.000      -1       2 
       8      0.000      -1       2 
       9      0.000      -1       2 
      10      0.000      -1       2 
      11      0.000      -1       2 
      12      0.000      -1       2 
      13      0.000      -1       2 
      14      0.000      -1       2 
      15      0.000      -1       2 
      16      0.000      -1       2 
      17     10.500      -1       2 

Atoms 

     1      1      1 -0.27180000    1.000  1.00000  0.00000
     2      1      2 0.59480000   -0.505  1.00000  0.00000
     3      1      3 -0.43040000   -1.112  1.00000  1.07106
     4      1      4 -0.96630000   -1.165  1.00156 -1.23351
     5      1      5 0.09170000   -0.476  1.00319 -2.52219
     6      1      6 0.16920000   -2.652  1.00320 -1.21334
     7      1      7 0.02110000   -3.250  2.20561 -1.97372
     8      1      8 -0.38540000   -4.665  2.26720 -1.77808
     9      1      9 0.59460000   -5.374  1.58960 -2.71247
    10      1     10 -0.38150000   -5.804  2.10415 -3.72913
    11      1     11 -0.36960000   -5.556  0.28272 -2.39791
    12      1     12 0.11520000   -4.758 -0.40053 -1.39351
    13      1     13 -0.27730000   -5.184 -0.01403  0.02715
    14      1     14 -0.24300000   -3.305 -0.30642 -1.69855
    15      1     15 0.33440000   -2.586 -1.53724 -1.19143
    16      1     16 -0.41930000   -3.003 -2.27309 -0.30556
    17      1     17 0.12370000    1.357  0.90751  1.03141
    18      1     18 0.12370000    1.374  1.94320 -0.40655
    19      1     19 0.12370000    1.387  0.14562 -0.55997
    20      1     20 0.09430000    0.610  1.00306 -2.41892
    21      1     21 0.09430000   -0.755  1.90031 -3.07969
    22      1     22 0.09430000   -0.771  0.11221 -3.08177
    23      1     23 0.17520000   -2.952  1.13436 -0.16991
    24      1     24 0.12310000   -3.016  2.16676 -3.04487
    25      1     25 0.12310000   -2.826  3.13864 -1.58501
    26      1     26 0.15440000   -5.043 -1.45394 -1.51412
    27      1     27 0.11530000   -5.137  1.06154  0.21580
    28      1     28 0.11530000   -4.569 -0.51615  0.78047
    29      1     29 0.11530000   -6.230 -0.29454  0.19193
    30      1     30 0.13230000   -3.199 -0.35965 -2.79216
    31      1     31 0.11540000   -1.642 -1.77580 -1.71360

Bonds 

     1      1      2      1
     2      2      3      2
     3      3      4      2
     4      4      5      4
     5      5      6      4
     6      6      7      6
     7      7      8      7
     8      8      9      8
     9      9     10      9
    10     10     11      9
    11     11     12     11
    12     12     13     12
    13     13     14      6
    14     14     15     14
    15     15     16     15
    16     16     17      1
    17     17     18      1
    18     18     19      1
    19     19     20      5
    20     20     21      5
    21     21     22      5
    22     22     23      6
    23     23     24      7
    24     24     25      7
    25     25     26     12
    26     26     27     13
    27     27     28     13
    28     28     29     13
    29     29     30     14
    30     30     31     15
    31     31     14     12

Angles 

     1      1      1      2      3
     2      2      1      2      4
     3      3      2      4      5
     4      4      2      4      6
     5      5      4      6      7
     6      6      6      7      8
     7      7      7      8      9
     8      8      8      9     10
     9      9      8      9     11
    10     10      9     11     12
    11     11     11     12     13
    12     12      4      6     14
    13     13      6     14     15
    14     14     14     15     16
    15     15      2      1     17
    16     16      2      1     18
    17     17      2      1     19
    18     18      4      5     20
    19     19      4      5     21
    20     20      4      5     22
    21     21      4      6     23
    22     22      6      7     24
    23     23      6      7     25
    24     24     11     12     26
    25     25     12     13     27
    26     26     12     13     28
    27     27     12     13     29
    28     28      6     14     30
    29     29     14     15     31
    30     30      7      6     14
    31     31      5      4      6
    32     32     11     12     14
    33     33     13     12     14
    34     34     14      6     23
    35     35     21      5     22
    36     36     16     15     31
    37     37      6     14     12
    38     38     10      9     11
    39     39     12     14     15
    40     40     24      7     25
    41     41     12     14     30
    42     42     18      1     19
    43     43     27     13     29
    44     44      8      7     25
    45     45      3      2      4
    46     46     20      5     22
    47     47     27     13     28
    48     48     17      1     19
    49     49     28     13     29
    50     50     15     14     30
    51     51     17      1     18
    52     52      8      7     24
    53     53      7      6     23
    54     54     13     12     26
    55     55     14     12     26
    56     56     20      5     21

Dihedrals

     1      1      5      4      2      1 
     2      2      7      6      4      2 
     3      3      8      7      6      4 
     4      4      9      8      7      6 
     5      5     10      9      8      7 
     6      6     12     11      9      8 
     7      7     13     12     11      9 
     8      8     16     15     14      6 
     9      9     17      1      2      3 
    10     10     20      5      4      2 
    11     11     27     13     12     11 
    12     12     14      6      4      2 
    13     13     23      6      4      5 
    14     14     29     13     12     14 
    15     15     30     14      6      7 
    16     16     12     14      6      7 
    17     17     15     14      6      4 
    18     18     28     13     12     14 
    19     19     23      6     14     12 
    20     20     21      5      4      6 
    21     21     26     12     14     15 
    22     22     19      1      2      4 
    23     23      5      4      2      3 
    24     24     20      5      4      6 
    25     25     31     15     14     12 
    26     26     23      6     14     15 
    27     27     14     12     11      9 
    28     28     30     14     15     16 
    29     29     21      5      4      2 
    30     30     31     15     14      6 
    31     31     27     13     12     14 
    32     32     31     15     14     30 
    33     33     18      1      2      4 
    34     34     23      6      4      2 
    35     35     19      1      2      3 
    36     36     25      7      6      4 
    37     37     12     14      6      4 
    38     38     28     13     12     11 
    39     39     24      7      8      9 
    40     40     27     13     12     26 
    41     41     15     14     12     11 
    42     42      6      4      2      1 
    43     43     30     14     12     11 
    44     44     29     13     12     11 
    45     45     25      7      6     14 
    46     46     26     12     11      9 
    47     47     22      5      4      6 
    48     48     22      5      4      2 
    49     49     11     12     14      6 
    50     50     24      7      6     23 
    51     51     30     14      6      4 
    52     52     11      9      8      7 
    53     53     25      7      6     23 
    54     54     30     14     12     13 
    55     55      6      4      2      3 
    56     56     13     12     14      6 
    57     57     26     12     14      6 
    58     58     30     14     12     26 
    59     59     23      6      7      8 
    60     60     14      6      7      8 
    61     61     28     13     12     26 
    62     62     14      6      4      5 
    63     63     30     14      6     23 
    64     64     25      7      8      9 
    65     65     15     14      6      7 
    66     66     16     15     14     12 
    67     67     17      1      2      4 
    68     68     18      1      2      3 
    69     69     24      7      6     14 
    70     70     24      7      6      4 
    71     71     12     11      9     10 
    72     72      7      6      4      5 
    73     73     29     13     12     26 
    74     74     15     14     12     13 

Impropers

     1      1      2      1      3      4 
     2      2      4      2      5      6 
     3      3      9     10     11      8 
     4      4      6      4     14      7 
     5      5     14     12     15      6 
     6      6      1     18     17      2 
     7      7      1      2     19     17 
     8      8      5     20      4     21 
     9      9      5     20      4     22 
    10     10      6      7      4     23 
    11     11      7      8      6     24 
    12     12      7     25      6      8 
    13     13     12     26     11     13 
    14     14     13     12     27     28 
    15     15     13     27     12     29 
    16     16     14     12      6     30 
    17     17     15     16     31     14 

