LAMMPS data file Created by LigParGen - (Written by Leela S. Dodda)

      44 atoms
      44 bonds
      85 angles
     125 dihedrals
      27 impropers
 
      44 atom types
      44 bond types
      85 angle types
     125 dihedral types
      27 improper types
 
   -7.066000    42.934000 xlo xhi
   -2.746620    47.253380 ylo yhi
   -1.027630    48.972370 zlo zhi

Masses

       1     12.011  
       2     12.011  
       3     12.011  
       4     12.011  
       5     12.011  
       6     15.999  
       7     12.011  
       8     12.011  
       9     12.011  
      10     12.011  
      11     12.011  
      12     15.999  
      13     15.999  
      14     12.011  
      15     12.011  
      16     12.011  
      17     12.011  
      18     12.011  
      19      1.008  
      20      1.008  
      21      1.008  
      22      1.008  
      23      1.008  
      24      1.008  
      25      1.008  
      26      1.008  
      27      1.008  
      28      1.008  
      29      1.008  
      30      1.008  
      31      1.008  
      32      1.008  
      33      1.008  
      34      1.008  
      35      1.008  
      36      1.008  
      37      1.008  
      38      1.008  
      39      1.008  
      40      1.008  
      41      1.008  
      42      1.008  
      43      1.008  
      44      1.008  

Pair Coeffs 

       1      0.066  3.5000000 
       2      0.066  3.5000000 
       3      0.066  3.5000000 
       4      0.066  3.5000000 
       5      0.070  3.5500000 
       6      0.210  2.9600000 
       7      0.066  3.5000000 
       8      0.066  3.5000000 
       9      0.066  3.5000000 
      10      0.066  3.5000000 
      11      0.070  3.5500000 
      12      0.210  2.9600000 
      13      0.140  2.9000000 
      14      0.066  3.5000000 
      15      0.066  3.5000000 
      16      0.066  3.5000000 
      17      0.066  3.5000000 
      18      0.066  3.5000000 
      19      0.030  2.5000000 
      20      0.030  2.5000000 
      21      0.030  2.5000000 
      22      0.030  2.5000000 
      23      0.030  2.5000000 
      24      0.030  2.5000000 
      25      0.030  2.5000000 
      26      0.030  2.5000000 
      27      0.030  2.5000000 
      28      0.030  2.5000000 
      29      0.030  2.5000000 
      30      0.030  2.5000000 
      31      0.030  2.5000000 
      32      0.030  2.5000000 
      33      0.030  2.5000000 
      34      0.030  2.5000000 
      35      0.030  2.5000000 
      36      0.030  2.5000000 
      37      0.030  2.5000000 
      38      0.030  2.5000000 
      39      0.030  2.5000000 
      40      0.030  2.5000000 
      41      0.030  2.5000000 
      42      0.030  2.5000000 
      43      0.030  2.5000000 
      44      0.030  2.5000000 

Bond Coeffs 

       1   268.0000     1.5290 
       2   268.0000     1.5290 
       3   268.0000     1.5290 
       4   317.0000     1.5220 
       5   570.0000     1.2290 
       6   268.0000     1.5290 
       7   268.0000     1.5290 
       8   268.0000     1.5290 
       9   268.0000     1.5290 
      10   317.0000     1.5220 
      11   570.0000     1.2290 
      12   214.0000     1.3270 
      13   320.0000     1.4100 
      14   268.0000     1.5290 
      15   268.0000     1.5290 
      16   268.0000     1.5290 
      17   268.0000     1.5290 
      18   340.0000     1.0900 
      19   340.0000     1.0900 
      20   340.0000     1.0900 
      21   340.0000     1.0900 
      22   340.0000     1.0900 
      23   340.0000     1.0900 
      24   340.0000     1.0900 
      25   340.0000     1.0900 
      26   340.0000     1.0900 
      27   340.0000     1.0900 
      28   340.0000     1.0900 
      29   340.0000     1.0900 
      30   340.0000     1.0900 
      31   340.0000     1.0900 
      32   340.0000     1.0900 
      33   340.0000     1.0900 
      34   340.0000     1.0900 
      35   340.0000     1.0900 
      36   340.0000     1.0900 
      37   340.0000     1.0900 
      38   340.0000     1.0900 
      39   340.0000     1.0900 
      40   340.0000     1.0900 
      41   340.0000     1.0900 
      42   340.0000     1.0900 
      43   340.0000     1.0900 
      44   268.0000     1.5290 

Angle Coeffs 

       1     58.350    112.700
       2     58.350    112.700
       3     63.000    111.100
       4     80.000    120.400
       5     58.350    112.700
       6     58.350    112.700
       7     58.350    112.700
       8     58.350    112.700
       9     63.000    111.100
      10     80.000    120.400
      11     81.000    111.400
      12     83.000    116.900
      13     58.350    112.700
      14     58.350    112.700
      15     58.350    112.700
      16     58.350    112.700
      17     37.500    110.700
      18     37.500    110.700
      19     37.500    110.700
      20     37.500    110.700
      21     37.500    110.700
      22     37.500    110.700
      23     37.500    110.700
      24     35.000    115.000
      25     37.500    110.700
      26     37.500    110.700
      27     37.500    110.700
      28     37.500    110.700
      29     37.500    110.700
      30     37.500    110.700
      31     37.500    110.700
      32     35.000    109.500
      33     35.000    109.500
      34     35.000    109.500
      35     37.500    110.700
      36     37.500    110.700
      37     37.500    110.700
      38     37.500    110.700
      39     37.500    110.700
      40     37.500    110.700
      41     37.500    110.700
      42     37.500    110.700
      43     37.500    110.700
      44     35.000    109.500
      45     58.350    112.700
      46     58.350    112.700
      47     37.500    110.700
      48     63.000    111.100
      49     35.000    109.500
      50     33.000    107.800
      51     33.000    107.800
      52     63.000    111.100
      53     58.350    112.700
      54     33.000    107.800
      55     33.000    107.800
      56     33.000    107.800
      57     37.500    110.700
      58     33.000    107.800
      59     58.350    112.700
      60     33.000    107.800
      61     33.000    107.800
      62     37.500    110.700
      63     37.500    110.700
      64     37.500    110.700
      65     33.000    107.800
      66     58.350    112.700
      67     33.000    107.800
      68     33.000    107.800
      69     33.000    107.800
      70     33.000    107.800
      71     37.500    110.700
      72     58.350    112.700
      73     35.000    123.000
      74     33.000    107.800
      75     83.000    123.400
      76     37.500    110.700
      77     33.000    107.800
      78     33.000    107.800
      79     33.000    107.800
      80     58.350    112.700
      81     58.350    112.700
      82     58.350    112.700
      83     33.000    107.800
      84     33.000    107.800
      85     33.000    107.800

Dihedral Coeffs  

       1      1.300     -0.200      0.200      0.000 
       2     -2.060     -0.313      0.315      0.000 
       3      0.000      0.000      0.000      0.000 
       4      1.300     -0.200      0.200      0.000 
       5     -2.060     -0.313      0.315      0.000 
       6      0.000      0.000      0.000      0.000 
       7      4.669      5.124      0.000      0.000 
       8      1.300     -0.200      0.200      0.000 
       9      0.000      0.000      0.300      0.000 
      10      0.000      0.000      0.300      0.000 
      11      0.000      0.000      0.300      0.000 
      12      0.000      0.000      0.198      0.000 
      13      0.000      0.000      0.300      0.000 
      14      0.000      0.000      0.300      0.000 
      15      0.000      0.000      0.300      0.000 
      16     -2.060     -0.313      0.315      0.000 
      17      0.000      0.000      0.300      0.000 
      18      1.300     -0.200      0.200      0.000 
      19      0.000      0.000      0.300      0.000 
      20      0.000      0.000      0.300      0.000 
      21     -2.060     -0.313      0.315      0.000 
      22      0.000      0.000      0.300      0.000 
      23      0.000      0.000      0.300      0.000 
      24      0.000      0.000      0.300      0.000 
      25      0.000      0.000      0.300      0.000 
      26      0.000      0.000      0.300      0.000 
      27      1.300     -0.200      0.200      0.000 
      28      0.000      0.000      0.300      0.000 
      29      0.000      0.000      0.300      0.000 
      30      0.000      0.000     -0.553      0.000 
      31      0.000      0.000      0.000      0.000 
      32      0.000      0.000      0.300      0.000 
      33      0.000      0.000      0.300      0.000 
      34      1.300     -0.200      0.200      0.000 
      35      0.000      0.000      0.300      0.000 
      36      0.000      0.000      0.300      0.000 
      37      0.000      0.000      0.300      0.000 
      38      0.000      0.000      0.000      0.000 
      39      1.300     -0.200      0.200      0.000 
      40      0.000      0.000      0.300      0.000 
      41      0.000      0.000      0.300      0.000 
      42      1.300     -0.200      0.200      0.000 
      43     -2.060     -0.313      0.315      0.000 
      44      0.000      0.000      0.300      0.000 
      45      0.000      0.000      0.300      0.000 
      46      0.000      0.000      0.300      0.000 
      47      0.000      0.000      0.300      0.000 
      48      1.300     -0.200      0.200      0.000 
      49      0.000      0.000      0.300      0.000 
      50      0.000      0.000      0.300      0.000 
      51      0.000      0.000      0.300      0.000 
      52      0.000      0.000      0.300      0.000 
      53      0.000      0.000      0.198      0.000 
      54      0.000      0.000      0.300      0.000 
      55      0.000      0.000      0.300      0.000 
      56      0.000      0.000      0.300      0.000 
      57      0.000      0.000      0.300      0.000 
      58      0.000      0.000      0.300      0.000 
      59      0.000      0.000      0.300      0.000 
      60      0.000      0.000      0.300      0.000 
      61      1.300     -0.200      0.200      0.000 
      62      1.300     -0.200      0.200      0.000 
      63      0.000      0.000      0.300      0.000 
      64      0.000      0.000      0.300      0.000 
      65      0.000      0.000      0.000      0.000 
      66     -2.060     -0.313      0.315      0.000 
      67      0.000      0.000      0.300      0.000 
      68      0.000      0.000      0.300      0.000 
      69      1.300     -0.200      0.200      0.000 
      70      1.300     -0.200      0.200      0.000 
      71      0.000      0.000      0.300      0.000 
      72      0.000      0.000      0.300      0.000 
      73      0.000      0.000      0.300      0.000 
      74      0.000      0.000      0.300      0.000 
      75      0.000      0.000      0.300      0.000 
      76      0.000      0.000     -0.100      0.000 
      77      1.300     -0.200      0.200      0.000 
      78     -2.060     -0.313      0.315      0.000 
      79      1.300     -0.200      0.200      0.000 
      80      0.000      0.000      0.300      0.000 
      81      0.000      0.000      0.300      0.000 
      82      1.300     -0.200      0.200      0.000 
      83      0.000      5.124      0.000      0.000 
      84      1.300     -0.200      0.200      0.000 
      85      0.000      0.000      0.000      0.000 
      86     -2.060     -0.313      0.315      0.000 
      87      0.000      0.000      0.300      0.000 
      88      0.000      0.000      0.000      0.000 
      89      0.000      0.000      0.300      0.000 
      90     -2.060     -0.313      0.315      0.000 
      91      0.000      0.000      0.300      0.000 
      92     -2.060     -0.313      0.315      0.000 
      93      0.000      0.000      0.198      0.000 
      94      0.000      0.000      0.000      0.000 
      95      0.000      0.000      0.300      0.000 
      96      0.000      0.000      0.300      0.000 
      97      0.000      0.000      0.132      0.000 
      98      0.000      0.000      0.300      0.000 
      99      0.000      0.000      0.300      0.000 
     100      0.000      0.000      0.300      0.000 
     101      0.000      0.000      0.300      0.000 
     102      0.000      0.000      0.300      0.000 
     103      0.000      0.000      0.300      0.000 
     104      0.000      0.000      0.300      0.000 
     105      1.300     -0.200      0.200      0.000 
     106      0.000      0.000      0.300      0.000 
     107      1.300     -0.200      0.200      0.000 
     108     -2.060     -0.313      0.315      0.000 
     109      0.000      0.000     -0.553      0.000 
     110      0.000      0.000      0.300      0.000 
     111      1.300     -0.200      0.200      0.000 
     112      1.300     -0.200      0.200      0.000 
     113      0.000      0.000      0.300      0.000 
     114      0.000      0.000      0.300      0.000 
     115      0.000      0.000      0.300      0.000 
     116      0.000      0.000      0.300      0.000 
     117      0.000      0.000      0.300      0.000 
     118      0.000      0.000      0.300      0.000 
     119      0.000      0.000      0.300      0.000 
     120      0.000      0.000      0.300      0.000 
     121      0.000      0.000      0.300      0.000 
     122      0.000      0.000      0.300      0.000 
     123      0.000      0.000      0.360      0.000 
     124      1.300     -0.200      0.200      0.000 
     125      0.000      0.000      0.300      0.000 

Improper Coeffs 

       1      0.000      -1       2 
       2      0.000      -1       2 
       3      0.000      -1       2 
       4     10.500      -1       2 
       5      0.000      -1       2 
       6      0.000      -1       2 
       7      0.000      -1       2 
       8      0.000      -1       2 
       9      0.000      -1       2 
      10      0.000      -1       2 
      11      0.000      -1       2 
      12      0.000      -1       2 
      13      0.000      -1       2 
      14     10.500      -1       2 
      15      0.000      -1       2 
      16      0.000      -1       2 
      17      0.000      -1       2 
      18      0.000      -1       2 
      19      0.000      -1       2 
      20      0.000      -1       2 
      21      0.000      -1       2 
      22      0.000      -1       2 
      23      0.000      -1       2 
      24      0.000      -1       2 
      25      0.000      -1       2 
      26      0.000      -1       2 
      27      0.000      -1       2 

Atoms 

     1      1      1 -0.24350000    1.000  1.00000  0.00000
     2      1      2 -0.17280000   -0.525  1.00000  0.00000
     3      1      3 -0.09340000   -1.125  1.00000  1.41954
     4      1      4 -0.18740000   -0.875  2.30166  2.22172
     5      1      5 0.32860000   -1.062  3.57341  1.41144
     6      1      6 -0.44450000   -0.155  4.37599  1.21045
     7      1      7 -0.02690000   -1.841  2.19010  3.42840
     8      1      8 -0.24150000   -2.196  3.54912  4.06453
     9      1      9 -0.23190000   -1.152  1.34945  4.52683
    10      1     10 -0.12150000   -3.112  1.52752  2.81119
    11      1     11 0.44690000   -3.965  0.77077  3.83374
    12      1     12 -0.44610000   -3.586 -0.17008  4.51597
    13      1     13 -0.35400000   -5.223  1.29524  3.88405
    14      1     14 -0.05930000   -6.075  0.63485  4.82287
    15      1     15 -0.02230000   -2.663  0.70635  1.53712
    16      1     16 -0.23470000   -3.469  1.22707  0.32204
    17      1     17 -0.17670000   -2.941 -0.82160  1.68976
    18      1     18 -0.23650000   -2.533 -1.72655  0.53305
    19      1     19 0.08710000    1.371  1.06637 -1.02763
    20      1     20 0.08710000    1.388  0.07275  0.43511
    21      1     21 0.08710000    1.409  1.84438  0.56060
    22      1     22 0.09330000   -0.847  0.10927 -0.54695
    23      1     23 0.09330000   -0.881  1.85836 -0.57759
    24      1     24 0.11470000   -0.606  0.19994  1.96854
    25      1     25 0.13550000    0.168  2.32183  2.56505
    26      1     26 0.10680000   -2.065  3.75909  0.99935
    27      1     27 0.09210000   -1.297  4.06820  4.41388
    28      1     28 0.09210000   -2.862  3.41436  4.92500
    29      1     29 0.09210000   -2.715  4.21276  3.36431
    30      1     30 0.09480000   -0.170  1.77025  4.77795
    31      1     31 0.09480000   -0.994  0.31211  4.21787
    32      1     32 0.09480000   -1.734  1.34387  5.45479
    33      1     33 0.13140000   -3.747  2.35325  2.45376
    34      1     34 0.10250000   -7.066  1.08826  4.75991
    35      1     35 0.10250000   -5.695  0.77136  5.84185
    36      1     36 0.10250000   -6.164 -0.43008  4.58194
    37      1     37 0.08690000   -3.360  2.30564  0.18582
    38      1     38 0.08690000   -4.538  1.02750  0.45410
    39      1     39 0.08690000   -3.160  0.76109 -0.61773
    40      1     40 0.10140000   -4.017 -0.97202  1.84955
    41      1     41 0.10140000   -2.430 -1.19866  2.58306
    42      1     42 0.08310000   -2.973 -1.41203 -0.41749
    43      1     43 0.08310000   -2.883 -2.74662  0.72672
    44      1     44 0.08310000   -1.447 -1.77397  0.42751

Bonds 

     1      1      2      1
     2      2      3      2
     3      3      4      3
     4      4      5      4
     5      5      6      5
     6      6      7      4
     7      7      8      7
     8      8      9      7
     9      9     10      7
    10     10     11     10
    11     11     12     11
    12     12     13     11
    13     13     14     13
    14     14     15      3
    15     15     16     15
    16     16     17     15
    17     17     18     17
    18     18     19      1
    19     19     20      1
    20     20     21      1
    21     21     22      2
    22     22     23      2
    23     23     24      3
    24     24     25      4
    25     25     26      5
    26     26     27      8
    27     27     28      8
    28     28     29      8
    29     29     30      9
    30     30     31      9
    31     31     32      9
    32     32     33     10
    33     33     34     14
    34     34     35     14
    35     35     36     14
    36     36     37     16
    37     37     38     16
    38     38     39     16
    39     39     40     17
    40     40     41     17
    41     41     42     18
    42     42     43     18
    43     43     44     18
    44     44     15     10

Angles 

     1      1      1      2      3
     2      2      2      3      4
     3      3      3      4      5
     4      4      4      5      6
     5      5      3      4      7
     6      6      4      7      8
     7      7      4      7      9
     8      8      4      7     10
     9      9      7     10     11
    10     10     10     11     12
    11     11     10     11     13
    12     12     11     13     14
    13     13      2      3     15
    14     14      3     15     16
    15     15      3     15     17
    16     16     15     17     18
    17     17      2      1     19
    18     18      2      1     20
    19     19      2      1     21
    20     20      1      2     22
    21     21      1      2     23
    22     22      2      3     24
    23     23      3      4     25
    24     24      4      5     26
    25     25      7      8     27
    26     26      7      8     28
    27     27      7      8     29
    28     28      7      9     30
    29     29      7      9     31
    30     30      7      9     32
    31     31      7     10     33
    32     32     13     14     34
    33     33     13     14     35
    34     34     13     14     36
    35     35     15     16     37
    36     36     15     16     38
    37     37     15     16     39
    38     38     15     17     40
    39     39     15     17     41
    40     40     17     18     42
    41     41     17     18     43
    42     42     17     18     44
    43     43     15      3     24
    44     44      5      4     25
    45     45      9      7     10
    46     46      8      7      9
    47     47     18     17     41
    48     48     11     10     15
    49     49     11     10     33
    50     50     20      1     21
    51     51     19      1     20
    52     52      5      4      7
    53     53     10     15     17
    54     54     37     16     39
    55     55     34     14     36
    56     56     37     16     38
    57     57     18     17     40
    58     58     42     18     44
    59     59      8      7     10
    60     60     27      8     29
    61     61     27      8     28
    62     62      7      4     25
    63     63      3      2     22
    64     64      3      2     23
    65     65     19      1     21
    66     66      3     15     10
    67     67     30      9     31
    68     68     43     18     44
    69     69     22      2     23
    70     70     30      9     32
    71     71      4      3     24
    72     72     16     15     17
    73     73      6      5     26
    74     74     40     17     41
    75     75     12     11     13
    76     76     15     10     33
    77     77     35     14     36
    78     78     31      9     32
    79     79     34     14     35
    80     80     10     15     16
    81     81      7     10     15
    82     82      4      3     15
    83     83     42     18     43
    84     84     38     16     39
    85     85     28      8     29

Dihedrals

     1      1      4      3      2      1 
     2      2      5      4      3      2 
     3      3      6      5      4      3 
     4      4      8      7      4      3 
     5      5     11     10      7      4 
     6      6     12     11     10      7 
     7      7     14     13     11     10 
     8      8     18     17     15      3 
     9      9     19      1      2      3 
    10     10     27      8      7      4 
    11     11     30      9      7      4 
    12     12     34     14     13     11 
    13     13     37     16     15      3 
    14     14     42     18     17     15 
    15     15     22      2      1     21 
    16     16     15      3      4      5 
    17     17     43     18     17     41 
    18     18     15     10      7      9 
    19     19     28      8      7      9 
    20     20     27      8      7     10 
    21     21     11     10      7      9 
    22     22     25      4      3     24 
    23     23     44     18     17     41 
    24     24     33     10     15      3 
    25     25     33     10      7      8 
    26     26     23      2      1     21 
    27     27     16     15      3      2 
    28     28     25      4      7     10 
    29     29     43     18     17     15 
    30     30     15     10     11     13 
    31     31     25      4      5      6 
    32     32     23      2      3      4 
    33     33     24      3      2     22 
    34     34     15     10      7      8 
    35     35     32      9      7      8 
    36     36     30      9      7     10 
    37     37     38     16     15     17 
    38     38      7      4      5      6 
    39     39      7     10     15      3 
    40     40     44     18     17     15 
    41     41     32      9      7      4 
    42     42     15     10      7      4 
    43     43     11     10      7      8 
    44     44     27      8      7      9 
    45     45     44     18     17     40 
    46     46     43     18     17     40 
    47     47     29      8      7      4 
    48     48     17     15      3      4 
    49     49     41     17     15     10 
    50     50     41     17     15      3 
    51     51     25      4      3     15 
    52     52     39     16     15     10 
    53     53     35     14     13     11 
    54     54     33     10      7      9 
    55     55     23      2      3     15 
    56     56     25      4      7      8 
    57     57     29      8      7     10 
    58     58     23      2      1     19 
    59     59     40     17     15     16 
    60     60     24      3      4      7 
    61     61     16     15     10      7 
    62     62      7      4      3      2 
    63     63     21      1      2      3 
    64     64     41     17     15     16 
    65     65     26      5      4      3 
    66     66     11     10     15      3 
    67     67     37     16     15     10 
    68     68     24      3     15     17 
    69     69     10      7      4      3 
    70     70     15      3      4      7 
    71     71     30      9      7      8 
    72     72     38     16     15     10 
    73     73     33     10     15     17 
    74     74     29      8      7      9 
    75     75     24      3     15     10 
    76     76     24      3      4      5 
    77     77     16     15      3      4 
    78     78     16     15     10     11 
    79     79     17     15     10      7 
    80     80     22      2      1     19 
    81     81     40     17     15      3 
    82     82     18     17     15     10 
    83     83     14     13     11     12 
    84     84     15      3      2      1 
    85     85     15     10     11     12 
    86     86      9      7      4      5 
    87     87     28      8      7     10 
    88     88     33     10     11     12 
    89     89     31      9      7      8 
    90     90     17     15     10     11 
    91     91     31      9      7      4 
    92     92      8      7      4      5 
    93     93     36     14     13     11 
    94     94     26      5      4      7 
    95     95     39     16     15      3 
    96     96     31      9      7     10 
    97     97     33     10     11     13 
    98     98     33     10      7      4 
    99     99     24      3      2     23 
   100    100     24      3      2      1 
   101    101     24      3     15     16 
   102    102     28      8      7      4 
   103    103     42     18     17     41 
   104    104     20      1      2      3 
   105    105     17     15      3      2 
   106    106     22      2      1     20 
   107    107     10     15      3      2 
   108    108     10      7      4      5 
   109    109     13     11     10      7 
   110    110     38     16     15      3 
   111    111      9      7      4      3 
   112    112     18     17     15     16 
   113    113     22      2      3     15 
   114    114     39     16     15     17 
   115    115     33     10     15     16 
   116    116     23      2      1     20 
   117    117     22      2      3      4 
   118    118     42     18     17     40 
   119    119     25      4      3      2 
   120    120     40     17     15     10 
   121    121     37     16     15     17 
   122    122     32      9      7     10 
   123    123     26      5      4     25 
   124    124     10     15      3      4 
   125    125     25      4      7      9 

Impropers

     1      1      4      3      5      7 
     2      2      7      9      4      8 
     3      3      7     10      4      8 
     4      4     11     10     12     13 
     5      5      3      2      4     15 
     6      6     15     10      3     16 
     7      7     15     17     10      3 
     8      8      1      2     19     20 
     9      9      1      2     19     21 
    10     10      2      1      3     22 
    11     11      2      1      3     23 
    12     12      3      2      4     24 
    13     13      4     25      3      5 
    14     14      5     26      4      6 
    15     15      8     27     28      7 
    16     16      8     27     29      7 
    17     17      9      7     31     30 
    18     18      9     30      7     32 
    19     19     10     33     11      7 
    20     20     14     34     35     13 
    21     21     14     34     36     13 
    22     22     16     37     38     15 
    23     23     16     37     15     39 
    24     24     17     18     15     40 
    25     25     17     41     15     18 
    26     26     18     17     43     42 
    27     27     18     17     44     42 

