LAMMPS data file Created by LigParGen - (Written by Leela S. Dodda)

      41 atoms
      40 bonds
      78 angles
     108 dihedrals
      26 impropers
 
      41 atom types
      40 bond types
      78 angle types
     108 dihedral types
      26 improper types
 
   -6.638370    43.361630 xlo xhi
   -3.831350    46.168650 ylo yhi
   -1.023430    48.976570 zlo zhi

Masses

       1     12.011  
       2     12.011  
       3     12.011  
       4     12.011  
       5     12.011  
       6     12.011  
       7     12.011  
       8     12.011  
       9     12.011  
      10     12.011  
      11     12.011  
      12     12.011  
      13     12.011  
      14      1.008  
      15      1.008  
      16      1.008  
      17      1.008  
      18      1.008  
      19      1.008  
      20      1.008  
      21      1.008  
      22      1.008  
      23      1.008  
      24      1.008  
      25      1.008  
      26      1.008  
      27      1.008  
      28      1.008  
      29      1.008  
      30      1.008  
      31      1.008  
      32      1.008  
      33      1.008  
      34      1.008  
      35      1.008  
      36      1.008  
      37      1.008  
      38      1.008  
      39      1.008  
      40      1.008  
      41      1.008  

Pair Coeffs 

       1      0.066  3.5000000 
       2      0.066  3.5000000 
       3      0.066  3.5000000 
       4      0.066  3.5000000 
       5      0.066  3.5000000 
       6      0.066  3.5000000 
       7      0.066  3.5000000 
       8      0.066  3.5000000 
       9      0.066  3.5000000 
      10      0.066  3.5000000 
      11      0.066  3.5000000 
      12      0.066  3.5000000 
      13      0.066  3.5000000 
      14      0.030  2.5000000 
      15      0.030  2.5000000 
      16      0.030  2.5000000 
      17      0.030  2.5000000 
      18      0.030  2.5000000 
      19      0.030  2.5000000 
      20      0.030  2.5000000 
      21      0.030  2.5000000 
      22      0.030  2.5000000 
      23      0.030  2.5000000 
      24      0.030  2.5000000 
      25      0.030  2.5000000 
      26      0.030  2.5000000 
      27      0.030  2.5000000 
      28      0.030  2.5000000 
      29      0.030  2.5000000 
      30      0.030  2.5000000 
      31      0.030  2.5000000 
      32      0.030  2.5000000 
      33      0.030  2.5000000 
      34      0.030  2.5000000 
      35      0.030  2.5000000 
      36      0.030  2.5000000 
      37      0.030  2.5000000 
      38      0.030  2.5000000 
      39      0.030  2.5000000 
      40      0.030  2.5000000 
      41      0.030  2.5000000 

Bond Coeffs 

       1   268.0000     1.5290 
       2   268.0000     1.5290 
       3   268.0000     1.5290 
       4   268.0000     1.5290 
       5   268.0000     1.5290 
       6   268.0000     1.5290 
       7   268.0000     1.5290 
       8   268.0000     1.5290 
       9   268.0000     1.5290 
      10   268.0000     1.5290 
      11   268.0000     1.5290 
      12   268.0000     1.5290 
      13   340.0000     1.0900 
      14   340.0000     1.0900 
      15   340.0000     1.0900 
      16   340.0000     1.0900 
      17   340.0000     1.0900 
      18   340.0000     1.0900 
      19   340.0000     1.0900 
      20   340.0000     1.0900 
      21   340.0000     1.0900 
      22   340.0000     1.0900 
      23   340.0000     1.0900 
      24   340.0000     1.0900 
      25   340.0000     1.0900 
      26   340.0000     1.0900 
      27   340.0000     1.0900 
      28   340.0000     1.0900 
      29   340.0000     1.0900 
      30   340.0000     1.0900 
      31   340.0000     1.0900 
      32   340.0000     1.0900 
      33   340.0000     1.0900 
      34   340.0000     1.0900 
      35   340.0000     1.0900 
      36   340.0000     1.0900 
      37   340.0000     1.0900 
      38   340.0000     1.0900 
      39   340.0000     1.0900 
      40   340.0000     1.0900 

Angle Coeffs 

       1     58.350    112.700
       2     58.350    112.700
       3     58.350    112.700
       4     58.350    112.700
       5     58.350    112.700
       6     58.350    112.700
       7     58.350    112.700
       8     58.350    112.700
       9     58.350    112.700
      10     58.350    112.700
      11     58.350    112.700
      12     37.500    110.700
      13     37.500    110.700
      14     37.500    110.700
      15     37.500    110.700
      16     37.500    110.700
      17     37.500    110.700
      18     37.500    110.700
      19     37.500    110.700
      20     37.500    110.700
      21     37.500    110.700
      22     37.500    110.700
      23     37.500    110.700
      24     37.500    110.700
      25     37.500    110.700
      26     37.500    110.700
      27     37.500    110.700
      28     37.500    110.700
      29     37.500    110.700
      30     37.500    110.700
      31     37.500    110.700
      32     37.500    110.700
      33     37.500    110.700
      34     37.500    110.700
      35     37.500    110.700
      36     37.500    110.700
      37     37.500    110.700
      38     37.500    110.700
      39     37.500    110.700
      40     33.000    107.800
      41     37.500    110.700
      42     58.350    112.700
      43     37.500    110.700
      44     33.000    107.800
      45     37.500    110.700
      46     33.000    107.800
      47     33.000    107.800
      48     37.500    110.700
      49     37.500    110.700
      50     33.000    107.800
      51     37.500    110.700
      52     37.500    110.700
      53     37.500    110.700
      54     33.000    107.800
      55     37.500    110.700
      56     37.500    110.700
      57     33.000    107.800
      58     33.000    107.800
      59     33.000    107.800
      60     33.000    107.800
      61     37.500    110.700
      62     33.000    107.800
      63     33.000    107.800
      64     33.000    107.800
      65     33.000    107.800
      66     58.350    112.700
      67     33.000    107.800
      68     37.500    110.700
      69     33.000    107.800
      70     33.000    107.800
      71     37.500    110.700
      72     33.000    107.800
      73     37.500    110.700
      74     37.500    110.700
      75     58.350    112.700
      76     37.500    110.700
      77     33.000    107.800
      78     33.000    107.800

Dihedral Coeffs  

       1      1.300     -0.200      0.200      0.000 
       2      1.300     -0.200      0.200      0.000 
       3      1.300     -0.200      0.200      0.000 
       4      1.300     -0.200      0.200      0.000 
       5      1.300     -0.200      0.200      0.000 
       6      1.300     -0.200      0.200      0.000 
       7      1.300     -0.200      0.200      0.000 
       8      0.000      0.000      0.300      0.000 
       9      0.000      0.000      0.300      0.000 
      10      0.000      0.000      0.300      0.000 
      11      0.000      0.000      0.300      0.000 
      12      0.000      0.000      0.300      0.000 
      13      0.000      0.000      0.300      0.000 
      14      0.000      0.000      0.300      0.000 
      15      0.000      0.000      0.300      0.000 
      16      0.000      0.000      0.300      0.000 
      17      0.000      0.000      0.300      0.000 
      18      0.000      0.000      0.300      0.000 
      19      0.000      0.000      0.300      0.000 
      20      0.000      0.000      0.300      0.000 
      21      0.000      0.000      0.300      0.000 
      22      0.000      0.000      0.300      0.000 
      23      0.000      0.000      0.300      0.000 
      24      0.000      0.000      0.300      0.000 
      25      0.000      0.000      0.300      0.000 
      26      0.000      0.000      0.300      0.000 
      27      0.000      0.000      0.300      0.000 
      28      0.000      0.000      0.300      0.000 
      29      0.000      0.000      0.300      0.000 
      30      0.000      0.000      0.300      0.000 
      31      0.000      0.000      0.300      0.000 
      32      0.000      0.000      0.300      0.000 
      33      0.000      0.000      0.300      0.000 
      34      0.000      0.000      0.300      0.000 
      35      0.000      0.000      0.300      0.000 
      36      0.000      0.000      0.300      0.000 
      37      0.000      0.000      0.300      0.000 
      38      0.000      0.000      0.300      0.000 
      39      0.000      0.000      0.300      0.000 
      40      0.000      0.000      0.300      0.000 
      41      0.000      0.000      0.300      0.000 
      42      0.000      0.000      0.300      0.000 
      43      0.000      0.000      0.300      0.000 
      44      0.000      0.000      0.300      0.000 
      45      0.000      0.000      0.300      0.000 
      46      0.000      0.000      0.300      0.000 
      47      0.000      0.000      0.300      0.000 
      48      0.000      0.000      0.300      0.000 
      49      0.000      0.000      0.300      0.000 
      50      0.000      0.000      0.300      0.000 
      51      1.300     -0.200      0.200      0.000 
      52      0.000      0.000      0.300      0.000 
      53      0.000      0.000      0.300      0.000 
      54      0.000      0.000      0.300      0.000 
      55      0.000      0.000      0.300      0.000 
      56      0.000      0.000      0.300      0.000 
      57      0.000      0.000      0.300      0.000 
      58      0.000      0.000      0.300      0.000 
      59      0.000      0.000      0.300      0.000 
      60      0.000      0.000      0.300      0.000 
      61      0.000      0.000      0.300      0.000 
      62      0.000      0.000      0.300      0.000 
      63      0.000      0.000      0.300      0.000 
      64      0.000      0.000      0.300      0.000 
      65      1.300     -0.200      0.200      0.000 
      66      1.300     -0.200      0.200      0.000 
      67      0.000      0.000      0.300      0.000 
      68      0.000      0.000      0.300      0.000 
      69      0.000      0.000      0.300      0.000 
      70      0.000      0.000      0.300      0.000 
      71      0.000      0.000      0.300      0.000 
      72      0.000      0.000      0.300      0.000 
      73      1.300     -0.200      0.200      0.000 
      74      0.000      0.000      0.300      0.000 
      75      0.000      0.000      0.300      0.000 
      76      0.000      0.000      0.300      0.000 
      77      0.000      0.000      0.300      0.000 
      78      0.000      0.000      0.300      0.000 
      79      0.000      0.000      0.300      0.000 
      80      0.000      0.000      0.300      0.000 
      81      0.000      0.000      0.300      0.000 
      82      0.000      0.000      0.300      0.000 
      83      0.000      0.000      0.300      0.000 
      84      0.000      0.000      0.300      0.000 
      85      1.300     -0.200      0.200      0.000 
      86      0.000      0.000      0.300      0.000 
      87      0.000      0.000      0.300      0.000 
      88      0.000      0.000      0.300      0.000 
      89      0.000      0.000      0.300      0.000 
      90      0.000      0.000      0.300      0.000 
      91      0.000      0.000      0.300      0.000 
      92      0.000      0.000      0.300      0.000 
      93      0.000      0.000      0.300      0.000 
      94      0.000      0.000      0.300      0.000 
      95      1.300     -0.200      0.200      0.000 
      96      0.000      0.000      0.300      0.000 
      97      0.000      0.000      0.300      0.000 
      98      0.000      0.000      0.300      0.000 
      99      0.000      0.000      0.300      0.000 
     100      0.000      0.000      0.300      0.000 
     101      0.000      0.000      0.300      0.000 
     102      0.000      0.000      0.300      0.000 
     103      0.000      0.000      0.300      0.000 
     104      0.000      0.000      0.300      0.000 
     105      0.000      0.000      0.300      0.000 
     106      1.300     -0.200      0.200      0.000 
     107      0.000      0.000      0.300      0.000 
     108      0.000      0.000      0.300      0.000 

Improper Coeffs 

       1      0.000      -1       2 
       2      0.000      -1       2 
       3      0.000      -1       2 
       4      0.000      -1       2 
       5      0.000      -1       2 
       6      0.000      -1       2 
       7      0.000      -1       2 
       8      0.000      -1       2 
       9      0.000      -1       2 
      10      0.000      -1       2 
      11      0.000      -1       2 
      12      0.000      -1       2 
      13      0.000      -1       2 
      14      0.000      -1       2 
      15      0.000      -1       2 
      16      0.000      -1       2 
      17      0.000      -1       2 
      18      0.000      -1       2 
      19      0.000      -1       2 
      20      0.000      -1       2 
      21      0.000      -1       2 
      22      0.000      -1       2 
      23      0.000      -1       2 
      24      0.000      -1       2 
      25      0.000      -1       2 
      26      0.000      -1       2 

Atoms 

     1      1      1 -0.23880000    1.000  1.00000  0.00000
     2      1      2 -0.18060000   -0.522  1.00000  0.00000
     3      1      3 -0.18130000   -1.059  1.00000  1.43119
     4      1      4 -0.16910000   -2.584  1.11140  1.47543
     5      1      5 -0.09500000   -3.217  1.02842  2.88886
     6      1      6 -0.17520000   -2.859  2.21951  3.82477
     7      1      7 -0.23630000   -1.403  2.36722  4.25525
     8      1      8 -0.10950000   -4.786  0.90785  2.81411
     9      1      9 -0.23790000   -5.442  2.11447  2.11469
    10      1     10 -0.16990000   -5.326 -0.36829  2.12098
    11      1     11 -0.11550000   -4.953 -1.72419  2.74661
    12      1     12 -0.23320000   -5.460 -1.86316  4.17929
    13      1     13 -0.23780000   -5.544 -2.84805  1.88156
    14      1     14 0.08040000    1.383  1.04708 -1.02343
    15      1     15 0.08040000    1.390  0.09196  0.47169
    16      1     16 0.08040000    1.390  1.86509  0.54734
    17      1     17 0.08770000   -0.890  0.12345 -0.54394
    18      1     18 0.08770000   -0.877  1.89209 -0.52930
    19      1     19 0.09050000   -0.603  1.85183  1.93234
    20      1     20 0.09050000   -0.734  0.09032  1.95029
    21      1     21 0.08850000   -2.977  0.29035  0.86539
    22      1     22 0.08850000   -2.886  2.04384  0.98685
    23      1     23 0.09700000   -2.839  0.11912  3.37316
    24      1     24 0.08470000   -3.444  2.10382  4.74813
    25      1     25 0.08470000   -3.167  3.17110  3.37872
    26      1     26 0.08060000   -0.901  1.39631  4.34957
    27      1     27 0.08060000   -1.354  2.86729  5.22892
    28      1     28 0.08060000   -0.849  3.00517  3.55982
    29      1     29 0.09540000   -5.162  0.90309  3.84655
    30      1     30 0.08080000   -5.251  2.10232  1.03627
    31      1     31 0.08080000   -5.094  3.07062  2.51126
    32      1     32 0.08080000   -6.528  2.08789  2.25579
    33      1     33 0.08740000   -5.023 -0.36539  1.06730
    34      1     34 0.08740000   -6.424 -0.30049  2.10551
    35      1     35 0.09980000   -3.862 -1.84072  2.74026
    36      1     36 0.08090000   -6.513 -1.57036  4.26032
    37      1     37 0.08090000   -4.879 -1.23867  4.86424
    38      1     38 0.08090000   -5.378 -2.89940  4.52868
    39      1     39 0.08080000   -6.638 -2.78536  1.84593
    40      1     40 0.08080000   -5.275 -3.83135  2.28086
    41      1     41 0.08080000   -5.168 -2.78750  0.85574

Bonds 

     1      1      2      1
     2      2      3      2
     3      3      4      3
     4      4      5      4
     5      5      6      5
     6      6      7      6
     7      7      8      5
     8      8      9      8
     9      9     10      8
    10     10     11     10
    11     11     12     11
    12     12     13     11
    13     13     14      1
    14     14     15      1
    15     15     16      1
    16     16     17      2
    17     17     18      2
    18     18     19      3
    19     19     20      3
    20     20     21      4
    21     21     22      4
    22     22     23      5
    23     23     24      6
    24     24     25      6
    25     25     26      7
    26     26     27      7
    27     27     28      7
    28     28     29      8
    29     29     30      9
    30     30     31      9
    31     31     32      9
    32     32     33     10
    33     33     34     10
    34     34     35     11
    35     35     36     12
    36     36     37     12
    37     37     38     12
    38     38     39     13
    39     39     40     13
    40     40     41     13

Angles 

     1      1      1      2      3
     2      2      2      3      4
     3      3      3      4      5
     4      4      4      5      6
     5      5      5      6      7
     6      6      4      5      8
     7      7      5      8      9
     8      8      5      8     10
     9      9      8     10     11
    10     10     10     11     12
    11     11     10     11     13
    12     12      2      1     14
    13     13      2      1     15
    14     14      2      1     16
    15     15      1      2     17
    16     16      1      2     18
    17     17      2      3     19
    18     18      2      3     20
    19     19      3      4     21
    20     20      3      4     22
    21     21      4      5     23
    22     22      5      6     24
    23     23      5      6     25
    24     24      6      7     26
    25     25      6      7     27
    26     26      6      7     28
    27     27      5      8     29
    28     28      8      9     30
    29     29      8      9     31
    30     30      8      9     32
    31     31      8     10     33
    32     32      8     10     34
    33     33     10     11     35
    34     34     11     12     36
    35     35     11     12     37
    36     36     11     12     38
    37     37     11     13     39
    38     38     11     13     40
    39     39     11     13     41
    40     40     30      9     31
    41     41      7      6     24
    42     42      9      8     10
    43     43      3      2     18
    44     44     27      7     28
    45     45     13     11     35
    46     46     40     13     41
    47     47     37     12     38
    48     48      9      8     29
    49     49      3      2     17
    50     50     24      6     25
    51     51      7      6     25
    52     52      4      3     19
    53     53      8      5     23
    54     54     39     13     41
    55     55     10      8     29
    56     56      5      4     22
    57     57     33     10     34
    58     58     15      1     16
    59     59     14      1     15
    60     60     39     13     40
    61     61     12     11     35
    62     62     30      9     32
    63     63     21      4     22
    64     64     17      2     18
    65     65     26      7     27
    66     66      6      5      8
    67     67     19      3     20
    68     68     11     10     34
    69     69     26      7     28
    70     70     31      9     32
    71     71      6      5     23
    72     72     14      1     16
    73     73      5      4     21
    74     74      4      3     20
    75     75     12     11     13
    76     76     11     10     33
    77     77     36     12     38
    78     78     36     12     37

Dihedrals

     1      1      4      3      2      1 
     2      2      5      4      3      2 
     3      3      6      5      4      3 
     4      4      7      6      5      4 
     5      5      9      8      5      4 
     6      6     11     10      8      5 
     7      7     12     11     10      8 
     8      8     14      1      2      3 
     9      9     26      7      6      5 
    10     10     30      9      8      5 
    11     11     36     12     11     10 
    12     12     39     13     11     10 
    13     13     35     11     10     33 
    14     14     34     10     11     13 
    15     15     41     13     11     10 
    16     16     39     13     11     12 
    17     17     36     12     11     13 
    18     18     28      7      6     25 
    19     19     39     13     11     35 
    20     20     26      7      6     25 
    21     21     27      7      6     24 
    22     22     29      8     10     11 
    23     23     23      5      8      9 
    24     24     40     13     11     35 
    25     25     33     10     11     13 
    26     26     34     10     11     12 
    27     27     24      6      5      8 
    28     28     30      9      8     10 
    29     29     28      7      6      5 
    30     30     31      9      8      5 
    31     31     23      5      6      7 
    32     32     17      2      1     16 
    33     33     18      2      1     15 
    34     34     17      2      3      4 
    35     35     40     13     11     12 
    36     36     37     12     11     13 
    37     37     23      5      8     10 
    38     38     19      3      2      1 
    39     39     37     12     11     10 
    40     40     33     10      8      5 
    41     41     25      6      5     23 
    42     42     41     13     11     35 
    43     43     21      4      5      8 
    44     44     20      3      2      1 
    45     45     21      4      3     19 
    46     46     41     13     11     12 
    47     47     20      3      2     18 
    48     48     22      4      3     20 
    49     49     18      2      1     14 
    50     50     17      2      1     15 
    51     51     10      8      5      4 
    52     52     40     13     11     10 
    53     53     29      8      5      4 
    54     54     32      9      8     10 
    55     55     26      7      6     24 
    56     56     33     10      8     29 
    57     57     32      9      8      5 
    58     58     23      5      4     21 
    59     59     34     10      8     29 
    60     60     30      9      8     29 
    61     61     34     10      8      5 
    62     62     38     12     11     13 
    63     63     20      3      4      5 
    64     64     35     11     10     34 
    65     65      9      8      5      6 
    66     66     13     11     10      8 
    67     67     23      5      4      3 
    68     68     37     12     11     35 
    69     69     21      4      3      2 
    70     70     24      6      5      4 
    71     71     34     10      8      9 
    72     72     31      9      8     10 
    73     73      8      5      6      7 
    74     74     33     10     11     12 
    75     75     24      6      5     23 
    76     76     36     12     11     35 
    77     77     27      7      6     25 
    78     78     28      7      6     24 
    79     79     31      9      8     29 
    80     80     15      1      2      3 
    81     81     27      7      6      5 
    82     82     33     10      8      9 
    83     83     22      4      5      8 
    84     84     25      6      5      4 
    85     85     10      8      5      6 
    86     86     21      4      3     20 
    87     87     22      4      3     19 
    88     88     29      8      5     23 
    89     89     35     11     10      8 
    90     90     22      4      3      2 
    91     91     20      3      2     17 
    92     92     19      3      2     18 
    93     93     19      3      2     17 
    94     94     21      4      5      6 
    95     95     11     10      8      9 
    96     96     19      3      4      5 
    97     97     18      2      3      4 
    98     98     38     12     11     10 
    99     99     23      5      4     22 
   100    100     22      4      5      6 
   101    101     32      9      8     29 
   102    102     16      1      2      3 
   103    103     38     12     11     35 
   104    104     17      2      1     14 
   105    105     25      6      5      8 
   106    106      8      5      4      3 
   107    107     18      2      1     16 
   108    108     29      8      5      6 

Impropers

     1      1      5      4      6      8 
     2      2      8      9     10      5 
     3      3     11     10     12     13 
     4      4      1      2     14     15 
     5      5      1      2     14     16 
     6      6      2     17      3      1 
     7      7      2      1     18      3 
     8      8      3      2     19      4 
     9      9      3      4      2     20 
    10     10      4      5      3     21 
    11     11      4      3      5     22 
    12     12      5      4      6     23 
    13     13      6      5      7     24 
    14     14      6     25      5      7 
    15     15      7     26     27      6 
    16     16      7     26     28      6 
    17     17      8      9      5     29 
    18     18      9     30     31      8 
    19     19      9      8     30     32 
    20     20     10     33     11      8 
    21     21     10     34     11      8 
    22     22     11     10     35     12 
    23     23     12     36     11     37 
    24     24     12     36     11     38 
    25     25     13     11     39     40 
    26     26     13     41     11     39 

