LAMMPS data file Created by LigParGen - (Written by Leela S. Dodda)

      45 atoms
      44 bonds
      84 angles
     115 dihedrals
      28 impropers
 
      45 atom types
      44 bond types
      84 angle types
     115 dihedral types
      28 improper types
 
  -12.105140    37.894860 xlo xhi
   -1.620340    48.379660 ylo yhi
   -1.027140    48.972860 zlo zhi

Masses

       1     12.011  
       2     12.011  
       3     12.011  
       4     12.011  
       5     12.011  
       6     12.011  
       7     12.011  
       8     12.011  
       9     15.999  
      10     12.011  
      11     15.999  
      12     12.011  
      13     12.011  
      14     12.011  
      15     12.011  
      16     12.011  
      17     12.011  
      18      1.008  
      19      1.008  
      20      1.008  
      21      1.008  
      22      1.008  
      23      1.008  
      24      1.008  
      25      1.008  
      26      1.008  
      27      1.008  
      28      1.008  
      29      1.008  
      30      1.008  
      31      1.008  
      32      1.008  
      33      1.008  
      34      1.008  
      35      1.008  
      36      1.008  
      37      1.008  
      38      1.008  
      39      1.008  
      40      1.008  
      41      1.008  
      42      1.008  
      43      1.008  
      44      1.008  
      45      1.008  

Pair Coeffs 

       1      0.066  3.5000000 
       2      0.066  3.5000000 
       3      0.066  3.5000000 
       4      0.066  3.5000000 
       5      0.066  3.5000000 
       6      0.066  3.5000000 
       7      0.066  3.5000000 
       8      0.070  3.5500000 
       9      0.210  2.9600000 
      10      0.070  3.5500000 
      11      0.210  2.9600000 
      12      0.066  3.5000000 
      13      0.066  3.5000000 
      14      0.066  3.5000000 
      15      0.066  3.5000000 
      16      0.066  3.5000000 
      17      0.066  3.5000000 
      18      0.030  2.5000000 
      19      0.030  2.5000000 
      20      0.030  2.5000000 
      21      0.030  2.5000000 
      22      0.030  2.5000000 
      23      0.030  2.5000000 
      24      0.030  2.5000000 
      25      0.030  2.5000000 
      26      0.030  2.5000000 
      27      0.030  2.5000000 
      28      0.030  2.5000000 
      29      0.030  2.5000000 
      30      0.030  2.5000000 
      31      0.030  2.5000000 
      32      0.030  2.5000000 
      33      0.030  2.5000000 
      34      0.030  2.5000000 
      35      0.030  2.5000000 
      36      0.030  2.5000000 
      37      0.030  2.5000000 
      38      0.030  2.5000000 
      39      0.030  2.5000000 
      40      0.030  2.5000000 
      41      0.030  2.5000000 
      42      0.030  2.5000000 
      43      0.030  2.5000000 
      44      0.030  2.5000000 
      45      0.030  2.5000000 

Bond Coeffs 

       1   268.0000     1.5290 
       2   268.0000     1.5290 
       3   268.0000     1.5290 
       4   268.0000     1.5290 
       5   268.0000     1.5290 
       6   268.0000     1.5290 
       7   317.0000     1.5220 
       8   570.0000     1.2290 
       9   350.0000     1.5100 
      10   570.0000     1.2290 
      11   317.0000     1.5220 
      12   268.0000     1.5290 
      13   268.0000     1.5290 
      14   268.0000     1.5290 
      15   268.0000     1.5290 
      16   268.0000     1.5290 
      17   340.0000     1.0900 
      18   340.0000     1.0900 
      19   340.0000     1.0900 
      20   340.0000     1.0900 
      21   340.0000     1.0900 
      22   340.0000     1.0900 
      23   340.0000     1.0900 
      24   340.0000     1.0900 
      25   340.0000     1.0900 
      26   340.0000     1.0900 
      27   340.0000     1.0900 
      28   340.0000     1.0900 
      29   340.0000     1.0900 
      30   340.0000     1.0900 
      31   340.0000     1.0900 
      32   340.0000     1.0900 
      33   340.0000     1.0900 
      34   340.0000     1.0900 
      35   340.0000     1.0900 
      36   340.0000     1.0900 
      37   340.0000     1.0900 
      38   340.0000     1.0900 
      39   340.0000     1.0900 
      40   340.0000     1.0900 
      41   340.0000     1.0900 
      42   340.0000     1.0900 
      43   340.0000     1.0900 
      44   340.0000     1.0900 

Angle Coeffs 

       1     58.350    112.700
       2     58.350    112.700
       3     58.350    112.700
       4     58.350    112.700
       5     58.350    112.700
       6     63.000    111.100
       7     80.000    120.400
       8     80.000    117.200
       9     80.000    121.400
      10     80.000    117.200
      11     63.000    111.100
      12     63.000    111.100
      13     58.350    112.700
      14     58.350    112.700
      15     58.350    112.700
      16     37.500    110.700
      17     37.500    110.700
      18     37.500    110.700
      19     37.500    110.700
      20     37.500    110.700
      21     37.500    110.700
      22     37.500    110.700
      23     37.500    110.700
      24     37.500    110.700
      25     37.500    110.700
      26     37.500    110.700
      27     37.500    110.700
      28     37.500    110.700
      29     37.500    110.700
      30     37.500    110.700
      31     35.000    109.500
      32     37.500    110.700
      33     37.500    110.700
      34     37.500    110.700
      35     37.500    110.700
      36     37.500    110.700
      37     37.500    110.700
      38     37.500    110.700
      39     37.500    110.700
      40     37.500    110.700
      41     37.500    110.700
      42     37.500    110.700
      43     37.500    110.700
      44     33.000    107.800
      45     37.500    110.700
      46     37.500    110.700
      47     37.500    110.700
      48     37.500    110.700
      49     33.000    107.800
      50     33.000    107.800
      51     33.000    107.800
      52     37.500    110.700
      53     37.500    110.700
      54     37.500    110.700
      55     37.500    110.700
      56     33.000    107.800
      57     37.500    110.700
      58     37.500    110.700
      59     58.350    112.700
      60     35.000    109.500
      61     33.000    107.800
      62     33.000    107.800
      63     37.500    110.700
      64     33.000    107.800
      65     37.500    110.700
      66     35.000    109.500
      67     37.500    110.700
      68     33.000    107.800
      69     37.500    110.700
      70     33.000    107.800
      71     33.000    107.800
      72     33.000    107.800
      73     33.000    107.800
      74     33.000    107.800
      75     33.000    107.800
      76     33.000    107.800
      77     37.500    110.700
      78     58.350    112.700
      79     80.000    120.400
      80     37.500    110.700
      81     80.000    121.400
      82     33.000    107.800
      83     33.000    107.800
      84     33.000    107.800

Dihedral Coeffs  

       1      1.300     -0.200      0.200      0.000 
       2      1.300     -0.200      0.200      0.000 
       3      1.300     -0.200      0.200      0.000 
       4      1.300     -0.200      0.200      0.000 
       5     -2.060     -0.313      0.315      0.000 
       6      0.000      0.000      0.000      0.000 
       7      0.000      0.500      0.000      0.000 
       8      0.000      0.000      0.000      0.000 
       9     -2.060     -0.313      0.315      0.000 
      10      1.300     -0.200      0.200      0.000 
      11      0.000      0.000      0.300      0.000 
      12      0.000      0.000     -0.100      0.000 
      13      0.000      0.000      0.300      0.000 
      14      0.000      0.000      0.300      0.000 
      15      0.000      0.000      0.300      0.000 
      16      0.000      0.000      0.000      0.000 
      17      0.000      0.000      0.300      0.000 
      18      0.000      0.000      0.300      0.000 
      19      0.000      0.000      0.300      0.000 
      20      0.000      0.000     -0.100      0.000 
      21      0.000      0.000      0.300      0.000 
      22      0.000      0.000      0.300      0.000 
      23      0.000      0.000      0.300      0.000 
      24      0.000      0.000      0.300      0.000 
      25      0.000      0.000     -0.100      0.000 
      26      1.300     -0.200      0.200      0.000 
      27      0.000      0.000      0.300      0.000 
      28      0.700     -1.500      0.000      0.000 
      29      0.000      0.000      0.300      0.000 
      30      0.000      0.000      0.300      0.000 
      31      0.000      0.000      0.000      0.000 
      32      0.000      0.000      0.300      0.000 
      33      0.000      0.000      0.300      0.000 
      34      0.000      0.000      0.300      0.000 
      35      0.000      0.000      0.300      0.000 
      36      0.000      0.000      0.300      0.000 
      37      0.000      0.000      0.300      0.000 
      38      0.000      0.000      0.300      0.000 
      39      0.000      0.000      0.300      0.000 
      40     -2.060     -0.313      0.315      0.000 
      41      0.000      0.000      0.300      0.000 
      42      0.000      0.000      0.300      0.000 
      43      0.000      0.000      0.300      0.000 
      44      0.000      0.000      0.300      0.000 
      45      0.000      0.000      0.300      0.000 
      46      0.000      0.000      0.000      0.000 
      47      0.000      0.000      0.300      0.000 
      48      0.000      0.000      0.300      0.000 
      49      0.000      0.000      0.300      0.000 
      50      0.000      0.000      0.300      0.000 
      51      0.000      0.000     -0.100      0.000 
      52      0.000      0.000      0.300      0.000 
      53      0.000      0.000      0.085      0.000 
      54      0.000      0.000      0.300      0.000 
      55      0.000      0.000      0.300      0.000 
      56      0.000      0.000      0.300      0.000 
      57      0.000      0.000      0.300      0.000 
      58      0.000      0.000      0.300      0.000 
      59      0.000      0.000      0.300      0.000 
      60      0.000      0.000      0.300      0.000 
      61      0.000      0.000      0.300      0.000 
      62      0.000      0.000      0.300      0.000 
      63      0.000      0.000      0.300      0.000 
      64      0.000      0.000      0.300      0.000 
      65      0.000      0.000      0.300      0.000 
      66      0.000      0.000      0.300      0.000 
      67      0.000      0.000      0.300      0.000 
      68      0.000      0.000      0.300      0.000 
      69      0.000      0.000      0.300      0.000 
      70      0.000      0.000      0.300      0.000 
      71      0.000      0.000     -0.100      0.000 
      72      0.000      0.000      0.300      0.000 
      73      0.000      0.500      0.000      0.000 
      74      0.000      0.000      0.300      0.000 
      75      0.000      0.000      0.300      0.000 
      76      0.000      0.000      0.300      0.000 
      77      0.000      0.000      0.085      0.000 
      78      0.000      0.000      0.000      0.000 
      79      0.000      0.000      0.300      0.000 
      80      0.000      0.000      0.000      0.000 
      81      0.000      0.000      0.300      0.000 
      82      0.000      0.000      0.300      0.000 
      83      0.000      0.000      0.300      0.000 
      84      0.000      0.000      0.300      0.000 
      85      0.000      0.000      0.300      0.000 
      86      0.000      0.000      0.300      0.000 
      87      0.000      0.000      0.300      0.000 
      88      0.000      0.000      0.300      0.000 
      89      0.000      0.000      0.085      0.000 
      90      0.000      0.000     -0.100      0.000 
      91      0.000      0.000      0.300      0.000 
      92      0.000      0.000      0.300      0.000 
      93      0.000      0.000      0.300      0.000 
      94      0.000      0.000      0.300      0.000 
      95      0.000      0.000      0.300      0.000 
      96      0.000      0.000      0.300      0.000 
      97      0.000      0.000      0.300      0.000 
      98      0.000      0.000      0.300      0.000 
      99      0.000      0.000      0.000      0.000 
     100      1.600      3.200      0.000      0.000 
     101      0.000      0.000      0.300      0.000 
     102      0.000      0.000      0.300      0.000 
     103      0.000      0.000      0.300      0.000 
     104      0.000      0.000      0.300      0.000 
     105      0.000      0.000      0.300      0.000 
     106      0.000      0.000      0.000      0.000 
     107      0.000      0.000      0.300      0.000 
     108      0.000      0.000      0.300      0.000 
     109      0.000      0.000      0.300      0.000 
     110      1.300     -0.200      0.200      0.000 
     111      0.000      0.000      0.300      0.000 
     112      0.000      0.000      0.300      0.000 
     113      0.000      0.000      0.300      0.000 
     114      0.000      0.000      0.300      0.000 
     115      1.300     -0.200      0.200      0.000 

Improper Coeffs 

       1     10.500      -1       2 
       2     10.500      -1       2 
       3      0.000      -1       2 
       4      0.000      -1       2 
       5      0.000      -1       2 
       6      0.000      -1       2 
       7      0.000      -1       2 
       8      0.000      -1       2 
       9      0.000      -1       2 
      10      0.000      -1       2 
      11      0.000      -1       2 
      12      0.000      -1       2 
      13      0.000      -1       2 
      14      0.000      -1       2 
      15      0.000      -1       2 
      16      0.000      -1       2 
      17      0.000      -1       2 
      18      0.000      -1       2 
      19      0.000      -1       2 
      20      0.000      -1       2 
      21      0.000      -1       2 
      22      0.000      -1       2 
      23      0.000      -1       2 
      24      0.000      -1       2 
      25      0.000      -1       2 
      26      0.000      -1       2 
      27      0.000      -1       2 
      28      0.000      -1       2 

Atoms 

     1      1      1 -0.23890000    1.000  1.00000  0.00000
     2      1      2 -0.17940000   -0.520  1.00000  0.00000
     3      1      3 -0.17790000   -1.080  1.00000  1.42219
     4      1      4 -0.17870000   -2.608  0.99820  1.41071
     5      1      5 -0.17870000   -3.179  0.99638  2.82909
     6      1      6 -0.17560000   -4.707  0.99279  2.80122
     7      1      7 -0.22880000   -5.289  0.99275  4.21016
     8      1      8 0.32610000   -6.801  0.98741  4.18422
     9      1      9 -0.40940000   -7.501  0.85104  3.19086
    10      1     10 0.33310000   -7.458  1.08272  5.54321
    11      1     11 -0.40840000   -7.550  2.18311  6.07000
    12      1     12 -0.14930000   -7.852 -0.24008  6.17807
    13      1     13 -0.23570000   -7.083 -0.38120  7.49439
    14      1     14 -0.09320000   -9.386 -0.40700  6.34194
    15      1     15 -0.23720000  -10.022  0.65098  7.25138
    16      1     16 -0.18250000  -10.076 -0.46582  4.96025
    17      1     17 -0.23540000  -11.577 -0.71799  5.02186
    18      1     18 0.08130000    1.378  1.00130 -1.02714
    19      1     19 0.08130000    1.391  0.11120  0.50522
    20      1     20 0.08130000    1.391  1.88752  0.50746
    21      1     21 0.08930000   -0.879  0.11661 -0.54102
    22      1     22 0.08930000   -0.879  1.88336 -0.54100
    23      1     23 0.08950000   -0.716  1.88378  1.96050
    24      1     24 0.08950000   -0.714  0.11765  1.96127
    25      1     25 0.09250000   -2.969  0.11502  0.86922
    26      1     26 0.09250000   -2.972  1.88102  0.87084
    27      1     27 0.08940000   -2.821  1.87977  3.37173
    28      1     28 0.08940000   -2.818  0.11265  3.36950
    29      1     29 0.10670000   -5.062  0.10955  2.25534
    30      1     30 0.10670000   -5.069  1.87168  2.25323
    31      1     31 0.13050000   -4.957  1.88545  4.75226
    32      1     32 0.13050000   -4.957  0.10390  4.75521
    33      1     33 0.11360000   -7.492 -1.04324  5.51998
    34      1     34 0.09440000   -7.342  0.40445  8.21111
    35      1     35 0.09440000   -6.004 -0.30099  7.31818
    36      1     36 0.09440000   -7.281 -1.35221  7.95917
    37      1     37 0.10040000   -9.549 -1.37993  6.82683
    38      1     38 0.08990000  -10.008  1.64176  6.78771
    39      1     39 0.08990000   -9.512  0.71364  8.21679
    40      1     40 0.08990000  -11.065  0.40141  7.47015
    41      1     41 0.09760000   -9.619 -1.27045  4.37032
    42      1     42 0.09760000   -9.910  0.46804  4.41277
    43      1     43 0.08270000  -11.804 -1.62034  5.59769
    44      1     44 0.08270000  -11.976 -0.84988  4.01064
    45      1     45 0.08270000  -12.105  0.12769  5.47249

Bonds 

     1      1      2      1
     2      2      3      2
     3      3      4      3
     4      4      5      4
     5      5      6      5
     6      6      7      6
     7      7      8      7
     8      8      9      8
     9      9     10      8
    10     10     11     10
    11     11     12     10
    12     12     13     12
    13     13     14     12
    14     14     15     14
    15     15     16     14
    16     16     17     16
    17     17     18      1
    18     18     19      1
    19     19     20      1
    20     20     21      2
    21     21     22      2
    22     22     23      3
    23     23     24      3
    24     24     25      4
    25     25     26      4
    26     26     27      5
    27     27     28      5
    28     28     29      6
    29     29     30      6
    30     30     31      7
    31     31     32      7
    32     32     33     12
    33     33     34     13
    34     34     35     13
    35     35     36     13
    36     36     37     14
    37     37     38     15
    38     38     39     15
    39     39     40     15
    40     40     41     16
    41     41     42     16
    42     42     43     17
    43     43     44     17
    44     44     45     17

Angles 

     1      1      1      2      3
     2      2      2      3      4
     3      3      3      4      5
     4      4      4      5      6
     5      5      5      6      7
     6      6      6      7      8
     7      7      7      8      9
     8      8      7      8     10
     9      9      8     10     11
    10     10      8     10     12
    11     11     10     12     13
    12     12     10     12     14
    13     13     12     14     15
    14     14     12     14     16
    15     15     14     16     17
    16     16      2      1     18
    17     17      2      1     19
    18     18      2      1     20
    19     19      1      2     21
    20     20      1      2     22
    21     21      2      3     23
    22     22      2      3     24
    23     23      3      4     25
    24     24      3      4     26
    25     25      4      5     27
    26     26      4      5     28
    27     27      5      6     29
    28     28      5      6     30
    29     29      6      7     31
    30     30      6      7     32
    31     31     10     12     33
    32     32     12     13     34
    33     33     12     13     35
    34     34     12     13     36
    35     35     12     14     37
    36     36     14     15     38
    37     37     14     15     39
    38     38     14     15     40
    39     39     14     16     41
    40     40     14     16     42
    41     41     16     17     43
    42     42     16     17     44
    43     43     16     17     45
    44     44     44     17     45
    45     45      7      6     30
    46     46     17     16     41
    47     47      3      2     21
    48     48      5      4     26
    49     49     41     16     42
    50     50     34     13     35
    51     51     25      4     26
    52     52     14     12     33
    53     53      4      3     23
    54     54      3      2     22
    55     55     16     14     37
    56     56     23      3     24
    57     57      6      5     27
    58     58     15     14     37
    59     59     15     14     16
    60     60      8      7     32
    61     61     31      7     32
    62     62     35     13     36
    63     63      7      6     29
    64     64     38     15     39
    65     65      5      4     25
    66     66      8      7     31
    67     67      4      3     24
    68     68     38     15     40
    69     69     17     16     42
    70     70     21      2     22
    71     71     27      5     28
    72     72     18      1     20
    73     73     43     17     45
    74     74     34     13     36
    75     75     18      1     19
    76     76     19      1     20
    77     77     13     12     33
    78     78     13     12     14
    79     79     11     10     12
    80     80      6      5     28
    81     81      9      8     10
    82     82     43     17     44
    83     83     29      6     30
    84     84     39     15     40

Dihedrals

     1      1      4      3      2      1 
     2      2      5      4      3      2 
     3      3      6      5      4      3 
     4      4      7      6      5      4 
     5      5      8      7      6      5 
     6      6      9      8      7      6 
     7      7     11     10      8      7 
     8      8     13     12     10      8 
     9      9     15     14     12     10 
    10     10     17     16     14     12 
    11     11     18      1      2      3 
    12     12     34     13     12     10 
    13     13     38     15     14     12 
    14     14     43     17     16     14 
    15     15     31      7      6      5 
    16     16     31      7      8      9 
    17     17     29      6      5      4 
    18     18     39     15     14     16 
    19     19     42     16     14     15 
    20     20     35     13     12     10 
    21     21     26      4      3     23 
    22     22     25      4      3     24 
    23     23     39     15     14     37 
    24     24     19      1      2      3 
    25     25     37     14     12     10 
    26     26     16     14     12     13 
    27     27     40     15     14     12 
    28     28     12     10      8      7 
    29     29     32      7      6     29 
    30     30     31      7      6     30 
    31     31     13     12     10     11 
    32     32     25      4      5      6 
    33     33     33     12     14     15 
    34     34     28      5      4      3 
    35     35     44     17     16     42 
    36     36     23      3      4      5 
    37     37     24      3      2     22 
    38     38     41     16     14     12 
    39     39     34     13     12     33 
    40     40     16     14     12     10 
    41     41     45     17     16     14 
    42     42     36     13     12     33 
    43     43     24      3      2     21 
    44     44     23      3      2     22 
    45     45     26      4      3      2 
    46     46     14     12     10      8 
    47     47     28      5      6      7 
    48     48     37     14     12     33 
    49     49     41     16     14     15 
    50     50     45     17     16     42 
    51     51     30      6      7      8 
    52     52     41     16     14     37 
    53     53     33     12     10      8 
    54     54     22      2      1     20 
    55     55     42     16     14     12 
    56     56     21      2      1     18 
    57     57     32      7      6     30 
    58     58     35     13     12     14 
    59     59     27      5      4     25 
    60     60     34     13     12     14 
    61     61     30      6      5      4 
    62     62     27      5      6      7 
    63     63     40     15     14     16 
    64     64     24      3      4      5 
    65     65     35     13     12     33 
    66     66     21      2      1     20 
    67     67     22      2      1     19 
    68     68     37     14     16     17 
    69     69     45     17     16     41 
    70     70     38     15     14     16 
    71     71     29      6      7      8 
    72     72     37     14     12     13 
    73     73     12     10      8      9 
    74     74     31      7      6     29 
    75     75     25      4      3     23 
    76     76     43     17     16     42 
    77     77     31      7      8     10 
    78     78     32      7      8      9 
    79     79     30      6      5     28 
    80     80     33     12     10     11 
    81     81     29      6      5     27 
    82     82     23      3      2      1 
    83     83     38     15     14     37 
    84     84     40     15     14     37 
    85     85     23      3      2     21 
    86     86     21      2      3      4 
    87     87     39     15     14     12 
    88     88     24      3      2      1 
    89     89     32      7      8     10 
    90     90     36     13     12     10 
    91     91     20      1      2      3 
    92     92     28      5      4     26 
    93     93     28      5      4     25 
    94     94     32      7      6      5 
    95     95     26      4      5      6 
    96     96     27      5      4     26 
    97     97     33     12     14     16 
    98     98     27      5      4      3 
    99     99     10      8      7      6 
   100    100     11     10      8      9 
   101    101     22      2      3      4 
   102    102     22      2      1     18 
   103    103     21      2      1     19 
   104    104     29      6      5     28 
   105    105     30      6      5     27 
   106    106     14     12     10     11 
   107    107     44     17     16     14 
   108    108     25      4      3      2 
   109    109     43     17     16     41 
   110    110     17     16     14     15 
   111    111     44     17     16     41 
   112    112     36     13     12     14 
   113    113     42     16     14     37 
   114    114     26      4      3     24 
   115    115     15     14     12     13 

Impropers

     1      1      8      9     10      7 
     2      2     10     11     12      8 
     3      3     12     10     13     14 
     4      4     14     12     15     16 
     5      5      1      2     19     18 
     6      6      1      2     20     18 
     7      7      2      1      3     21 
     8      8      2      1      3     22 
     9      9      3      2      4     23 
    10     10      3      2      4     24 
    11     11      4     25      3      5 
    12     12      4     26      3      5 
    13     13      5     27      4      6 
    14     14      5      4     28      6 
    15     15      6      5     29      7 
    16     16      6      5     30      7 
    17     17      7      8     31      6 
    18     18      7      8      6     32 
    19     19     12     33     10     13 
    20     20     13     34     35     12 
    21     21     13     12     34     36 
    22     22     14     12     37     15 
    23     23     15     38     39     14 
    24     24     15     38     14     40 
    25     25     16     41     17     14 
    26     26     16     17     42     14 
    27     27     17     43     44     16 
    28     28     17     43     45     16 

