LAMMPS data file Created by LigParGen - (Written by Leela S. Dodda)

      18 atoms
      18 bonds
      30 angles
      36 dihedrals
      10 impropers
 
      18 atom types
      18 bond types
      30 angle types
      36 dihedral types
      10 improper types
 
   -2.409230    47.590770 xlo xhi
   -5.366190    44.633810 ylo yhi
   -3.556700    46.443300 zlo zhi

Masses

       1     15.999  
       2     32.060  
       3     15.999  
       4     15.999  
       5     12.011  
       6     12.011  
       7     12.011  
       8     12.011  
       9     12.011  
      10     12.011  
      11     12.011  
      12      1.008  
      13      1.008  
      14      1.008  
      15      1.008  
      16      1.008  
      17      1.008  
      18      1.008  

Pair Coeffs 

       1      0.170  2.9600000 
       2      0.250  3.5500000 
       3      0.170  2.9600000 
       4      0.170  2.9600000 
       5      0.070  3.5500000 
       6      0.070  3.5500000 
       7      0.070  3.5500000 
       8      0.070  3.5500000 
       9      0.066  3.5000000 
      10      0.070  3.5500000 
      11      0.070  3.5500000 
      12      0.030  2.4200000 
      13      0.030  2.4200000 
      14      0.030  2.5000000 
      15      0.030  2.5000000 
      16      0.030  2.5000000 
      17      0.030  2.4200000 
      18      0.030  2.4200000 

Bond Coeffs 

       1   700.0000     1.4400 
       2   700.0000     1.4400 
       3   700.0000     1.4400 
       4   340.0000     1.7700 
       5   469.0000     1.4000 
       6   469.0000     1.4000 
       7   469.0000     1.4000 
       8   317.0000     1.5100 
       9   469.0000     1.4000 
      10   469.0000     1.4000 
      11   367.0000     1.0800 
      12   367.0000     1.0800 
      13   340.0000     1.0900 
      14   340.0000     1.0900 
      15   340.0000     1.0900 
      16   367.0000     1.0800 
      17   367.0000     1.0800 
      18   469.0000     1.4000 

Angle Coeffs 

       1    104.000    119.000
       2    104.000    119.000
       3     74.000    107.200
       4     85.000    119.400
       5     63.000    120.000
       6     63.000    120.000
       7     70.000    120.000
       8     63.000    120.000
       9     85.000    119.400
      10     35.000    120.000
      11     35.000    120.000
      12     35.000    109.500
      13     35.000    109.500
      14     35.000    109.500
      15     35.000    120.000
      16     35.000    120.000
      17     35.000    120.000
      18     33.000    107.800
      19     63.000    120.000
      20     35.000    120.000
      21     33.000    107.800
      22     63.000    120.000
      23     63.000    120.000
      24    104.000    119.000
      25     35.000    120.000
      26     74.000    107.200
      27     74.000    107.200
      28     33.000    107.800
      29     70.000    120.000
      30     35.000    120.000

Dihedral Coeffs  

       1      0.000      0.000      0.000      0.000 
       2      0.000      7.250      0.000      0.000 
       3      0.000      7.250      0.000      0.000 
       4      0.000      7.250      0.000      0.000 
       5      0.000      0.000      0.000      0.000 
       6      0.000      7.250      0.000      0.000 
       7      0.000      0.000      0.000      0.000 
       8      0.000      7.250      0.000      0.000 
       9      0.000      7.250      0.000      0.000 
      10      0.000      7.250      0.000      0.000 
      11      0.000      7.250      0.000      0.000 
      12      0.000      7.250      0.000      0.000 
      13      0.000      0.000      0.000      0.000 
      14      0.000      7.250      0.000      0.000 
      15      0.000      7.250      0.000      0.000 
      16      0.000      7.250      0.000      0.000 
      17      0.000      7.250      0.000      0.000 
      18      0.000      7.250      0.000      0.000 
      19      0.000      0.000      0.000      0.000 
      20      0.000      7.250      0.000      0.000 
      21      0.000      0.000      0.000      0.000 
      22      0.000      7.250      0.000      0.000 
      23      0.000      7.250      0.000      0.000 
      24      0.000      0.000      0.000      0.000 
      25      0.000      7.250      0.000      0.000 
      26      0.000      0.000      0.000      0.000 
      27      0.000      7.250      0.000      0.000 
      28      0.000      0.000      0.000      0.000 
      29      0.000      7.250      0.000      0.000 
      30      0.000      0.000      0.000      0.000 
      31      0.000      7.250      0.000      0.000 
      32      0.000      0.000      0.000      0.000 
      33      0.000      7.250      0.000      0.000 
      34      0.000      7.250      0.000      0.000 
      35      0.000      0.000      0.000      0.000 
      36      0.000      7.250      0.000      0.000 

Improper Coeffs 

       1      0.000      -1       2 
       2      0.000      -1       2 
       3      2.500      -1       2 
       4      2.500      -1       2 
       5      2.500      -1       2 
       6      2.500      -1       2 
       7      0.000      -1       2 
       8      0.000      -1       2 
       9      2.500      -1       2 
      10      2.500      -1       2 

Atoms 

     1      1      1 -0.63610000    1.000  1.00000  0.00000
     2      1      2 1.31190000   -0.459  1.00000  0.00000
     3      1      3 -0.63610000   -1.089  1.00000  1.31831
     4      1      4 -0.63610000   -1.090  1.87627 -0.98563
     5      1      5 -0.44310000   -0.826 -0.65967 -0.62876
     6      1      6 -0.04460000   -0.976 -1.71759  0.27012
     7      1      7 -0.16470000   -1.203 -3.00540 -0.21824
     8      1      8 -0.07830000   -1.281 -3.23617 -1.59976
     9      1      9 -0.16440000   -1.466 -4.62388 -2.13587
    10      1     10 -0.16470000   -1.181 -2.15165 -2.48524
    11      1     11 -0.04460000   -0.956 -0.86202 -2.00431
    12      1     12 0.14620000   -0.913 -1.52661  1.33825
    13      1     13 0.10530000   -1.318 -3.82163  0.48966
    14      1     14 0.06600000   -1.480 -5.36619 -1.33107
    15      1     15 0.06600000   -0.636 -4.87777 -2.80473
    16      1     16 0.06600000   -2.409 -4.69851 -2.68519
    17      1     17 0.10530000   -1.278 -2.30425 -3.55670
    18      1     18 0.14620000   -0.878 -0.01533 -2.68155

Bonds 

     1      1      2      1
     2      2      3      2
     3      3      4      2
     4      4      5      2
     5      5      6      5
     6      6      7      6
     7      7      8      7
     8      8      9      8
     9      9     10      8
    10     10     11      5
    11     11     12      6
    12     12     13      7
    13     13     14      9
    14     14     15      9
    15     15     16      9
    16     16     17     10
    17     17     18     11
    18     18     11     10

Angles 

     1      1      1      2      3
     2      2      1      2      4
     3      3      1      2      5
     4      4      2      5      6
     5      5      5      6      7
     6      6      6      7      8
     7      7      7      8      9
     8      8      7      8     10
     9      9      2      5     11
    10     10      5      6     12
    11     11      6      7     13
    12     12      8      9     14
    13     13      8      9     15
    14     14      8      9     16
    15     15      8     10     17
    16     16      5     11     18
    17     17     10     11     18
    18     18     15      9     16
    19     19      6      5     11
    20     20      8      7     13
    21     21     14      9     16
    22     22      8     10     11
    23     23      5     11     10
    24     24      3      2      4
    25     25     11     10     17
    26     26      3      2      5
    27     27      4      2      5
    28     28     14      9     15
    29     29      9      8     10
    30     30      7      6     12

Dihedrals

     1      1      6      5      2      1 
     2      2      7      6      5      2 
     3      3      8      7      6      5 
     4      4      9      8      7      6 
     5      5     14      9      8      7 
     6      6     13      7      8     10 
     7      7     14      9      8     10 
     8      8     17     10      8      7 
     9      9     18     11      5      6 
    10     10     11     10      8      7 
    11     11     18     11     10     17 
    12     12     12      6      5      2 
    13     13      6      5      2      4 
    14     14     18     11     10      8 
    15     15     13      7      8      9 
    16     16      8     10     11      5 
    17     17     13      7      6     12 
    18     18     10     11      5      6 
    19     19     11      5      2      4 
    20     20     18     11      5      2 
    21     21     11      5      2      1 
    22     22     10      8      7      6 
    23     23     11     10      8      9 
    24     24     11      5      2      3 
    25     25     12      6      5     11 
    26     26      6      5      2      3 
    27     27     17     10      8      9 
    28     28     16      9      8     10 
    29     29     10     11      5      2 
    30     30     15      9      8      7 
    31     31     11      5      6      7 
    32     32     15      9      8     10 
    33     33     17     10     11      5 
    34     34     13      7      6      5 
    35     35     16      9      8      7 
    36     36     12      6      7      8 

Impropers

     1      1      2      1      3      4 
     2      2      2      1      3      5 
     3      3      8      9     10      7 
     4      4      5      2     11      6 
     5      5      6     12      5      7 
     6      6      7     13      6      8 
     7      7      9     14     15      8 
     8      8      9      8     14     16 
     9      9     10     17     11      8 
    10     10     11     18      5     10 

